%%MatrixMarket matrix coordinate integer general
%
400 400 63780
1 4 1
1 5 1
1 6 1
1 7 1
1 8 1
1 12 1
1 13 1
1 14 1
1 16 1
1 18 1
1 21 1
1 24 1
1 27 1
1 29 1
1 31 1
1 33 1
1 35 1
1 37 1
1 43 1
1 50 1
1 53 1
1 54 1
1 56 1
1 57 1
1 58 1
1 62 1
1 63 1
1 65 1
1 66 1
1 68 1
1 70 1
1 72 1
1 73 1
1 80 1
1 81 1
1 82 1
1 83 1
1 84 1
1 88 1
1 94 1
1 97 1
1 100 1
1 101 1
1 103 1
1 106 1
1 110 1
1 112 1
1 113 1
1 114 1
1 115 1
1 116 1
1 126 1
1 127 1
1 129 1
1 132 1
1 135 1
1 136 1
1 138 1
1 141 1
1 143 1
1 145 1
1 146 1
1 148 1
1 150 1
1 154 1
1 155 1
1 161 1
1 162 1
1 165 1
1 169 1
1 170 1
1 172 1
1 173 1
1 174 1
1 178 1
1 181 1
1 182 1
1 185 1
1 186 1
1 189 1
1 191 1
1 192 1
1 194 1
1 195 1
1 199 1
1 200 1
1 204 1
1 205 1
1 206 1
1 207 1
1 208 1
1 210 1
1 211 1
1 216 1
1 221 1
1 225 1
1 230 1
1 231 1
1 232 1
1 236 1
1 238 1
1 242 1
1 243 1
1 245 1
1 247 1
1 251 1
1 252 1
1 254 1
1 263 1
1 264 1
1 265 1
1 268 1
1 271 1
1 274 1
1 276 1
1 279 1
1 281 1
1 284 1
1 285 1
1 290 1
1 292 1
1 295 1
1 296 1
1 299 1
1 300 1
1 303 1
1 304 1
1 310 1
1 312 1
1 313 1
1 320 1
1 321 1
1 325 1
1 331 1
1 332 1
1 334 1
1 335 1
1 338 1
1 339 1
1 340 1
1 345 1
1 346 1
1 354 1
1 355 1
1 356 1
1 357 1
1 358 1
1 361 1
1 365 1
1 366 1
1 368 1
1 369 1
1 370 1
1 371 1
1 372 1
1 375 1
1 376 1
1 378 1
1 388 1
1 391 1
1 395 1
1 397 1
1 398 1
1 400 1
2 5 1
2 7 1
2 9 1
2 12 1
2 18 1
2 20 1
2 23 1
2 31 1
2 34 1
2 36 1
2 42 1
2 43 1
2 46 1
2 47 1
2 49 1
2 50 1
2 54 1
2 56 1
2 71 1
2 75 1
2 77 1
2 79 1
2 81 1
2 82 1
2 83 1
2 84 1
2 89 1
2 94 1
2 98 1
2 99 1
2 100 1
2 101 1
2 102 1
2 104 1
2 105 1
2 107 1
2 109 1
2 111 1
2 112 1
2 114 1
2 123 1
2 125 1
2 126 1
2 127 1
2 130 1
2 138 1
2 140 1
2 142 1
2 143 1
2 144 1
2 146 1
2 148 1
2 150 1
2 152 1
2 157 1
2 160 1
2 162 1
2 169 1
2 170 1
2 172 1
2 173 1
2 175 1
2 176 1
2 177 1
2 178 1
2 179 1
2 181 1
2 182 1
2 183 1
2 187 1
2 194 1
2 196 1
2 197 1
2 202 1
2 205 1
2 209 1
2 211 1
2 213 1
2 214 1
2 218 1
2 220 1
2 222 1
2 227 1
2 230 1
2 232 1
2 235 1
2 238 1
2 241 1
2 242 1
2 245 1
2 246 1
2 249 1
2 250 1
2 251 1
2 253 1
2 257 1
2 259 1
2 261 1
2 263 1
2 264 1
2 269 1
2 270 1
2 274 1
2 276 1
2 284 1
2 290 1
2 292 1
2 296 1
2 298 1
2 299 1
2 301 1
2 302 1
2 303 1
2 305 1
2 306 1
2 307 1
2 309 1
2 311 1
2 313 1
2 315 1
2 316 1
2 318 1
2 319 1
2 321 1
2 322 1
2 326 1
2 327 1
2 335 1
2 336 1
2 337 1
2 341 1
2 343 1
2 348 1
2 349 1
2 351 1
2 353 1
2 356 1
2 357 1
2 361 1
2 364 1
2 365 1
2 368 1
2 370 1
2 373 1
2 374 1
2 375 1
2 377 1
2 378 1
2 385 1
2 388 1
2 390 1
2 391 1
2 392 1
2 394 1
2 396 1
2 397 1
2 400 1
3 6 1
3 7 1
3 9 1
3 11 1
3 13 1
3 16 1
3 19 1
3 24 1
3 25 1
3 27 1
3 28 1
3 33 1
3 34 1
3 38 1
3 40 1
3 41 1
3 46 1
3 47 1
3 48 1
3 49 1
3 51 1
3 55 1
3 58 1
3 59 1
3 60 1
3 61 1
3 63 1
3 65 1
3 71 1
3 72 1
3 73 1
3 75 1
3 77 1
3 79 1
3 83 1
3 84 1
3 85 1
3 88 1
3 92 1
3 95 1
3 96 1
3 98 1
3 101 1
3 102 1
3 103 1
3 104 1
3 112 1
3 115 1
3 117 1
3 118 1
3 122 1
3 125 1
3 126 1
3 131 1
3 132 1
3 136 1
3 138 1
3 140 1
3 141 1
3 142 1
3 145 1
3 149 1
3 152 1
3 155 1
3 156 1
3 160 1
3 162 1
3 163 1
3 164 1
3 165 1
3 171 1
3 174 1
3 178 1
3 179 1
3 181 1
3 182 1
3 183 1
3 186 1
3 190 1
3 191 1
3 192 1
3 193 1
3 194 1
3 195 1
3 197 1
3 199 1
3 200 1
3 201 1
3 202 1
3 203 1
3 204 1
3 205 1
3 206 1
3 208 1
3 211 1
3 213 1
3 214 1
3 216 1
3 217 1
3 223 1
3 224 1
3 225 1
3 226 1
3 229 1
3 230 1
3 234 1
3 237 1
3 239 1
3 242 1
3 243 1
3 245 1
3 250 1
3 253 1
3 255 1
3 256 1
3 258 1
3 259 1
3 260 1
3 261 1
3 264 1
3 265 1
3 272 1
3 273 1
3 276 1
3 283 1
3 285 1
3 286 1
3 288 1
3 289 1
3 291 1
3 293 1
3 295 1
3 298 1
3 299 1
3 301 1
3 303 1
3 304 1
3 320 1
3 321 1
3 322 1
3 324 1
3 325 1
3 327 1
3 328 1
3 331 1
3 335 1
3 336 1
3 337 1
3 338 1
3 340 1
3 345 1
3 349 1
3 351 1
3 352 1
3 356 1
3 357 1
3 362 1
3 365 1
3 366 1
3 367 1
3 369 1
3 370 1
3 373 1
3 376 1
3 377 1
3 378 1
3 385 1
3 387 1
3 388 1
3 389 1
3 390 1
3 392 1
3 397 1
3 398 1
3 399 1
3 400 1
4 1 1
4 5 1
4 6 1
4 8 1
4 9 1
4 11 1
4 13 1
4 14 1
4 20 1
4 25 1
4 26 1
4 31 1
4 34 1
4 36 1
4 38 1
4 42 1
4 43 1
4 44 1
4 45 1
4 49 1
4 52 1
4 53 1
4 54 1
4 58 1
4 59 1
4 61 1
4 62 1
4 67 1
4 68 1
4 72 1
4 73 1
4 75 1
4 76 1
4 79 1
4 80 1
4 81 1
4 82 1
4 89 1
4 91 1
4 94 1
4 100 1
4 103 1
4 105 1
4 106 1
4 111 1
4 112 1
4 113 1
4 114 1
4 116 1
4 118 1
4 119 1
4 123 1
4 127 1
4 130 1
4 133 1
4 136 1
4 138 1
4 141 1
4 143 1
4 144 1
4 145 1
4 148 1
4 149 1
4 150 1
4 154 1
4 155 1
4 156 1
4 157 1
4 159 1
4 163 1
4 166 1
4 172 1
4 174 1
4 175 1
4 177 1
4 180 1
4 181 1
4 184 1
4 185 1
4 187 1
4 188 1
4 190 1
4 195 1
4 200 1
4 202 1
4 206 1
4 209 1
4 220 1
4 221 1
4 222 1
4 223 1
4 225 1
4 229 1
4 231 1
4 235 1
4 238 1
4 242 1
4 243 1
4 249 1
4 250 1
4 251 1
4 252 1
4 258 1
4 259 1
4 264 1
4 266 1
4 270 1
4 272 1
4 274 1
4 276 1
4 281 1
4 283 1
4 284 1
4 289 1
4 290 1
4 292 1
4 302 1
4 306 1
4 307 1
4 311 1
4 314 1
4 315 1
4 317 1
4 319 1
4 322 1
4 323 1
4 325 1
4 338 1
4 342 1
4 343 1
4 344 1
4 348 1
4 349 1
4 352 1
4 353 1
4 355 1
4 358 1
4 366 1
4 367 1
4 368 1
4 369 1
4 378 1
4 382 1
4 392 1
4 396 1
4 398 1
4 399 1
4 400 1
5 1 1
5 2 1
5 4 1
5 6 1
5 8 1
5 11 1
5 14 1
5 15 1
5 19 1
5 20 1
5 21 1
5 23 1
5 27 1
5 28 1
5 29 1
5 33 1
5 34 1
5 37 1
5 38 1
5 39 1
5 41 1
5 42 1
5 46 1
5 50 1
5 51 1
5 55 1
5 56 1
5 59 1
5 61 1
5 62 1
5 63 1
5 64 1
5 69 1
5 70 1
5 71 1
5 77 1
5 78 1
5 80 1
5 81 1
5 82 1
5 83 1
5 86 1
5 87 1
5 88 1
5 91 1
5 94 1
5 95 1
5 98 1
5 100 1
5 102 1
5 103 1
5 105 1
5 113 1
5 114 1
5 118 1
5 119 1
5 123 1
5 125 1
5 129 1
5 130 1
5 136 1
5 137 1
5 138 1
5 141 1
5 142 1
5 144 1
5 146 1
5 147 1
5 148 1
5 154 1
5 156 1
5 158 1
5 161 1
5 163 1
5 167 1
5 169 1
5 170 1
5 175 1
5 176 1
5 177 1
5 179 1
5 180 1
5 181 1
5 182 1
5 183 1
5 185 1
5 197 1
5 199 1
5 204 1
5 208 1
5 212 1
5 216 1
5 217 1
5 219 1
5 225 1
5 226 1
5 229 1
5 231 1
5 233 1
5 234 1
5 235 1
5 243 1
5 245 1
5 248 1
5 250 1
5 251 1
5 252 1
5 253 1
5 256 1
5 257 1
5 260 1
5 266 1
5 272 1
5 276 1
5 277 1
5 278 1
5 279 1
5 280 1
5 281 1
5 286 1
5 289 1
5 292 1
5 293 1
5 295 1
5 300 1
5 303 1
5 308 1
5 309 1
5 313 1
5 319 1
5 320 1
5 326 1
5 327 1
5 333 1
5 335 1
5 336 1
5 338 1
5 340 1
5 341 1
5 343 1
5 345 1
5 350 1
5 351 1
5 352 1
5 353 1
5 354 1
5 357 1
5 358 1
5 360 1
5 361 1
5 362 1
5 367 1
5 368 1
5 369 1
5 370 1
5 371 1
5 372 1
5 375 1
5 378 1
5 385 1
5 386 1
5 389 1
5 391 1
5 393 1
5 395 1
5 397 1
6 1 1
6 3 1
6 4 1
6 5 1
6 7 1
6 9 1
6 11 1
6 18 1
6 20 1
6 21 1
6 22 1
6 23 1
6 24 1
6 25 1
6 27 1
6 29 1
6 30 1
6 32 1
6 39 1
6 41 1
6 42 1
6 43 1
6 44 1
6 48 1
6 54 1
6 63 1
6 68 1
6 71 1
6 72 1
6 74 1
6 75 1
6 78 1
6 82 1
6 84 1
6 85 1
6 86 1
6 87 1
6 90 1
6 91 1
6 93 1
6 94 1
6 96 1
6 97 1
6 99 1
6 100 1
6 101 1
6 103 1
6 104 1
6 105 1
6 106 1
6 107 1
6 109 1
6 111 1
6 117 1
6 119 1
6 120 1
6 121 1
6 126 1
6 127 1
6 128 1
6 129 1
6 138 1
6 139 1
6 140 1
6 141 1
6 145 1
6 146 1
6 147 1
6 159 1
6 161 1
6 164 1
6 165 1
6 167 1
6 171 1
6 176 1
6 177 1
6 180 1
6 181 1
6 183 1
6 184 1
6 185 1
6 187 1
6 191 1
6 195 1
6 196 1
6 197 1
6 200 1
6 201 1
6 208 1
6 210 1
6 214 1
6 219 1
6 222 1
6 228 1
6 230 1
6 239 1
6 240 1
6 244 1
6 245 1
6 246 1
6 251 1
6 252 1
6 255 1
6 258 1
6 265 1
6 267 1
6 270 1
6 271 1
6 272 1
6 274 1
6 276 1
6 280 1
6 282 1
6 284 1
6 285 1
6 286 1
6 290 1
6 296 1
6 297 1
6 302 1
6 308 1
6 310 1
6 312 1
6 315 1
6 319 1
6 321 1
6 324 1
6 325 1
6 327 1
6 328 1
6 331 1
6 334 1
6 340 1
6 341 1
6 343 1
6 344 1
6 345 1
6 346 1
6 347 1
6 352 1
6 355 1
6 360 1
6 363 1
6 367 1
6 369 1
6 371 1
6 373 1
6 374 1
6 379 1
6 382 1
6 383 1
6 386 1
6 387 1
6 396 1
6 397 1
6 398 1
6 399 1
7 1 1
7 2 1
7 3 1
7 6 1
7 8 1
7 11 1
7 23 1
7 24 1
7 27 1
7 28 1
7 29 1
7 30 1
7 34 1
7 35 1
7 39 1
7 41 1
7 43 1
7 48 1
7 49 1
7 51 1
7 54 1
7 57 1
7 62 1
7 64 1
7 68 1
7 70 1
7 72 1
7 73 1
7 74 1
7 75 1
7 79 1
7 83 1
7 84 1
7 85 1
7 87 1
7 88 1
7 93 1
7 99 1
7 100 1
7 101 1
7 102 1
7 103 1
7 104 1
7 106 1
7 111 1
7 112 1
7 115 1
7 116 1
7 121 1
7 125 1
7 126 1
7 130 1
7 131 1
7 134 1
7 138 1
7 139 1
7 140 1
7 141 1
7 144 1
7 145 1
7 148 1
7 151 1
7 153 1
7 155 1
7 156 1
7 157 1
7 158 1
7 161 1
7 167 1
7 169 1
7 173 1
7 175 1
7 180 1
7 184 1
7 187 1
7 193 1
7 197 1
7 198 1
7 200 1
7 201 1
7 203 1
7 205 1
7 214 1
7 216 1
7 217 1
7 218 1
7 221 1
7 223 1
7 224 1
7 227 1
7 228 1
7 230 1
7 237 1
7 239 1
7 240 1
7 247 1
7 248 1
7 249 1
7 252 1
7 255 1
7 259 1
7 260 1
7 271 1
7 277 1
7 278 1
7 279 1
7 286 1
7 287 1
7 293 1
7 294 1
7 295 1
7 299 1
7 306 1
7 308 1
7 314 1
7 315 1
7 317 1
7 318 1
7 319 1
7 322 1
7 324 1
7 326 1
7 330 1
7 331 1
7 335 1
7 336 1
7 340 1
7 344 1
7 346 1
7 354 1
7 355 1
7 359 1
7 360 1
7 364 1
7 368 1
7 369 1
7 381 1
7 384 1
7 386 1
7 389 1
7 390 1
7 391 1
7 393 1
7 396 1
8 1 1
8 4 1
8 5 1
8 7 1
8 13 1
8 18 1
8 21 1
8 23 1
8 26 1
8 27 1
8 31 1
8 32 1
8 33 1
8 34 1
8 36 1
8 42 1
8 44 1
8 45 1
8 46 1
8 47 1
8 48 1
8 50 1
8 51 1
8 55 1
8 56 1
8 57 1
8 58 1
8 60 1
8 63 1
8 65 1
8 70 1
8 72 1
8 73 1
8 74 1
8 82 1
8 87 1
8 88 1
8 89 1
8 91 1
8 92 1
8 93 1
8 94 1
8 99 1
8 111 1
8 113 1
8 114 1
8 116 1
8 118 1
8 121 1
8 122 1
8 123 1
8 124 1
8 126 1
8 127 1
8 128 1
8 131 1
8 133 1
8 134 1
8 136 1
8 138 1
8 139 1
8 140 1
8 143 1
8 145 1
8 146 1
8 148 1
8 149 1
8 152 1
8 155 1
8 159 1
8 163 1
8 166 1
8 167 1
8 173 1
8 176 1
8 178 1
8 179 1
8 180 1
8 182 1
8 192 1
8 193 1
8 197 1
8 199 1
8 206 1
8 214 1
8 223 1
8 226 1
8 230 1
8 235 1
8 236 1
8 238 1
8 240 1
8 245 1
8 247 1
8 249 1
8 250 1
8 253 1
8 255 1
8 256 1
8 259 1
8 262 1
8 263 1
8 266 1
8 267 1
8 269 1
8 272 1
8 273 1
8 275 1
8 276 1
8 278 1
8 279 1
8 280 1
8 283 1
8 285 1
8 291 1
8 293 1
8 296 1
8 297 1
8 298 1
8 300 1
8 303 1
8 305 1
8 307 1
8 308 1
8 310 1
8 311 1
8 312 1
8 318 1
8 323 1
8 326 1
8 327 1
8 328 1
8 335 1
8 337 1
8 338 1
8 339 1
8 340 1
8 344 1
8 347 1
8 348 1
8 350 1
8 354 1
8 355 1
8 357 1
8 359 1
8 360 1
8 361 1
8 364 1
8 368 1
8 369 1
8 370 1
8 378 1
8 379 1
8 381 1
8 382 1
8 387 1
8 388 1
8 389 1
8 390 1
8 392 1
8 393 1
8 394 1
8 395 1
9 2 1
9 3 1
9 4 1
9 6 1
9 10 1
9 13 1
9 15 1
9 16 1
9 17 1
9 22 1
9 23 1
9 26 1
9 29 1
9 33 1
9 37 1
9 41 1
9 42 1
9 43 1
9 45 1
9 50 1
9 54 1
9 56 1
9 60 1
9 64 1
9 68 1
9 72 1
9 74 1
9 75 1
9 76 1
9 77 1
9 78 1
9 79 1
9 83 1
9 84 1
9 86 1
9 92 1
9 94 1
9 97 1
9 98 1
9 99 1
9 108 1
9 111 1
9 112 1
9 113 1
9 114 1
9 116 1
9 117 1
9 118 1
9 120 1
9 121 1
9 125 1
9 126 1
9 127 1
9 133 1
9 137 1
9 139 1
9 141 1
9 148 1
9 149 1
9 150 1
9 151 1
9 154 1
9 169 1
9 170 1
9 171 1
9 175 1
9 180 1
9 183 1
9 186 1
9 191 1
9 192 1
9 195 1
9 196 1
9 197 1
9 199 1
9 201 1
9 203 1
9 206 1
9 207 1
9 210 1
9 212 1
9 213 1
9 217 1
9 221 1
9 222 1
9 226 1
9 227 1
9 228 1
9 229 1
9 234 1
9 236 1
9 238 1
9 240 1
9 241 1
9 243 1
9 247 1
9 248 1
9 252 1
9 253 1
9 255 1
9 256 1
9 258 1
9 261 1
9 262 1
9 264 1
9 273 1
9 276 1
9 278 1
9 279 1
9 283 1
9 285 1
9 289 1
9 298 1
9 299 1
9 301 1
9 303 1
9 306 1
9 307 1
9 308 1
9 311 1
9 314 1
9 319 1
9 321 1
9 326 1
9 330 1
9 332 1
9 337 1
9 340 1
9 341 1
9 342 1
9 343 1
9 348 1
9 353 1
9 355 1
9 356 1
9 357 1
9 363 1
9 366 1
9 369 1
9 370 1
9 376 1
9 377 1
9 378 1
9 380 1
9 383 1
9 385 1
9 387 1
9 388 1
9 391 1
9 392 1
10 9 1
10 11 1
10 12 1
10 17 1
10 20 1
10 22 1
10 23 1
10 24 1
10 25 1
10 29 1
10 31 1
10 32 1
10 36 1
10 37 1
10 38 1
10 39 1
10 42 1
10 44 1
10 48 1
10 50 1
10 51 1
10 58 1
10 61 1
10 62 1
10 63 1
10 66 1
10 69 1
10 70 1
10 73 1
10 74 1
10 75 1
10 76 1
10 78 1
10 79 1
10 80 1
10 85 1
10 86 1
10 89 1
10 90 1
10 92 1
10 93 1
10 96 1
10 97 1
10 98 1
10 99 1
10 103 1
10 104 1
10 109 1
10 110 1
10 114 1
10 115 1
10 120 1
10 121 1
10 123 1
10 124 1
10 125 1
10 131 1
10 134 1
10 138 1
10 141 1
10 143 1
10 145 1
10 146 1
10 149 1
10 151 1
10 153 1
10 155 1
10 159 1
10 160 1
10 161 1
10 164 1
10 168 1
10 174 1
10 183 1
10 187 1
10 192 1
10 193 1
10 194 1
10 195 1
10 202 1
10 204 1
10 205 1
10 206 1
10 209 1
10 210 1
10 212 1
10 215 1
10 218 1
10 221 1
10 223 1
10 225 1
10 227 1
10 228 1
10 229 1
10 232 1
10 233 1
10 236 1
10 237 1
10 238 1
10 239 1
10 240 1
10 243 1
10 247 1
10 248 1
10 250 1
10 254 1
10 256 1
10 258 1
10 259 1
10 264 1
10 265 1
10 267 1
10 270 1
10 273 1
10 278 1
10 282 1
10 284 1
10 286 1
10 289 1
10 297 1
10 301 1
10 304 1
10 305 1
10 308 1
10 310 1
10 312 1
10 316 1
10 320 1
10 322 1
10 324 1
10 325 1
10 327 1
10 329 1
10 330 1
10 331 1
10 339 1
10 342 1
10 343 1
10 345 1
10 346 1
10 348 1
10 351 1
10 352 1
10 355 1
10 356 1
10 357 1
10 358 1
10 359 1
10 361 1
10 364 1
10 368 1
10 371 1
10 372 1
10 374 1
10 377 1
10 378 1
10 380 1
10 381 1
10 383 1
10 392 1
10 394 1
10 399 1
10 400 1
11 3 1
11 4 1
11 5 1
11 6 1
11 7 1
11 10 1
11 12 1
11 20 1
11 22 1
11 25 1
11 27 1
11 31 1
11 33 1
11 39 1
11 42 1
11 44 1
11 55 1
11 59 1
11 60 1
11 62 1
11 64 1
11 67 1
11 68 1
11 72 1
11 73 1
11 74 1
11 75 1
11 76 1
11 77 1
11 78 1
11 79 1
11 82 1
11 85 1
11 89 1
11 92 1
11 96 1
11 100 1
11 102 1
11 103 1
11 106 1
11 112 1
11 113 1
11 117 1
11 121 1
11 122 1
11 128 1
11 129 1
11 130 1
11 131 1
11 133 1
11 135 1
11 137 1
11 138 1
11 139 1
11 141 1
11 144 1
11 150 1
11 154 1
11 155 1
11 156 1
11 161 1
11 162 1
11 164 1
11 165 1
11 166 1
11 167 1
11 170 1
11 172 1
11 173 1
11 174 1
11 178 1
11 181 1
11 185 1
11 187 1
11 189 1
11 194 1
11 198 1
11 199 1
11 202 1
11 205 1
11 209 1
11 212 1
11 213 1
11 214 1
11 215 1
11 216 1
11 221 1
11 231 1
11 234 1
11 235 1
11 239 1
11 244 1
11 247 1
11 248 1
11 251 1
11 253 1
11 254 1
11 255 1
11 257 1
11 258 1
11 259 1
11 260 1
11 264 1
11 265 1
11 267 1
11 268 1
11 273 1
11 275 1
11 276 1
11 278 1
11 279 1
11 280 1
11 281 1
11 282 1
11 283 1
11 284 1
11 287 1
11 290 1
11 293 1
11 295 1
11 296 1
11 297 1
11 299 1
11 305 1
11 309 1
11 311 1
11 312 1
11 313 1
11 314 1
11 315 1
11 317 1
11 319 1
11 321 1
11 323 1
11 329 1
11 334 1
11 335 1
11 338 1
11 339 1
11 342 1
11 344 1
11 345 1
11 348 1
11 349 1
11 351 1
11 354 1
11 356 1
11 362 1
11 369 1
11 370 1
11 373 1
11 375 1
11 378 1
11 379 1
11 382 1
11 383 1
11 386 1
11 388 1
11 389 1
11 390 1
11 398 1
11 399 1
11 400 1
12 1 1
12 2 1
12 10 1
12 11 1
12 13 1
12 15 1
12 19 1
12 21 1
12 22 1
12 24 1
12 25 1
12 27 1
12 29 1
12 30 1
12 31 1
12 34 1
12 36 1
12 38 1
12 39 1
12 40 1
12 42 1
12 47 1
12 50 1
12 53 1
12 54 1
12 56 1
12 59 1
12 62 1
12 63 1
12 68 1
12 69 1
12 76 1
12 77 1
12 78 1
12 81 1
12 85 1
12 86 1
12 89 1
12 92 1
12 93 1
12 95 1
12 98 1
12 99 1
12 100 1
12 105 1
12 106 1
12 107 1
12 109 1
12 110 1
12 112 1
12 113 1
12 114 1
12 116 1
12 118 1
12 119 1
12 120 1
12 121 1
12 124 1
12 125 1
12 126 1
12 127 1
12 131 1
12 135 1
12 136 1
12 137 1
12 138 1
12 139 1
12 142 1
12 145 1
12 146 1
12 149 1
12 151 1
12 153 1
12 157 1
12 160 1
12 161 1
12 163 1
12 164 1
12 166 1
12 167 1
12 168 1
12 171 1
12 175 1
12 177 1
12 178 1
12 180 1
12 184 1
12 185 1
12 187 1
12 188 1
12 190 1
12 194 1
12 196 1
12 198 1
12 200 1
12 207 1
12 211 1
12 214 1
12 217 1
12 218 1
12 220 1
12 224 1
12 237 1
12 238 1
12 239 1
12 242 1
12 245 1
12 247 1
12 249 1
12 250 1
12 252 1
12 253 1
12 255 1
12 256 1
12 258 1
12 260 1
12 262 1
12 264 1
12 265 1
12 267 1
12 269 1
12 272 1
12 276 1
12 277 1
12 280 1
12 281 1
12 283 1
12 284 1
12 285 1
12 288 1
12 293 1
12 294 1
12 295 1
12 297 1
12 300 1
12 303 1
12 305 1
12 307 1
12 309 1
12 312 1
12 315 1
12 319 1
12 322 1
12 323 1
12 324 1
12 328 1
12 329 1
12 331 1
12 334 1
12 336 1
12 337 1
12 338 1
12 339 1
12 341 1
12 342 1
12 345 1
12 347 1
12 357 1
12 359 1
12 360 1
12 361 1
12 364 1
12 368 1
12 369 1
12 371 1
12 372 1
12 373 1
12 375 1
12 378 1
12 379 1
12 382 1
12 383 1
12 387 1
12 388 1
12 389 1
12 390 1
12 391 1
12 392 1
12 394 1
12 395 1
12 398 1
13 1 1
13 3 1
13 4 1
13 8 1
13 9 1
13 12 1
13 16 1
13 23 1
13 24 1
13 26 1
13 27 1
13 36 1
13 38 1
13 40 1
13 50 1
13 53 1
13 56 1
13 57 1
13 59 1
13 60 1
13 61 1
13 64 1
13 67 1
13 68 1
13 69 1
13 70 1
13 73 1
13 76 1
13 81 1
13 83 1
13 87 1
13 89 1
13 91 1
13 93 1
13 95 1
13 97 1
13 100 1
13 101 1
13 102 1
13 103 1
13 105 1
13 107 1
13 110 1
13 112 1
13 113 1
13 116 1
13 121 1
13 123 1
13 127 1
13 128 1
13 130 1
13 131 1
13 133 1
13 137 1
13 139 1
13 140 1
13 143 1
13 148 1
13 149 1
13 150 1
13 152 1
13 154 1
13 156 1
13 158 1
13 161 1
13 162 1
13 164 1
13 165 1
13 168 1
13 170 1
13 173 1
13 174 1
13 176 1
13 180 1
13 182 1
13 184 1
13 187 1
13 188 1
13 189 1
13 191 1
13 199 1
13 201 1
13 202 1
13 204 1
13 206 1
13 208 1
13 210 1
13 212 1
13 218 1
13 221 1
13 222 1
13 223 1
13 224 1
13 226 1
13 229 1
13 233 1
13 235 1
13 237 1
13 243 1
13 246 1
13 247 1
13 248 1
13 251 1
13 252 1
13 254 1
13 260 1
13 261 1
13 272 1
13 278 1
13 280 1
13 281 1
13 282 1
13 285 1
13 288 1
13 293 1
13 294 1
13 296 1
13 301 1
13 307 1
13 310 1
13 311 1
13 315 1
13 318 1
13 319 1
13 321 1
13 323 1
13 325 1
13 327 1
13 328 1
13 332 1
13 340 1
13 341 1
13 344 1
13 345 1
13 355 1
13 356 1
13 357 1
13 359 1
13 360 1
13 361 1
13 365 1
13 371 1
13 374 1
13 375 1
13 376 1
13 378 1
13 381 1
13 385 1
13 388 1
13 390 1
13 391 1
13 396 1
13 399 1
14 1 1
14 4 1
14 5 1
14 15 1
14 22 1
14 23 1
14 26 1
14 31 1
14 39 1
14 43 1
14 52 1
14 53 1
14 55 1
14 56 1
14 57 1
14 59 1
14 60 1
14 66 1
14 67 1
14 68 1
14 70 1
14 72 1
14 74 1
14 78 1
14 79 1
14 80 1
14 81 1
14 84 1
14 86 1
14 87 1
14 88 1
14 89 1
14 90 1
14 94 1
14 96 1
14 97 1
14 100 1
14 101 1
14 102 1
14 104 1
14 109 1
14 112 1
14 115 1
14 116 1
14 118 1
14 120 1
14 121 1
14 123 1
14 125 1
14 126 1
14 129 1
14 133 1
14 136 1
14 138 1
14 142 1
14 144 1
14 145 1
14 146 1
14 148 1
14 150 1
14 151 1
14 153 1
14 154 1
14 158 1
14 160 1
14 161 1
14 163 1
14 164 1
14 167 1
14 168 1
14 169 1
14 172 1
14 173 1
14 176 1
14 178 1
14 180 1
14 182 1
14 185 1
14 186 1
14 192 1
14 193 1
14 194 1
14 202 1
14 207 1
14 210 1
14 215 1
14 218 1
14 223 1
14 225 1
14 228 1
14 229 1
14 236 1
14 239 1
14 243 1
14 245 1
14 251 1
14 255 1
14 259 1
14 260 1
14 261 1
14 264 1
14 265 1
14 270 1
14 271 1
14 276 1
14 288 1
14 289 1
14 293 1
14 296 1
14 299 1
14 300 1
14 303 1
14 306 1
14 307 1
14 311 1
14 313 1
14 315 1
14 318 1
14 320 1
14 324 1
14 333 1
14 335 1
14 336 1
14 337 1
14 349 1
14 351 1
14 352 1
14 353 1
14 354 1
14 355 1
14 359 1
14 364 1
14 365 1
14 366 1
14 368 1
14 371 1
14 374 1
14 376 1
14 385 1
14 388 1
14 390 1
14 391 1
14 395 1
14 396 1
14 398 1
14 399 1
14 400 1
15 5 1
15 9 1
15 12 1
15 14 1
15 17 1
15 18 1
15 19 1
15 21 1
15 22 1
15 29 1
15 31 1
15 32 1
15 33 1
15 34 1
15 35 1
15 37 1
15 39 1
15 41 1
15 43 1
15 53 1
15 54 1
15 55 1
15 56 1
15 57 1
15 59 1
15 60 1
15 61 1
15 62 1
15 63 1
15 66 1
15 67 1
15 72 1
15 77 1
15 79 1
15 80 1
15 83 1
15 88 1
15 90 1
15 91 1
15 95 1
15 96 1
15 98 1
15 99 1
15 102 1
15 104 1
15 106 1
15 115 1
15 117 1
15 118 1
15 119 1
15 121 1
15 122 1
15 125 1
15 126 1
15 127 1
15 128 1
15 130 1
15 132 1
15 137 1
15 138 1
15 143 1
15 144 1
15 146 1
15 147 1
15 148 1
15 154 1
15 158 1
15 160 1
15 165 1
15 170 1
15 172 1
15 174 1
15 179 1
15 181 1
15 183 1
15 185 1
15 186 1
15 187 1
15 189 1
15 197 1
15 198 1
15 199 1
15 200 1
15 202 1
15 204 1
15 206 1
15 207 1
15 208 1
15 209 1
15 210 1
15 214 1
15 215 1
15 217 1
15 221 1
15 224 1
15 225 1
15 228 1
15 234 1
15 242 1
15 244 1
15 246 1
15 247 1
15 253 1
15 261 1
15 262 1
15 263 1
15 266 1
15 271 1
15 273 1
15 278 1
15 279 1
15 291 1
15 292 1
15 293 1
15 297 1
15 303 1
15 306 1
15 311 1
15 315 1
15 316 1
15 317 1
15 320 1
15 321 1
15 322 1
15 326 1
15 330 1
15 331 1
15 337 1
15 338 1
15 340 1
15 341 1
15 342 1
15 343 1
15 347 1
15 350 1
15 354 1
15 357 1
15 359 1
15 361 1
15 363 1
15 364 1
15 366 1
15 369 1
15 370 1
15 373 1
15 375 1
15 382 1
15 384 1
15 386 1
15 388 1
15 393 1
15 394 1
15 395 1
15 400 1
16 1 1
16 3 1
16 9 1
16 13 1
16 17 1
16 22 1
16 23 1
16 26 1
16 28 1
16 30 1
16 31 1
16 33 1
16 36 1
16 37 1
16 39 1
16 40 1
16 41 1
16 43 1
16 44 1
16 46 1
16 49 1
16 50 1
16 56 1
16 59 1
16 62 1
16 64 1
16 66 1
16 69 1
16 71 1
16 72 1
16 73 1
16 74 1
16 76 1
16 79 1
16 81 1
16 85 1
16 87 1
16 89 1
16 90 1
16 91 1
16 96 1
16 97 1
16 99 1
16 101 1
16 103 1
16 104 1
16 106 1
16 107 1
16 108 1
16 109 1
16 110 1
16 114 1
16 117 1
16 120 1
16 125 1
16 130 1
16 131 1
16 133 1
16 135 1
16 136 1
16 145 1
16 148 1
16 149 1
16 151 1
16 153 1
16 156 1
16 158 1
16 161 1
16 167 1
16 169 1
16 170 1
16 171 1
16 173 1
16 175 1
16 178 1
16 179 1
16 187 1
16 190 1
16 191 1
16 192 1
16 195 1
16 196 1
16 197 1
16 201 1
16 203 1
16 204 1
16 205 1
16 210 1
16 215 1
16 222 1
16 224 1
16 226 1
16 229 1
16 233 1
16 234 1
16 236 1
16 237 1
16 239 1
16 240 1
16 244 1
16 248 1
16 252 1
16 255 1
16 262 1
16 264 1
16 265 1
16 268 1
16 269 1
16 280 1
16 283 1
16 284 1
16 285 1
16 287 1
16 290 1
16 292 1
16 293 1
16 295 1
16 300 1
16 304 1
16 305 1
16 307 1
16 308 1
16 310 1
16 311 1
16 313 1
16 316 1
16 318 1
16 322 1
16 324 1
16 326 1
16 328 1
16 331 1
16 341 1
16 342 1
16 343 1
16 347 1
16 348 1
16 350 1
16 351 1
16 352 1
16 355 1
16 363 1
16 366 1
16 367 1
16 371 1
16 373 1
16 375 1
16 376 1
16 379 1
16 380 1
16 383 1
16 384 1
16 385 1
16 386 1
16 388 1
16 389 1
16 391 1
16 393 1
16 394 1
16 395 1
16 399 1
17 9 1
17 10 1
17 15 1
17 16 1
17 19 1
17 21 1
17 24 1
17 28 1
17 29 1
17 35 1
17 37 1
17 38 1
17 41 1
17 45 1
17 49 1
17 51 1
17 53 1
17 56 1
17 61 1
17 63 1
17 64 1
17 68 1
17 69 1
17 75 1
17 78 1
17 79 1
17 80 1
17 82 1
17 83 1
17 84 1
17 86 1
17 89 1
17 90 1
17 91 1
17 95 1
17 99 1
17 100 1
17 102 1
17 103 1
17 104 1
17 107 1
17 108 1
17 109 1
17 110 1
17 112 1
17 115 1
17 116 1
17 117 1
17 118 1
17 128 1
17 129 1
17 130 1
17 131 1
17 134 1
17 139 1
17 141 1
17 142 1
17 144 1
17 146 1
17 148 1
17 155 1
17 156 1
17 158 1
17 160 1
17 162 1
17 163 1
17 167 1
17 168 1
17 173 1
17 174 1
17 185 1
17 186 1
17 190 1
17 202 1
17 206 1
17 212 1
17 213 1
17 215 1
17 216 1
17 218 1
17 219 1
17 221 1
17 223 1
17 225 1
17 229 1
17 231 1
17 232 1
17 234 1
17 236 1
17 237 1
17 239 1
17 241 1
17 242 1
17 244 1
17 245 1
17 249 1
17 250 1
17 254 1
17 256 1
17 257 1
17 259 1
17 263 1
17 269 1
17 271 1
17 272 1
17 276 1
17 277 1
17 278 1
17 282 1
17 285 1
17 287 1
17 288 1
17 289 1
17 291 1
17 297 1
17 301 1
17 302 1
17 303 1
17 305 1
17 306 1
17 307 1
17 311 1
17 313 1
17 314 1
17 316 1
17 320 1
17 321 1
17 323 1
17 326 1
17 330 1
17 331 1
17 332 1
17 334 1
17 339 1
17 341 1
17 343 1
17 346 1
17 348 1
17 351 1
17 353 1
17 354 1
17 362 1
17 364 1
17 365 1
17 366 1
17 368 1
17 372 1
17 379 1
17 382 1
17 384 1
17 385 1
17 389 1
18 1 1
18 2 1
18 6 1
18 8 1
18 15 1
18 21 1
18 27 1
18 28 1
18 34 1
18 36 1
18 37 1
18 41 1
18 44 1
18 50 1
18 51 1
18 52 1
18 54 1
18 57 1
18 60 1
18 63 1
18 67 1
18 69 1
18 76 1
18 78 1
18 79 1
18 80 1
18 81 1
18 84 1
18 85 1
18 86 1
18 88 1
18 93 1
18 94 1
18 96 1
18 99 1
18 100 1
18 106 1
18 107 1
18 109 1
18 110 1
18 111 1
18 113 1
18 117 1
18 118 1
18 119 1
18 120 1
18 123 1
18 124 1
18 128 1
18 131 1
18 133 1
18 134 1
18 135 1
18 136 1
18 139 1
18 140 1
18 142 1
18 143 1
18 146 1
18 148 1
18 149 1
18 150 1
18 151 1
18 155 1
18 156 1
18 160 1
18 161 1
18 162 1
18 163 1
18 169 1
18 171 1
18 173 1
18 174 1
18 176 1
18 177 1
18 179 1
18 183 1
18 185 1
18 190 1
18 191 1
18 194 1
18 195 1
18 199 1
18 201 1
18 203 1
18 205 1
18 211 1
18 212 1
18 213 1
18 223 1
18 226 1
18 228 1
18 234 1
18 235 1
18 237 1
18 238 1
18 240 1
18 243 1
18 245 1
18 252 1
18 254 1
18 258 1
18 262 1
18 263 1
18 264 1
18 265 1
18 267 1
18 274 1
18 278 1
18 281 1
18 282 1
18 285 1
18 286 1
18 288 1
18 292 1
18 294 1
18 297 1
18 302 1
18 306 1
18 308 1
18 309 1
18 310 1
18 313 1
18 317 1
18 320 1
18 321 1
18 324 1
18 327 1
18 328 1
18 334 1
18 337 1
18 339 1
18 340 1
18 342 1
18 343 1
18 347 1
18 348 1
18 351 1
18 357 1
18 358 1
18 360 1
18 362 1
18 364 1
18 366 1
18 369 1
18 370 1
18 373 1
18 375 1
18 383 1
18 384 1
18 385 1
18 388 1
18 389 1
18 392 1
18 394 1
18 395 1
19 3 1
19 5 1
19 12 1
19 15 1
19 17 1
19 20 1
19 23 1
19 24 1
19 26 1
19 27 1
19 28 1
19 29 1
19 30 1
19 33 1
19 34 1
19 36 1
19 37 1
19 39 1
19 42 1
19 44 1
19 45 1
19 46 1
19 50 1
19 52 1
19 53 1
19 55 1
19 56 1
19 58 1
19 59 1
19 60 1
19 61 1
19 62 1
19 64 1
19 65 1
19 66 1
19 67 1
19 69 1
19 71 1
19 74 1
19 75 1
19 76 1
19 78 1
19 80 1
19 84 1
19 85 1
19 86 1
19 89 1
19 94 1
19 95 1
19 96 1
19 97 1
19 101 1
19 103 1
19 104 1
19 106 1
19 107 1
19 109 1
19 110 1
19 112 1
19 116 1
19 124 1
19 125 1
19 127 1
19 130 1
19 132 1
19 135 1
19 143 1
19 144 1
19 148 1
19 151 1
19 152 1
19 158 1
19 167 1
19 169 1
19 170 1
19 174 1
19 176 1
19 185 1
19 188 1
19 189 1
19 192 1
19 194 1
19 196 1
19 197 1
19 200 1
19 202 1
19 205 1
19 206 1
19 208 1
19 209 1
19 210 1
19 211 1
19 214 1
19 217 1
19 218 1
19 219 1
19 220 1
19 224 1
19 226 1
19 231 1
19 233 1
19 234 1
19 240 1
19 241 1
19 244 1
19 245 1
19 247 1
19 253 1
19 257 1
19 258 1
19 264 1
19 268 1
19 269 1
19 270 1
19 272 1
19 273 1
19 275 1
19 278 1
19 285 1
19 288 1
19 292 1
19 293 1
19 295 1
19 296 1
19 299 1
19 300 1
19 301 1
19 302 1
19 303 1
19 306 1
19 308 1
19 309 1
19 313 1
19 315 1
19 316 1
19 318 1
19 320 1
19 321 1
19 322 1
19 323 1
19 325 1
19 329 1
19 331 1
19 332 1
19 334 1
19 335 1
19 339 1
19 341 1
19 342 1
19 350 1
19 352 1
19 356 1
19 364 1
19 365 1
19 370 1
19 371 1
19 376 1
19 377 1
19 378 1
19 380 1
19 381 1
19 383 1
19 384 1
19 387 1
19 388 1
19 391 1
19 396 1
19 398 1
19 400 1
20 2 1
20 4 1
20 5 1
20 6 1
20 10 1
20 11 1
20 19 1
20 21 1
20 26 1
20 33 1
20 34 1
20 35 1
20 36 1
20 37 1
20 40 1
20 42 1
20 44 1
20 51 1
20 56 1
20 58 1
20 61 1
20 63 1
20 66 1
20 67 1
20 70 1
20 74 1
20 77 1
20 88 1
20 91 1
20 93 1
20 94 1
20 96 1
20 98 1
20 112 1
20 114 1
20 117 1
20 118 1
20 119 1
20 123 1
20 125 1
20 128 1
20 129 1
20 131 1
20 132 1
20 135 1
20 136 1
20 137 1
20 141 1
20 142 1
20 143 1
20 144 1
20 145 1
20 148 1
20 152 1
20 155 1
20 156 1
20 158 1
20 159 1
20 161 1
20 163 1
20 164 1
20 165 1
20 166 1
20 169 1
20 173 1
20 179 1
20 181 1
20 186 1
20 187 1
20 188 1
20 189 1
20 195 1
20 197 1
20 199 1
20 201 1
20 202 1
20 204 1
20 206 1
20 209 1
20 211 1
20 215 1
20 216 1
20 217 1
20 219 1
20 222 1
20 224 1
20 226 1
20 229 1
20 230 1
20 231 1
20 235 1
20 236 1
20 237 1
20 238 1
20 240 1
20 243 1
20 254 1
20 256 1
20 258 1
20 259 1
20 264 1
20 265 1
20 267 1
20 268 1
20 269 1
20 270 1
20 271 1
20 274 1
20 277 1
20 278 1
20 280 1
20 284 1
20 287 1
20 288 1
20 290 1
20 296 1
20 297 1
20 298 1
20 299 1
20 302 1
20 308 1
20 311 1
20 315 1
20 316 1
20 317 1
20 320 1
20 330 1
20 332 1
20 334 1
20 338 1
20 341 1
20 342 1
20 346 1
20 352 1
20 355 1
20 359 1
20 371 1
20 375 1
20 377 1
20 387 1
20 388 1
20 389 1
20 391 1
20 393 1
20 397 1
21 1 1
21 5 1
21 6 1
21 8 1
21 12 1
21 15 1
21 17 1
21 18 1
21 20 1
21 24 1
21 25 1
21 29 1
21 36 1
21 38 1
21 42 1
21 46 1
21 49 1
21 50 1
21 52 1
21 54 1
21 55 1
21 60 1
21 62 1
21 66 1
21 68 1
21 69 1
21 70 1
21 71 1
21 78 1
21 80 1
21 83 1
21 84 1
21 86 1
21 90 1
21 97 1
21 98 1
21 102 1
21 106 1
21 107 1
21 108 1
21 111 1
21 112 1
21 113 1
21 114 1
21 115 1
21 119 1
21 120 1
21 121 1
21 122 1
21 123 1
21 124 1
21 125 1
21 128 1
21 129 1
21 133 1
21 137 1
21 141 1
21 142 1
21 145 1
21 147 1
21 150 1
21 152 1
21 153 1
21 156 1
21 159 1
21 161 1
21 163 1
21 165 1
21 166 1
21 167 1
21 170 1
21 177 1
21 179 1
21 183 1
21 184 1
21 185 1
21 186 1
21 188 1
21 189 1
21 191 1
21 192 1
21 200 1
21 207 1
21 208 1
21 212 1
21 213 1
21 220 1
21 229 1
21 230 1
21 231 1
21 232 1
21 233 1
21 243 1
21 245 1
21 249 1
21 252 1
21 253 1
21 259 1
21 261 1
21 265 1
21 270 1
21 271 1
21 280 1
21 282 1
21 285 1
21 287 1
21 291 1
21 294 1
21 297 1
21 299 1
21 301 1
21 308 1
21 310 1
21 311 1
21 315 1
21 316 1
21 327 1
21 330 1
21 331 1
21 332 1
21 333 1
21 341 1
21 345 1
21 347 1
21 348 1
21 349 1
21 351 1
21 355 1
21 358 1
21 360 1
21 361 1
21 363 1
21 365 1
21 368 1
21 370 1
21 379 1
21 382 1
21 383 1
21 386 1
21 389 1
21 391 1
22 6 1
22 9 1
22 10 1
22 11 1
22 12 1
22 14 1
22 15 1
22 16 1
22 24 1
22 26 1
22 30 1
22 31 1
22 33 1
22 36 1
22 41 1
22 42 1
22 43 1
22 46 1
22 51 1
22 52 1
22 53 1
22 54 1
22 59 1
22 60 1
22 61 1
22 65 1
22 66 1
22 67 1
22 70 1
22 73 1
22 77 1
22 78 1
22 85 1
22 87 1
22 90 1
22 92 1
22 95 1
22 96 1
22 97 1
22 103 1
22 104 1
22 105 1
22 110 1
22 114 1
22 117 1
22 119 1
22 127 1
22 130 1
22 132 1
22 136 1
22 137 1
22 138 1
22 139 1
22 141 1
22 142 1
22 143 1
22 146 1
22 153 1
22 155 1
22 161 1
22 170 1
22 175 1
22 177 1
22 182 1
22 184 1
22 185 1
22 186 1
22 190 1
22 196 1
22 199 1
22 201 1
22 203 1
22 206 1
22 207 1
22 208 1
22 211 1
22 214 1
22 225 1
22 227 1
22 228 1
22 231 1
22 233 1
22 235 1
22 238 1
22 239 1
22 242 1
22 249 1
22 251 1
22 255 1
22 257 1
22 258 1
22 260 1
22 261 1
22 262 1
22 263 1
22 266 1
22 267 1
22 268 1
22 270 1
22 271 1
22 273 1
22 274 1
22 275 1
22 281 1
22 285 1
22 286 1
22 287 1
22 290 1
22 293 1
22 298 1
22 304 1
22 306 1
22 308 1
22 312 1
22 317 1
22 320 1
22 321 1
22 322 1
22 325 1
22 328 1
22 329 1
22 331 1
22 332 1
22 336 1
22 338 1
22 339 1
22 341 1
22 343 1
22 344 1
22 346 1
22 347 1
22 348 1
22 349 1
22 350 1
22 351 1
22 353 1
22 356 1
22 358 1
22 359 1
22 362 1
22 366 1
22 368 1
22 369 1
22 370 1
22 371 1
22 372 1
22 379 1
22 382 1
22 383 1
22 386 1
22 388 1
22 389 1
22 390 1
22 392 1
22 393 1
23 2 1
23 5 1
23 6 1
23 7 1
23 8 1
23 9 1
23 10 1
23 13 1
23 14 1
23 16 1
23 19 1
23 24 1
23 25 1
23 27 1
23 28 1
23 32 1
23 36 1
23 40 1
23 42 1
23 43 1
23 48 1
23 51 1
23 58 1
23 59 1
23 61 1
23 63 1
23 64 1
23 66 1
23 71 1
23 73 1
23 78 1
23 80 1
23 87 1
23 91 1
23 95 1
23 96 1
23 97 1
23 98 1
23 103 1
23 104 1
23 106 1
23 111 1
23 113 1
23 114 1
23 116 1
23 118 1
23 119 1
23 125 1
23 127 1
23 131 1
23 132 1
23 137 1
23 141 1
23 147 1
23 148 1
23 150 1
23 152 1
23 157 1
23 158 1
23 159 1
23 160 1
23 161 1
23 162 1
23 165 1
23 167 1
23 172 1
23 173 1
23 183 1
23 184 1
23 187 1
23 190 1
23 191 1
23 194 1
23 196 1
23 198 1
23 199 1
23 200 1
23 205 1
23 212 1
23 213 1
23 216 1
23 217 1
23 218 1
23 221 1
23 227 1
23 228 1
23 229 1
23 231 1
23 232 1
23 234 1
23 235 1
23 236 1
23 238 1
23 246 1
23 249 1
23 251 1
23 253 1
23 258 1
23 260 1
23 261 1
23 263 1
23 266 1
23 268 1
23 273 1
23 274 1
23 275 1
23 277 1
23 279 1
23 283 1
23 284 1
23 288 1
23 289 1
23 290 1
23 291 1
23 293 1
23 295 1
23 297 1
23 298 1
23 301 1
23 302 1
23 303 1
23 305 1
23 311 1
23 313 1
23 314 1
23 315 1
23 317 1
23 318 1
23 322 1
23 324 1
23 325 1
23 328 1
23 329 1
23 330 1
23 333 1
23 335 1
23 339 1
23 340 1
23 341 1
23 344 1
23 347 1
23 350 1
23 352 1
23 353 1
23 355 1
23 360 1
23 361 1
23 362 1
23 364 1
23 365 1
23 366 1
23 369 1
23 370 1
23 373 1
23 374 1
23 377 1
23 380 1
23 382 1
23 384 1
23 386 1
23 388 1
23 390 1
23 394 1
23 400 1
24 1 1
24 3 1
24 6 1
24 7 1
24 10 1
24 12 1
24 13 1
24 17 1
24 19 1
24 21 1
24 22 1
24 23 1
24 25 1
24 36 1
24 37 1
24 44 1
24 45 1
24 46 1
24 48 1
24 50 1
24 53 1
24 55 1
24 59 1
24 68 1
24 69 1
24 71 1
24 72 1
24 73 1
24 81 1
24 83 1
24 85 1
24 86 1
24 87 1
24 92 1
24 94 1
24 98 1
24 102 1
24 107 1
24 109 1
24 111 1
24 112 1
24 120 1
24 122 1
24 123 1
24 124 1
24 125 1
24 126 1
24 129 1
24 131 1
24 134 1
24 136 1
24 140 1
24 142 1
24 146 1
24 147 1
24 149 1
24 152 1
24 153 1
24 157 1
24 159 1
24 160 1
24 165 1
24 168 1
24 171 1
24 172 1
24 175 1
24 181 1
24 186 1
24 187 1
24 188 1
24 191 1
24 192 1
24 193 1
24 195 1
24 198 1
24 200 1
24 201 1
24 203 1
24 204 1
24 206 1
24 208 1
24 209 1
24 210 1
24 211 1
24 212 1
24 213 1
24 214 1
24 215 1
24 225 1
24 230 1
24 232 1
24 233 1
24 234 1
24 235 1
24 236 1
24 239 1
24 240 1
24 241 1
24 244 1
24 245 1
24 246 1
24 247 1
24 249 1
24 252 1
24 253 1
24 258 1
24 261 1
24 262 1
24 263 1
24 264 1
24 265 1
24 267 1
24 268 1
24 269 1
24 271 1
24 273 1
24 274 1
24 276 1
24 279 1
24 280 1
24 281 1
24 282 1
24 285 1
24 286 1
24 287 1
24 288 1
24 295 1
24 296 1
24 298 1
24 302 1
24 303 1
24 305 1
24 306 1
24 308 1
24 310 1
24 317 1
24 319 1
24 323 1
24 330 1
24 335 1
24 336 1
24 339 1
24 342 1
24 347 1
24 349 1
24 350 1
24 352 1
24 361 1
24 363 1
24 364 1
24 365 1
24 368 1
24 373 1
24 374 1
24 379 1
24 382 1
24 385 1
24 389 1
24 391 1
24 392 1
24 394 1
24 398 1
24 399 1
24 400 1
25 3 1
25 4 1
25 6 1
25 10 1
25 11 1
25 12 1
25 21 1
25 23 1
25 24 1
25 26 1
25 28 1
25 33 1
25 34 1
25 37 1
25 39 1
25 42 1
25 43 1
25 48 1
25 50 1
25 52 1
25 54 1
25 63 1
25 64 1
25 65 1
25 66 1
25 68 1
25 71 1
25 79 1
25 80 1
25 86 1
25 94 1
25 95 1
25 96 1
25 97 1
25 100 1
25 102 1
25 103 1
25 104 1
25 106 1
25 107 1
25 108 1
25 111 1
25 112 1
25 114 1
25 115 1
25 116 1
25 118 1
25 120 1
25 121 1
25 129 1
25 130 1
25 133 1
25 137 1
25 138 1
25 139 1
25 140 1
25 142 1
25 144 1
25 147 1
25 149 1
25 152 1
25 154 1
25 157 1
25 160 1
25 161 1
25 164 1
25 167 1
25 169 1
25 170 1
25 171 1
25 172 1
25 173 1
25 176 1
25 180 1
25 181 1
25 182 1
25 183 1
25 190 1
25 192 1
25 193 1
25 196 1
25 198 1
25 199 1
25 203 1
25 204 1
25 213 1
25 219 1
25 221 1
25 223 1
25 224 1
25 225 1
25 228 1
25 229 1
25 231 1
25 234 1
25 235 1
25 236 1
25 237 1
25 242 1
25 247 1
25 250 1
25 252 1
25 254 1
25 255 1
25 256 1
25 257 1
25 259 1
25 261 1
25 275 1
25 277 1
25 280 1
25 281 1
25 282 1
25 288 1
25 290 1
25 295 1
25 298 1
25 300 1
25 302 1
25 303 1
25 304 1
25 311 1
25 316 1
25 319 1
25 320 1
25 321 1
25 326 1
25 335 1
25 336 1
25 339 1
25 343 1
25 346 1
25 347 1
25 351 1
25 352 1
25 353 1
25 356 1
25 360 1
25 363 1
25 364 1
25 369 1
25 370 1
25 372 1
25 375 1
25 378 1
25 379 1
25 381 1
25 384 1
25 386 1
25 389 1
25 390 1
25 392 1
25 393 1
25 394 1
25 397 1
25 399 1
25 400 1
26 4 1
26 8 1
26 9 1
26 13 1
26 14 1
26 16 1
26 19 1
26 20 1
26 22 1
26 25 1
26 27 1
26 29 1
26 31 1
26 36 1
26 37 1
26 41 1
26 47 1
26 48 1
26 49 1
26 50 1
26 56 1
26 58 1
26 60 1
26 61 1
26 62 1
26 64 1
26 69 1
26 70 1
26 71 1
26 75 1
26 77 1
26 80 1
26 89 1
26 91 1
26 92 1
26 96 1
26 98 1
26 100 1
26 105 1
26 108 1
26 110 1
26 113 1
26 114 1
26 115 1
26 116 1
26 118 1
26 119 1
26 120 1
26 122 1
26 123 1
26 125 1
26 128 1
26 139 1
26 141 1
26 144 1
26 149 1
26 150 1
26 151 1
26 155 1
26 156 1
26 157 1
26 163 1
26 165 1
26 166 1
26 168 1
26 172 1
26 174 1
26 177 1
26 180 1
26 181 1
26 182 1
26 183 1
26 185 1
26 187 1
26 188 1
26 193 1
26 198 1
26 200 1
26 202 1
26 203 1
26 208 1
26 209 1
26 213 1
26 215 1
26 221 1
26 222 1
26 223 1
26 224 1
26 228 1
26 231 1
26 233 1
26 234 1
26 237 1
26 238 1
26 242 1
26 244 1
26 247 1
26 248 1
26 249 1
26 250 1
26 255 1
26 256 1
26 258 1
26 260 1
26 263 1
26 265 1
26 268 1
26 269 1
26 270 1
26 272 1
26 274 1
26 277 1
26 279 1
26 282 1
26 283 1
26 284 1
26 286 1
26 288 1
26 289 1
26 290 1
26 294 1
26 295 1
26 296 1
26 299 1
26 300 1
26 302 1
26 306 1
26 307 1
26 308 1
26 309 1
26 315 1
26 316 1
26 318 1
26 319 1
26 320 1
26 321 1
26 322 1
26 329 1
26 330 1
26 332 1
26 333 1
26 340 1
26 341 1
26 343 1
26 347 1
26 348 1
26 349 1
26 350 1
26 353 1
26 361 1
26 363 1
26 364 1
26 365 1
26 367 1
26 372 1
26 373 1
26 376 1
26 378 1
26 379 1
26 381 1
26 382 1
26 383 1
26 384 1
26 390 1
26 393 1
26 395 1
26 396 1
26 398 1
26 400 1
27 1 1
27 3 1
27 5 1
27 6 1
27 7 1
27 8 1
27 11 1
27 12 1
27 13 1
27 18 1
27 19 1
27 23 1
27 26 1
27 29 1
27 32 1
27 35 1
27 38 1
27 40 1
27 44 1
27 47 1
27 50 1
27 51 1
27 52 1
27 55 1
27 61 1
27 63 1
27 65 1
27 68 1
27 69 1
27 71 1
27 73 1
27 76 1
27 78 1
27 80 1
27 86 1
27 90 1
27 93 1
27 95 1
27 97 1
27 98 1
27 99 1
27 101 1
27 103 1
27 104 1
27 106 1
27 107 1
27 109 1
27 110 1
27 111 1
27 115 1
27 119 1
27 122 1
27 123 1
27 125 1
27 128 1
27 130 1
27 132 1
27 136 1
27 139 1
27 141 1
27 142 1
27 143 1
27 146 1
27 147 1
27 148 1
27 150 1
27 151 1
27 152 1
27 153 1
27 156 1
27 157 1
27 161 1
27 163 1
27 165 1
27 170 1
27 172 1
27 173 1
27 174 1
27 177 1
27 179 1
27 182 1
27 184 1
27 185 1
27 187 1
27 190 1
27 192 1
27 193 1
27 194 1
27 197 1
27 198 1
27 199 1
27 202 1
27 203 1
27 204 1
27 210 1
27 211 1
27 212 1
27 214 1
27 216 1
27 217 1
27 219 1
27 221 1
27 222 1
27 224 1
27 227 1
27 228 1
27 229 1
27 230 1
27 232 1
27 235 1
27 238 1
27 242 1
27 244 1
27 246 1
27 248 1
27 254 1
27 259 1
27 265 1
27 268 1
27 269 1
27 275 1
27 277 1
27 278 1
27 280 1
27 281 1
27 288 1
27 290 1
27 293 1
27 296 1
27 297 1
27 298 1
27 299 1
27 300 1
27 301 1
27 302 1
27 303 1
27 304 1
27 306 1
27 307 1
27 308 1
27 309 1
27 311 1
27 313 1
27 314 1
27 315 1
27 316 1
27 318 1
27 321 1
27 322 1
27 325 1
27 331 1
27 334 1
27 336 1
27 337 1
27 338 1
27 342 1
27 343 1
27 347 1
27 348 1
27 349 1
27 353 1
27 354 1
27 357 1
27 361 1
27 364 1
27 365 1
27 366 1
27 372 1
27 375 1
27 377 1
27 378 1
27 379 1
27 381 1
27 382 1
27 384 1
27 385 1
27 387 1
27 390 1
27 392 1
27 394 1
27 398 1
27 399 1
28 3 1
28 5 1
28 7 1
28 16 1
28 17 1
28 18 1
28 19 1
28 23 1
28 25 1
28 30 1
28 31 1
28 35 1
28 38 1
28 41 1
28 46 1
28 48 1
28 50 1
28 51 1
28 54 1
28 55 1
28 60 1
28 64 1
28 66 1
28 71 1
28 72 1
28 73 1
28 76 1
28 77 1
28 78 1
28 80 1
28 82 1
28 84 1
28 88 1
28 89 1
28 96 1
28 99 1
28 103 1
28 109 1
28 110 1
28 113 1
28 114 1
28 115 1
28 117 1
28 121 1
28 125 1
28 126 1
28 127 1
28 132 1
28 134 1
28 135 1
28 137 1
28 138 1
28 140 1
28 142 1
28 145 1
28 146 1
28 147 1
28 150 1
28 151 1
28 152 1
28 154 1
28 160 1
28 161 1
28 162 1
28 165 1
28 166 1
28 167 1
28 173 1
28 177 1
28 179 1
28 181 1
28 183 1
28 184 1
28 185 1
28 187 1
28 188 1
28 189 1
28 191 1
28 194 1
28 195 1
28 196 1
28 201 1
28 206 1
28 207 1
28 209 1
28 212 1
28 214 1
28 216 1
28 220 1
28 222 1
28 227 1
28 228 1
28 232 1
28 237 1
28 242 1
28 245 1
28 249 1
28 252 1
28 263 1
28 267 1
28 272 1
28 275 1
28 278 1
28 281 1
28 287 1
28 292 1
28 293 1
28 296 1
28 298 1
28 306 1
28 307 1
28 308 1
28 309 1
28 310 1
28 312 1
28 313 1
28 315 1
28 316 1
28 317 1
28 318 1
28 321 1
28 325 1
28 327 1
28 328 1
28 330 1
28 331 1
28 332 1
28 333 1
28 335 1
28 336 1
28 337 1
28 342 1
28 344 1
28 346 1
28 347 1
28 348 1
28 349 1
28 354 1
28 358 1
28 362 1
28 365 1
28 376 1
28 385 1
28 387 1
28 389 1
28 391 1
28 394 1
28 397 1
28 398 1
29 1 1
29 5 1
29 6 1
29 7 1
29 9 1
29 10 1
29 12 1
29 15 1
29 17 1
29 19 1
29 21 1
29 26 1
29 27 1
29 31 1
29 35 1
29 37 1
29 40 1
29 41 1
29 42 1
29 45 1
29 46 1
29 48 1
29 52 1
29 57 1
29 59 1
29 60 1
29 69 1
29 70 1
29 72 1
29 73 1
29 74 1
29 76 1
29 77 1
29 80 1
29 82 1
29 89 1
29 97 1
29 99 1
29 110 1
29 111 1
29 117 1
29 121 1
29 123 1
29 124 1
29 131 1
29 132 1
29 133 1
29 135 1
29 139 1
29 145 1
29 146 1
29 148 1
29 151 1
29 153 1
29 154 1
29 160 1
29 162 1
29 164 1
29 165 1
29 170 1
29 175 1
29 176 1
29 179 1
29 182 1
29 183 1
29 189 1
29 193 1
29 194 1
29 196 1
29 197 1
29 200 1
29 201 1
29 202 1
29 204 1
29 206 1
29 207 1
29 210 1
29 213 1
29 214 1
29 219 1
29 222 1
29 223 1
29 226 1
29 227 1
29 230 1
29 231 1
29 236 1
29 237 1
29 238 1
29 241 1
29 242 1
29 244 1
29 250 1
29 258 1
29 262 1
29 264 1
29 268 1
29 270 1
29 274 1
29 275 1
29 279 1
29 280 1
29 281 1
29 283 1
29 284 1
29 287 1
29 290 1
29 293 1
29 294 1
29 296 1
29 297 1
29 306 1
29 312 1
29 319 1
29 323 1
29 327 1
29 328 1
29 329 1
29 330 1
29 331 1
29 333 1
29 334 1
29 335 1
29 338 1
29 339 1
29 340 1
29 341 1
29 345 1
29 350 1
29 351 1
29 356 1
29 357 1
29 358 1
29 360 1
29 364 1
29 368 1
29 369 1
29 370 1
29 371 1
29 373 1
29 376 1
29 378 1
29 381 1
29 387 1
29 388 1
29 393 1
29 399 1
29 400 1
30 6 1
30 7 1
30 12 1
30 16 1
30 19 1
30 22 1
30 28 1
30 33 1
30 42 1
30 47 1
30 48 1
30 49 1
30 52 1
30 59 1
30 61 1
30 64 1
30 66 1
30 67 1
30 70 1
30 72 1
30 78 1
30 80 1
30 82 1
30 83 1
30 85 1
30 86 1
30 90 1
30 94 1
30 96 1
30 98 1
30 100 1
30 102 1
30 107 1
30 108 1
30 112 1
30 115 1
30 117 1
30 118 1
30 119 1
30 121 1
30 122 1
30 123 1
30 127 1
30 130 1
30 131 1
30 133 1
30 136 1
30 139 1
30 144 1
30 145 1
30 146 1
30 151 1
30 155 1
30 156 1
30 160 1
30 162 1
30 163 1
30 169 1
30 170 1
30 171 1
30 175 1
30 177 1
30 182 1
30 183 1
30 185 1
30 186 1
30 190 1
30 193 1
30 194 1
30 198 1
30 200 1
30 202 1
30 203 1
30 206 1
30 208 1
30 217 1
30 221 1
30 224 1
30 225 1
30 228 1
30 233 1
30 234 1
30 238 1
30 244 1
30 248 1
30 252 1
30 254 1
30 255 1
30 259 1
30 260 1
30 265 1
30 271 1
30 276 1
30 277 1
30 279 1
30 280 1
30 281 1
30 287 1
30 291 1
30 293 1
30 295 1
30 299 1
30 302 1
30 304 1
30 309 1
30 313 1
30 314 1
30 316 1
30 317 1
30 320 1
30 321 1
30 326 1
30 328 1
30 329 1
30 331 1
30 334 1
30 335 1
30 336 1
30 339 1
30 344 1
30 345 1
30 346 1
30 348 1
30 352 1
30 359 1
30 365 1
30 370 1
30 376 1
30 377 1
30 379 1
30 380 1
30 383 1
30 384 1
30 386 1
30 390 1
30 395 1
30 396 1
31 1 1
31 2 1
31 4 1
31 8 1
31 10 1
31 11 1
31 12 1
31 14 1
31 15 1
31 16 1
31 22 1
31 26 1
31 28 1
31 29 1
31 32 1
31 34 1
31 40 1
31 42 1
31 45 1
31 50 1
31 53 1
31 54 1
31 55 1
31 57 1
31 60 1
31 61 1
31 71 1
31 72 1
31 75 1
31 77 1
31 82 1
31 83 1
31 87 1
31 89 1
31 90 1
31 98 1
31 99 1
31 100 1
31 102 1
31 105 1
31 106 1
31 108 1
31 109 1
31 112 1
31 113 1
31 115 1
31 120 1
31 122 1
31 125 1
31 126 1
31 133 1
31 139 1
31 141 1
31 145 1
31 146 1
31 147 1
31 148 1
31 149 1
31 150 1
31 151 1
31 155 1
31 157 1
31 159 1
31 166 1
31 168 1
31 171 1
31 174 1
31 175 1
31 177 1
31 183 1
31 186 1
31 187 1
31 196 1
31 198 1
31 200 1
31 204 1
31 207 1
31 208 1
31 212 1
31 215 1
31 218 1
31 220 1
31 223 1
31 224 1
31 226 1
31 227 1
31 228 1
31 230 1
31 231 1
31 233 1
31 234 1
31 240 1
31 244 1
31 245 1
31 248 1
31 251 1
31 254 1
31 256 1
31 257 1
31 260 1
31 262 1
31 263 1
31 264 1
31 266 1
31 267 1
31 268 1
31 273 1
31 276 1
31 278 1
31 281 1
31 287 1
31 289 1
31 295 1
31 297 1
31 301 1
31 305 1
31 306 1
31 307 1
31 308 1
31 311 1
31 313 1
31 314 1
31 315 1
31 317 1
31 318 1
31 319 1
31 321 1
31 322 1
31 323 1
31 324 1
31 332 1
31 333 1
31 334 1
31 336 1
31 337 1
31 342 1
31 344 1
31 349 1
31 350 1
31 352 1
31 354 1
31 355 1
31 357 1
31 359 1
31 362 1
31 363 1
31 365 1
31 369 1
31 370 1
31 371 1
31 372 1
31 373 1
31 374 1
31 376 1
31 378 1
31 380 1
31 381 1
31 383 1
31 384 1
31 386 1
31 391 1
31 398 1
31 400 1
32 6 1
32 8 1
32 10 1
32 15 1
32 23 1
32 27 1
32 31 1
32 33 1
32 34 1
32 37 1
32 38 1
32 39 1
32 41 1
32 42 1
32 48 1
32 52 1
32 53 1
32 55 1
32 59 1
32 60 1
32 62 1
32 64 1
32 66 1
32 70 1
32 76 1
32 81 1
32 82 1
32 85 1
32 86 1
32 88 1
32 97 1
32 100 1
32 111 1
32 115 1
32 116 1
32 117 1
32 118 1
32 125 1
32 127 1
32 131 1
32 137 1
32 138 1
32 139 1
32 143 1
32 144 1
32 145 1
32 150 1
32 151 1
32 155 1
32 156 1
32 157 1
32 159 1
32 161 1
32 164 1
32 166 1
32 167 1
32 171 1
32 173 1
32 176 1
32 179 1
32 180 1
32 181 1
32 191 1
32 194 1
32 196 1
32 197 1
32 199 1
32 201 1
32 204 1
32 205 1
32 208 1
32 213 1
32 215 1
32 220 1
32 227 1
32 230 1
32 232 1
32 237 1
32 239 1
32 240 1
32 242 1
32 246 1
32 247 1
32 254 1
32 255 1
32 261 1
32 267 1
32 268 1
32 269 1
32 271 1
32 275 1
32 276 1
32 278 1
32 279 1
32 284 1
32 285 1
32 287 1
32 288 1
32 291 1
32 296 1
32 300 1
32 303 1
32 304 1
32 305 1
32 310 1
32 313 1
32 325 1
32 327 1
32 333 1
32 335 1
32 339 1
32 344 1
32 346 1
32 347 1
32 348 1
32 351 1
32 356 1
32 358 1
32 359 1
32 360 1
32 363 1
32 364 1
32 366 1
32 368 1
32 369 1
32 373 1
32 374 1
32 377 1
32 382 1
32 383 1
32 384 1
32 386 1
32 388 1
32 390 1
32 394 1
32 399 1
33 1 1
33 3 1
33 5 1
33 8 1
33 9 1
33 11 1
33 15 1
33 16 1
33 19 1
33 20 1
33 22 1
33 25 1
33 30 1
33 32 1
33 36 1
33 42 1
33 44 1
33 47 1
33 48 1
33 50 1
33 51 1
33 53 1
33 55 1
33 60 1
33 61 1
33 64 1
33 66 1
33 68 1
33 72 1
33 73 1
33 74 1
33 78 1
33 79 1
33 85 1
33 86 1
33 87 1
33 88 1
33 90 1
33 93 1
33 94 1
33 100 1
33 101 1
33 107 1
33 110 1
33 113 1
33 119 1
33 122 1
33 123 1
33 126 1
33 128 1
33 129 1
33 130 1
33 131 1
33 132 1
33 136 1
33 138 1
33 139 1
33 140 1
33 147 1
33 151 1
33 153 1
33 154 1
33 156 1
33 160 1
33 162 1
33 163 1
33 164 1
33 165 1
33 166 1
33 167 1
33 168 1
33 173 1
33 175 1
33 182 1
33 183 1
33 186 1
33 187 1
33 191 1
33 192 1
33 193 1
33 197 1
33 198 1
33 199 1
33 202 1
33 203 1
33 206 1
33 209 1
33 211 1
33 213 1
33 215 1
33 216 1
33 217 1
33 219 1
33 222 1
33 226 1
33 228 1
33 229 1
33 230 1
33 239 1
33 241 1
33 243 1
33 245 1
33 246 1
33 247 1
33 248 1
33 250 1
33 252 1
33 254 1
33 255 1
33 258 1
33 260 1
33 264 1
33 267 1
33 269 1
33 270 1
33 281 1
33 283 1
33 286 1
33 289 1
33 291 1
33 296 1
33 298 1
33 299 1
33 300 1
33 302 1
33 304 1
33 310 1
33 311 1
33 319 1
33 320 1
33 322 1
33 328 1
33 329 1
33 330 1
33 331 1
33 335 1
33 336 1
33 340 1
33 346 1
33 351 1
33 353 1
33 354 1
33 356 1
33 361 1
33 374 1
33 375 1
33 376 1
33 378 1
33 379 1
33 380 1
33 381 1
33 383 1
33 384 1
33 388 1
33 391 1
33 393 1
33 399 1
34 2 1
34 3 1
34 4 1
34 5 1
34 7 1
34 8 1
34 12 1
34 15 1
34 18 1
34 19 1
34 20 1
34 25 1
34 31 1
34 32 1
34 40 1
34 41 1
34 44 1
34 49 1
34 50 1
34 54 1
34 55 1
34 56 1
34 57 1
34 58 1
34 59 1
34 60 1
34 62 1
34 63 1
34 66 1
34 67 1
34 70 1
34 76 1
34 77 1
34 79 1
34 80 1
34 81 1
34 85 1
34 86 1
34 87 1
34 89 1
34 92 1
34 93 1
34 95 1
34 100 1
34 102 1
34 103 1
34 104 1
34 105 1
34 108 1
34 109 1
34 110 1
34 117 1
34 118 1
34 120 1
34 123 1
34 125 1
34 126 1
34 128 1
34 129 1
34 130 1
34 134 1
34 135 1
34 136 1
34 138 1
34 141 1
34 143 1
34 144 1
34 145 1
34 147 1
34 148 1
34 149 1
34 150 1
34 153 1
34 154 1
34 156 1
34 159 1
34 160 1
34 164 1
34 166 1
34 167 1
34 168 1
34 169 1
34 171 1
34 172 1
34 175 1
34 176 1
34 180 1
34 186 1
34 190 1
34 194 1
34 197 1
34 198 1
34 201 1
34 204 1
34 205 1
34 209 1
34 211 1
34 214 1
34 218 1
34 219 1
34 223 1
34 224 1
34 225 1
34 226 1
34 230 1
34 232 1
34 234 1
34 235 1
34 239 1
34 242 1
34 247 1
34 248 1
34 252 1
34 253 1
34 255 1
34 256 1
34 257 1
34 260 1
34 262 1
34 264 1
34 265 1
34 266 1
34 270 1
34 273 1
34 275 1
34 280 1
34 283 1
34 289 1
34 291 1
34 292 1
34 293 1
34 294 1
34 296 1
34 297 1
34 302 1
34 303 1
34 306 1
34 307 1
34 309 1
34 312 1
34 320 1
34 324 1
34 325 1
34 326 1
34 327 1
34 330 1
34 333 1
34 336 1
34 343 1
34 357 1
34 366 1
34 368 1
34 369 1
34 371 1
34 373 1
34 376 1
34 380 1
34 382 1
34 383 1
34 385 1
34 386 1
34 387 1
34 388 1
34 392 1
34 394 1
34 395 1
34 396 1
34 399 1
34 400 1
35 1 1
35 7 1
35 15 1
35 17 1
35 20 1
35 27 1
35 28 1
35 29 1
35 41 1
35 43 1
35 44 1
35 46 1
35 49 1
35 50 1
35 51 1
35 55 1
35 56 1
35 62 1
35 66 1
35 67 1
35 69 1
35 70 1
35 71 1
35 75 1
35 76 1
35 78 1
35 79 1
35 80 1
35 81 1
35 88 1
35 91 1
35 93 1
35 94 1
35 98 1
35 101 1
35 104 1
35 108 1
35 110 1
35 119 1
35 120 1
35 133 1
35 135 1
35 141 1
35 142 1
35 143 1
35 144 1
35 145 1
35 146 1
35 149 1
35 151 1
35 155 1
35 157 1
35 162 1
35 163 1
35 164 1
35 165 1
35 170 1
35 171 1
35 172 1
35 177 1
35 183 1
35 186 1
35 187 1
35 188 1
35 191 1
35 192 1
35 193 1
35 195 1
35 197 1
35 198 1
35 200 1
35 201 1
35 205 1
35 209 1
35 210 1
35 211 1
35 215 1
35 225 1
35 228 1
35 229 1
35 233 1
35 235 1
35 236 1
35 237 1
35 239 1
35 248 1
35 249 1
35 250 1
35 251 1
35 252 1
35 253 1
35 259 1
35 260 1
35 263 1
35 265 1
35 268 1
35 269 1
35 277 1
35 281 1
35 283 1
35 286 1
35 287 1
35 291 1
35 292 1
35 298 1
35 299 1
35 300 1
35 302 1
35 304 1
35 305 1
35 307 1
35 308 1
35 310 1
35 313 1
35 314 1
35 315 1
35 316 1
35 320 1
35 323 1
35 324 1
35 325 1
35 327 1
35 328 1
35 332 1
35 333 1
35 335 1
35 338 1
35 339 1
35 340 1
35 347 1
35 348 1
35 352 1
35 356 1
35 359 1
35 360 1
35 361 1
35 363 1
35 364 1
35 365 1
35 366 1
35 368 1
35 369 1
35 370 1
35 371 1
35 372 1
35 373 1
35 380 1
35 381 1
35 383 1
35 387 1
35 390 1
35 391 1
35 394 1
35 396 1
36 2 1
36 4 1
36 8 1
36 10 1
36 12 1
36 13 1
36 16 1
36 18 1
36 19 1
36 20 1
36 21 1
36 22 1
36 23 1
36 24 1
36 26 1
36 33 1
36 41 1
36 46 1
36 47 1
36 49 1
36 50 1
36 60 1
36 61 1
36 63 1
36 65 1
36 67 1
36 68 1
36 71 1
36 75 1
36 76 1
36 81 1
36 82 1
36 84 1
36 87 1
36 88 1
36 90 1
36 92 1
36 93 1
36 94 1
36 95 1
36 96 1
36 97 1
36 100 1
36 102 1
36 103 1
36 104 1
36 105 1
36 107 1
36 109 1
36 111 1
36 112 1
36 113 1
36 114 1
36 115 1
36 119 1
36 120 1
36 122 1
36 123 1
36 132 1
36 134 1
36 135 1
36 136 1
36 138 1
36 141 1
36 142 1
36 145 1
36 146 1
36 147 1
36 148 1
36 151 1
36 155 1
36 157 1
36 162 1
36 167 1
36 168 1
36 169 1
36 170 1
36 174 1
36 175 1
36 176 1
36 177 1
36 178 1
36 180 1
36 181 1
36 185 1
36 188 1
36 189 1
36 191 1
36 192 1
36 193 1
36 195 1
36 197 1
36 199 1
36 201 1
36 203 1
36 206 1
36 208 1
36 211 1
36 214 1
36 215 1
36 216 1
36 218 1
36 219 1
36 220 1
36 224 1
36 225 1
36 228 1
36 229 1
36 231 1
36 233 1
36 234 1
36 235 1
36 236 1
36 237 1
36 240 1
36 243 1
36 244 1
36 245 1
36 246 1
36 256 1
36 271 1
36 272 1
36 275 1
36 276 1
36 280 1
36 281 1
36 285 1
36 286 1
36 290 1
36 291 1
36 294 1
36 295 1
36 303 1
36 306 1
36 308 1
36 309 1
36 310 1
36 312 1
36 315 1
36 318 1
36 319 1
36 324 1
36 325 1
36 327 1
36 328 1
36 329 1
36 333 1
36 334 1
36 336 1
36 340 1
36 344 1
36 349 1
36 351 1
36 355 1
36 356 1
36 357 1
36 358 1
36 360 1
36 366 1
36 367 1
36 368 1
36 370 1
36 374 1
36 381 1
36 382 1
36 383 1
36 386 1
36 387 1
36 391 1
36 400 1
37 1 1
37 5 1
37 9 1
37 10 1
37 15 1
37 16 1
37 17 1
37 18 1
37 19 1
37 20 1
37 24 1
37 25 1
37 26 1
37 29 1
37 32 1
37 38 1
37 40 1
37 42 1
37 50 1
37 52 1
37 56 1
37 58 1
37 63 1
37 67 1
37 68 1
37 69 1
37 71 1
37 74 1
37 75 1
37 79 1
37 80 1
37 81 1
37 83 1
37 86 1
37 88 1
37 92 1
37 93 1
37 94 1
37 95 1
37 98 1
37 99 1
37 102 1
37 103 1
37 106 1
37 109 1
37 113 1
37 115 1
37 118 1
37 122 1
37 124 1
37 125 1
37 127 1
37 128 1
37 130 1
37 133 1
37 137 1
37 139 1
37 140 1
37 141 1
37 145 1
37 146 1
37 147 1
37 148 1
37 151 1
37 154 1
37 156 1
37 157 1
37 160 1
37 162 1
37 163 1
37 166 1
37 168 1
37 171 1
37 172 1
37 173 1
37 177 1
37 178 1
37 182 1
37 183 1
37 187 1
37 189 1
37 190 1
37 193 1
37 196 1
37 200 1
37 201 1
37 204 1
37 205 1
37 207 1
37 208 1
37 215 1
37 224 1
37 226 1
37 234 1
37 238 1
37 241 1
37 242 1
37 245 1
37 247 1
37 248 1
37 249 1
37 251 1
37 252 1
37 255 1
37 257 1
37 258 1
37 270 1
37 271 1
37 272 1
37 279 1
37 280 1
37 281 1
37 284 1
37 291 1
37 292 1
37 293 1
37 295 1
37 300 1
37 302 1
37 303 1
37 305 1
37 307 1
37 308 1
37 312 1
37 314 1
37 318 1
37 319 1
37 323 1
37 324 1
37 327 1
37 328 1
37 330 1
37 331 1
37 332 1
37 333 1
37 335 1
37 338 1
37 339 1
37 344 1
37 345 1
37 347 1
37 348 1
37 355 1
37 356 1
37 358 1
37 360 1
37 362 1
37 363 1
37 366 1
37 369 1
37 371 1
37 375 1
37 376 1
37 377 1
37 379 1
37 383 1
37 388 1
37 392 1
37 395 1
37 397 1
37 398 1
37 399 1
38 3 1
38 4 1
38 5 1
38 10 1
38 12 1
38 13 1
38 17 1
38 21 1
38 27 1
38 28 1
38 32 1
38 37 1
38 43 1
38 44 1
38 45 1
38 48 1
38 49 1
38 53 1
38 55 1
38 59 1
38 61 1
38 62 1
38 64 1
38 67 1
38 68 1
38 70 1
38 71 1
38 72 1
38 74 1
38 75 1
38 78 1
38 79 1
38 81 1
38 83 1
38 84 1
38 87 1
38 89 1
38 90 1
38 91 1
38 93 1
38 95 1
38 96 1
38 98 1
38 100 1
38 102 1
38 104 1
38 105 1
38 106 1
38 111 1
38 113 1
38 115 1
38 116 1
38 118 1
38 120 1
38 123 1
38 125 1
38 127 1
38 129 1
38 130 1
38 132 1
38 133 1
38 134 1
38 135 1
38 136 1
38 137 1
38 139 1
38 142 1
38 144 1
38 145 1
38 146 1
38 147 1
38 152 1
38 153 1
38 157 1
38 158 1
38 162 1
38 163 1
38 164 1
38 169 1
38 170 1
38 171 1
38 172 1
38 178 1
38 179 1
38 182 1
38 189 1
38 192 1
38 195 1
38 196 1
38 199 1
38 204 1
38 205 1
38 207 1
38 208 1
38 210 1
38 211 1
38 212 1
38 213 1
38 214 1
38 223 1
38 224 1
38 229 1
38 230 1
38 231 1
38 232 1
38 236 1
38 237 1
38 243 1
38 244 1
38 246 1
38 248 1
38 250 1
38 257 1
38 260 1
38 265 1
38 268 1
38 269 1
38 271 1
38 273 1
38 274 1
38 275 1
38 277 1
38 278 1
38 279 1
38 282 1
38 285 1
38 287 1
38 289 1
38 290 1
38 293 1
38 294 1
38 297 1
38 299 1
38 300 1
38 301 1
38 302 1
38 307 1
38 322 1
38 325 1
38 326 1
38 327 1
38 330 1
38 331 1
38 334 1
38 335 1
38 337 1
38 339 1
38 341 1
38 348 1
38 351 1
38 356 1
38 358 1
38 362 1
38 365 1
38 368 1
38 376 1
38 380 1
38 392 1
38 393 1
38 400 1
39 5 1
39 6 1
39 7 1
39 10 1
39 11 1
39 12 1
39 14 1
39 15 1
39 16 1
39 19 1
39 25 1
39 32 1
39 42 1
39 52 1
39 54 1
39 61 1
39 62 1
39 65 1
39 66 1
39 71 1
39 72 1
39 75 1
39 76 1
39 78 1
39 79 1
39 80 1
39 82 1
39 83 1
39 86 1
39 87 1
39 89 1
39 91 1
39 92 1
39 94 1
39 104 1
39 106 1
39 107 1
39 109 1
39 111 1
39 113 1
39 114 1
39 116 1
39 120 1
39 122 1
39 124 1
39 127 1
39 131 1
39 138 1
39 140 1
39 141 1
39 143 1
39 144 1
39 149 1
39 151 1
39 155 1
39 157 1
39 162 1
39 167 1
39 168 1
39 170 1
39 173 1
39 174 1
39 175 1
39 177 1
39 181 1
39 183 1
39 184 1
39 185 1
39 186 1
39 187 1
39 188 1
39 190 1
39 191 1
39 192 1
39 193 1
39 198 1
39 199 1
39 200 1
39 201 1
39 202 1
39 204 1
39 205 1
39 206 1
39 208 1
39 210 1
39 212 1
39 213 1
39 214 1
39 217 1
39 219 1
39 221 1
39 223 1
39 225 1
39 226 1
39 227 1
39 230 1
39 232 1
39 236 1
39 237 1
39 238 1
39 240 1
39 241 1
39 242 1
39 245 1
39 247 1
39 250 1
39 251 1
39 253 1
39 254 1
39 255 1
39 259 1
39 260 1
39 262 1
39 263 1
39 267 1
39 268 1
39 270 1
39 273 1
39 275 1
39 278 1
39 279 1
39 283 1
39 285 1
39 287 1
39 288 1
39 289 1
39 290 1
39 292 1
39 293 1
39 295 1
39 296 1
39 297 1
39 298 1
39 304 1
39 307 1
39 308 1
39 309 1
39 311 1
39 314 1
39 316 1
39 322 1
39 324 1
39 325 1
39 327 1
39 328 1
39 329 1
39 335 1
39 336 1
39 341 1
39 342 1
39 343 1
39 344 1
39 346 1
39 347 1
39 348 1
39 351 1
39 360 1
39 361 1
39 364 1
39 366 1
39 367 1
39 370 1
39 375 1
39 380 1
39 386 1
39 387 1
39 391 1
39 393 1
39 394 1
39 397 1
39 398 1
40 3 1
40 12 1
40 13 1
40 16 1
40 20 1
40 23 1
40 27 1
40 29 1
40 31 1
40 34 1
40 37 1
40 41 1
40 45 1
40 47 1
40 49 1
40 50 1
40 54 1
40 56 1
40 57 1
40 58 1
40 62 1
40 63 1
40 64 1
40 68 1
40 72 1
40 74 1
40 78 1
40 79 1
40 84 1
40 85 1
40 87 1
40 92 1
40 93 1
40 96 1
40 97 1
40 98 1
40 101 1
40 102 1
40 109 1
40 110 1
40 113 1
40 116 1
40 118 1
40 121 1
40 123 1
40 128 1
40 129 1
40 132 1
40 133 1
40 134 1
40 137 1
40 138 1
40 142 1
40 145 1
40 148 1
40 149 1
40 150 1
40 151 1
40 152 1
40 155 1
40 156 1
40 159 1
40 160 1
40 162 1
40 163 1
40 166 1
40 167 1
40 171 1
40 172 1
40 175 1
40 180 1
40 181 1
40 182 1
40 184 1
40 185 1
40 186 1
40 187 1
40 189 1
40 192 1
40 193 1
40 195 1
40 196 1
40 200 1
40 208 1
40 216 1
40 218 1
40 221 1
40 225 1
40 227 1
40 238 1
40 239 1
40 248 1
40 251 1
40 253 1
40 255 1
40 258 1
40 259 1
40 260 1
40 262 1
40 263 1
40 264 1
40 271 1
40 273 1
40 276 1
40 277 1
40 279 1
40 282 1
40 283 1
40 285 1
40 287 1
40 291 1
40 294 1
40 295 1
40 296 1
40 298 1
40 299 1
40 302 1
40 305 1
40 308 1
40 309 1
40 310 1
40 312 1
40 315 1
40 317 1
40 320 1
40 324 1
40 327 1
40 335 1
40 336 1
40 338 1
40 340 1
40 343 1
40 347 1
40 349 1
40 356 1
40 357 1
40 358 1
40 362 1
40 364 1
40 365 1
40 367 1
40 368 1
40 370 1
40 372 1
40 373 1
40 377 1
40 378 1
40 383 1
40 384 1
40 388 1
40 394 1
40 395 1
40 397 1
40 398 1
40 399 1
40 400 1
41 3 1
41 5 1
41 6 1
41 7 1
41 9 1
41 15 1
41 16 1
41 17 1
41 18 1
41 22 1
41 26 1
41 28 1
41 29 1
41 32 1
41 34 1
41 35 1
41 36 1
41 40 1
41 45 1
41 46 1
41 49 1
41 51 1
41 52 1
41 62 1
41 65 1
41 69 1
41 70 1
41 71 1
41 72 1
41 73 1
41 75 1
41 76 1
41 77 1
41 78 1
41 83 1
41 87 1
41 91 1
41 92 1
41 98 1
41 100 1
41 101 1
41 102 1
41 104 1
41 107 1
41 111 1
41 112 1
41 113 1
41 117 1
41 118 1
41 119 1
41 120 1
41 123 1
41 125 1
41 126 1
41 128 1
41 131 1
41 133 1
41 134 1
41 135 1
41 137 1
41 139 1
41 140 1
41 144 1
41 150 1
41 152 1
41 154 1
41 157 1
41 158 1
41 161 1
41 162 1
41 163 1
41 164 1
41 165 1
41 168 1
41 169 1
41 172 1
41 173 1
41 178 1
41 179 1
41 183 1
41 185 1
41 189 1
41 190 1
41 194 1
41 195 1
41 199 1
41 201 1
41 202 1
41 204 1
41 206 1
41 211 1
41 214 1
41 217 1
41 219 1
41 220 1
41 222 1
41 223 1
41 226 1
41 230 1
41 231 1
41 234 1
41 241 1
41 243 1
41 245 1
41 246 1
41 250 1
41 255 1
41 257 1
41 258 1
41 262 1
41 263 1
41 264 1
41 267 1
41 273 1
41 275 1
41 276 1
41 277 1
41 280 1
41 282 1
41 283 1
41 291 1
41 292 1
41 293 1
41 296 1
41 298 1
41 305 1
41 308 1
41 315 1
41 318 1
41 319 1
41 320 1
41 321 1
41 323 1
41 324 1
41 327 1
41 330 1
41 332 1
41 337 1
41 339 1
41 340 1
41 341 1
41 343 1
41 347 1
41 357 1
41 358 1
41 360 1
41 363 1
41 364 1
41 367 1
41 368 1
41 369 1
41 370 1
41 375 1
41 376 1
41 378 1
41 381 1
41 382 1
41 383 1
41 384 1
41 385 1
41 390 1
41 391 1
41 395 1
41 398 1
41 399 1
41 400 1
42 2 1
42 4 1
42 5 1
42 6 1
42 8 1
42 9 1
42 10 1
42 11 1
42 12 1
42 19 1
42 20 1
42 21 1
42 22 1
42 23 1
42 25 1
42 29 1
42 30 1
42 31 1
42 32 1
42 33 1
42 37 1
42 39 1
42 44 1
42 45 1
42 46 1
42 48 1
42 49 1
42 50 1
42 57 1
42 58 1
42 68 1
42 70 1
42 74 1
42 77 1
42 80 1
42 81 1
42 82 1
42 83 1
42 85 1
42 90 1
42 91 1
42 94 1
42 100 1
42 101 1
42 103 1
42 105 1
42 107 1
42 108 1
42 110 1
42 114 1
42 115 1
42 116 1
42 117 1
42 124 1
42 126 1
42 130 1
42 131 1
42 133 1
42 135 1
42 138 1
42 142 1
42 146 1
42 148 1
42 149 1
42 152 1
42 154 1
42 155 1
42 157 1
42 162 1
42 164 1
42 167 1
42 169 1
42 171 1
42 172 1
42 175 1
42 178 1
42 180 1
42 182 1
42 183 1
42 185 1
42 186 1
42 194 1
42 195 1
42 197 1
42 200 1
42 201 1
42 205 1
42 207 1
42 208 1
42 213 1
42 215 1
42 217 1
42 218 1
42 222 1
42 224 1
42 227 1
42 228 1
42 231 1
42 232 1
42 234 1
42 237 1
42 240 1
42 241 1
42 250 1
42 255 1
42 259 1
42 263 1
42 265 1
42 268 1
42 272 1
42 273 1
42 274 1
42 275 1
42 278 1
42 280 1
42 282 1
42 284 1
42 287 1
42 288 1
42 290 1
42 291 1
42 292 1
42 293 1
42 298 1
42 305 1
42 310 1
42 311 1
42 318 1
42 322 1
42 323 1
42 327 1
42 336 1
42 337 1
42 338 1
42 340 1
42 341 1
42 343 1
42 347 1
42 348 1
42 355 1
42 356 1
42 361 1
42 364 1
42 365 1
42 367 1
42 368 1
42 370 1
42 371 1
42 375 1
42 376 1
42 377 1
42 380 1
42 381 1
42 383 1
42 386 1
42 387 1
42 390 1
42 391 1
42 396 1
42 398 1
43 1 1
43 2 1
43 4 1
43 6 1
43 7 1
43 9 1
43 14 1
43 15 1
43 16 1
43 22 1
43 23 1
43 25 1
43 35 1
43 38 1
43 44 1
43 45 1
43 46 1
43 47 1
43 50 1
43 52 1
43 53 1
43 57 1
43 58 1
43 62 1
43 65 1
43 68 1
43 71 1
43 72 1
43 75 1
43 78 1
43 81 1
43 82 1
43 84 1
43 85 1
43 86 1
43 87 1
43 92 1
43 94 1
43 98 1
43 100 1
43 101 1
43 103 1
43 105 1
43 108 1
43 109 1
43 113 1
43 116 1
43 118 1
43 121 1
43 123 1
43 124 1
43 126 1
43 131 1
43 133 1
43 136 1
43 139 1
43 142 1
43 145 1
43 146 1
43 148 1
43 161 1
43 162 1
43 165 1
43 169 1
43 171 1
43 172 1
43 177 1
43 178 1
43 179 1
43 183 1
43 185 1
43 186 1
43 187 1
43 189 1
43 190 1
43 196 1
43 197 1
43 202 1
43 203 1
43 204 1
43 207 1
43 209 1
43 214 1
43 215 1
43 216 1
43 217 1
43 222 1
43 224 1
43 226 1
43 227 1
43 231 1
43 233 1
43 235 1
43 238 1
43 240 1
43 245 1
43 246 1
43 248 1
43 249 1
43 251 1
43 256 1
43 258 1
43 259 1
43 261 1
43 262 1
43 265 1
43 267 1
43 268 1
43 270 1
43 272 1
43 274 1
43 275 1
43 277 1
43 280 1
43 282 1
43 284 1
43 289 1
43 294 1
43 295 1
43 296 1
43 298 1
43 303 1
43 313 1
43 317 1
43 318 1
43 321 1
43 322 1
43 327 1
43 332 1
43 333 1
43 336 1
43 337 1
43 341 1
43 342 1
43 346 1
43 351 1
43 353 1
43 355 1
43 357 1
43 359 1
43 362 1
43 364 1
43 365 1
43 367 1
43 373 1
43 374 1
43 375 1
43 377 1
43 378 1
43 381 1
43 386 1
43 388 1
43 389 1
43 392 1
43 394 1
43 396 1
43 397 1
43 400 1
44 4 1
44 6 1
44 8 1
44 10 1
44 11 1
44 16 1
44 18 1
44 19 1
44 20 1
44 24 1
44 27 1
44 33 1
44 34 1
44 35 1
44 38 1
44 42 1
44 43 1
44 48 1
44 49 1
44 50 1
44 52 1
44 55 1
44 58 1
44 64 1
44 65 1
44 70 1
44 71 1
44 76 1
44 78 1
44 86 1
44 88 1
44 89 1
44 99 1
44 100 1
44 102 1
44 104 1
44 107 1
44 108 1
44 110 1
44 111 1
44 115 1
44 118 1
44 122 1
44 125 1
44 137 1
44 138 1
44 139 1
44 140 1
44 141 1
44 149 1
44 151 1
44 153 1
44 154 1
44 158 1
44 163 1
44 167 1
44 175 1
44 177 1
44 180 1
44 181 1
44 182 1
44 187 1
44 190 1
44 193 1
44 194 1
44 196 1
44 199 1
44 203 1
44 204 1
44 205 1
44 206 1
44 210 1
44 212 1
44 218 1
44 220 1
44 221 1
44 226 1
44 231 1
44 234 1
44 235 1
44 238 1
44 239 1
44 242 1
44 249 1
44 250 1
44 251 1
44 255 1
44 256 1
44 257 1
44 261 1
44 262 1
44 265 1
44 267 1
44 269 1
44 270 1
44 274 1
44 278 1
44 279 1
44 280 1
44 281 1
44 284 1
44 290 1
44 293 1
44 295 1
44 296 1
44 298 1
44 302 1
44 303 1
44 304 1
44 307 1
44 308 1
44 310 1
44 315 1
44 316 1
44 317 1
44 319 1
44 322 1
44 323 1
44 324 1
44 326 1
44 329 1
44 331 1
44 336 1
44 337 1
44 343 1
44 352 1
44 356 1
44 357 1
44 360 1
44 362 1
44 363 1
44 364 1
44 367 1
44 368 1
44 369 1
44 371 1
44 374 1
44 376 1
44 378 1
44 380 1
44 381 1
44 382 1
44 384 1
44 387 1
44 389 1
44 390 1
44 396 1
44 397 1
44 398 1
44 399 1
45 4 1
45 8 1
45 9 1
45 17 1
45 19 1
45 24 1
45 29 1
45 31 1
45 38 1
45 40 1
45 41 1
45 42 1
45 43 1
45 47 1
45 48 1
45 49 1
45 51 1
45 52 1
45 53 1
45 54 1
45 55 1
45 56 1
45 57 1
45 58 1
45 59 1
45 60 1
45 64 1
45 70 1
45 75 1
45 76 1
45 80 1
45 85 1
45 86 1
45 87 1
45 90 1
45 93 1
45 95 1
45 97 1
45 105 1
45 106 1
45 108 1
45 110 1
45 111 1
45 114 1
45 115 1
45 116 1
45 118 1
45 119 1
45 121 1
45 123 1
45 125 1
45 126 1
45 129 1
45 134 1
45 137 1
45 140 1
45 141 1
45 148 1
45 150 1
45 159 1
45 163 1
45 164 1
45 165 1
45 170 1
45 174 1
45 175 1
45 179 1
45 180 1
45 183 1
45 196 1
45 197 1
45 199 1
45 200 1
45 205 1
45 208 1
45 209 1
45 211 1
45 212 1
45 213 1
45 215 1
45 217 1
45 218 1
45 221 1
45 224 1
45 228 1
45 230 1
45 231 1
45 237 1
45 238 1
45 243 1
45 247 1
45 251 1
45 253 1
45 255 1
45 259 1
45 261 1
45 262 1
45 263 1
45 264 1
45 265 1
45 268 1
45 273 1
45 277 1
45 278 1
45 281 1
45 282 1
45 286 1
45 287 1
45 290 1
45 291 1
45 292 1
45 293 1
45 301 1
45 302 1
45 306 1
45 310 1
45 311 1
45 312 1
45 316 1
45 322 1
45 324 1
45 325 1
45 326 1
45 328 1
45 329 1
45 335 1
45 339 1
45 343 1
45 344 1
45 348 1
45 349 1
45 355 1
45 356 1
45 357 1
45 363 1
45 364 1
45 365 1
45 367 1
45 371 1
45 372 1
45 375 1
45 379 1
45 381 1
45 383 1
45 389 1
45 391 1
45 395 1
45 396 1
45 397 1
45 400 1
46 2 1
46 3 1
46 5 1
46 8 1
46 16 1
46 19 1
46 21 1
46 22 1
46 24 1
46 28 1
46 29 1
46 35 1
46 36 1
46 41 1
46 42 1
46 43 1
46 48 1
46 52 1
46 53 1
46 55 1
46 57 1
46 58 1
46 59 1
46 61 1
46 62 1
46 65 1
46 66 1
46 67 1
46 69 1
46 70 1
46 73 1
46 75 1
46 79 1
46 80 1
46 81 1
46 84 1
46 88 1
46 90 1
46 91 1
46 93 1
46 99 1
46 100 1
46 103 1
46 104 1
46 106 1
46 109 1
46 110 1
46 112 1
46 114 1
46 116 1
46 117 1
46 120 1
46 131 1
46 134 1
46 136 1
46 138 1
46 143 1
46 155 1
46 156 1
46 157 1
46 159 1
46 164 1
46 165 1
46 169 1
46 171 1
46 174 1
46 175 1
46 176 1
46 180 1
46 189 1
46 191 1
46 192 1
46 193 1
46 194 1
46 195 1
46 196 1
46 198 1
46 201 1
46 205 1
46 207 1
46 209 1
46 211 1
46 216 1
46 219 1
46 220 1
46 227 1
46 233 1
46 234 1
46 240 1
46 243 1
46 244 1
46 245 1
46 246 1
46 247 1
46 256 1
46 259 1
46 261 1
46 262 1
46 264 1
46 274 1
46 275 1
46 281 1
46 285 1
46 286 1
46 289 1
46 290 1
46 295 1
46 296 1
46 298 1
46 300 1
46 301 1
46 303 1
46 308 1
46 309 1
46 310 1
46 314 1
46 316 1
46 319 1
46 320 1
46 324 1
46 325 1
46 328 1
46 334 1
46 336 1
46 338 1
46 346 1
46 350 1
46 352 1
46 354 1
46 357 1
46 365 1
46 368 1
46 374 1
46 376 1
46 383 1
46 385 1
46 387 1
46 395 1
46 400 1
47 2 1
47 3 1
47 8 1
47 12 1
47 26 1
47 27 1
47 30 1
47 33 1
47 36 1
47 40 1
47 43 1
47 45 1
47 50 1
47 52 1
47 53 1
47 54 1
47 55 1
47 56 1
47 57 1
47 59 1
47 60 1
47 61 1
47 63 1
47 64 1
47 66 1
47 69 1
47 71 1
47 73 1
47 74 1
47 76 1
47 78 1
47 80 1
47 81 1
47 82 1
47 84 1
47 85 1
47 88 1
47 89 1
47 90 1
47 91 1
47 93 1
47 95 1
47 97 1
47 102 1
47 103 1
47 107 1
47 111 1
47 113 1
47 115 1
47 116 1
47 117 1
47 122 1
47 124 1
47 125 1
47 126 1
47 130 1
47 131 1
47 132 1
47 133 1
47 135 1
47 142 1
47 143 1
47 150 1
47 151 1
47 154 1
47 155 1
47 157 1
47 161 1
47 162 1
47 163 1
47 166 1
47 171 1
47 172 1
47 173 1
47 176 1
47 180 1
47 192 1
47 196 1
47 198 1
47 204 1
47 205 1
47 206 1
47 208 1
47 209 1
47 212 1
47 213 1
47 215 1
47 216 1
47 217 1
47 220 1
47 221 1
47 222 1
47 223 1
47 224 1
47 225 1
47 226 1
47 227 1
47 230 1
47 232 1
47 233 1
47 235 1
47 238 1
47 239 1
47 240 1
47 243 1
47 245 1
47 246 1
47 250 1
47 251 1
47 252 1
47 254 1
47 255 1
47 259 1
47 260 1
47 264 1
47 265 1
47 266 1
47 270 1
47 271 1
47 272 1
47 278 1
47 280 1
47 281 1
47 283 1
47 285 1
47 286 1
47 287 1
47 291 1
47 292 1
47 294 1
47 297 1
47 298 1
47 299 1
47 300 1
47 303 1
47 304 1
47 306 1
47 313 1
47 317 1
47 318 1
47 323 1
47 326 1
47 330 1
47 333 1
47 337 1
47 338 1
47 342 1
47 343 1
47 347 1
47 355 1
47 357 1
47 358 1
47 359 1
47 360 1
47 366 1
47 371 1
47 375 1
47 376 1
47 378 1
47 379 1
47 384 1
47 386 1
47 388 1
47 390 1
47 391 1
47 400 1
48 3 1
48 6 1
48 7 1
48 8 1
48 10 1
48 23 1
48 24 1
48 25 1
48 26 1
48 28 1
48 29 1
48 30 1
48 32 1
48 33 1
48 38 1
48 42 1
48 44 1
48 45 1
48 46 1
48 49 1
48 54 1
48 56 1
48 57 1
48 59 1
48 60 1
48 65 1
48 68 1
48 70 1
48 76 1
48 80 1
48 94 1
48 95 1
48 96 1
48 97 1
48 103 1
48 106 1
48 109 1
48 111 1
48 112 1
48 116 1
48 117 1
48 120 1
48 121 1
48 124 1
48 126 1
48 127 1
48 128 1
48 135 1
48 138 1
48 143 1
48 151 1
48 153 1
48 157 1
48 160 1
48 163 1
48 167 1
48 168 1
48 169 1
48 173 1
48 174 1
48 175 1
48 177 1
48 180 1
48 181 1
48 185 1
48 188 1
48 191 1
48 192 1
48 194 1
48 196 1
48 198 1
48 200 1
48 206 1
48 207 1
48 211 1
48 212 1
48 213 1
48 214 1
48 216 1
48 218 1
48 219 1
48 221 1
48 223 1
48 224 1
48 234 1
48 237 1
48 238 1
48 239 1
48 240 1
48 242 1
48 244 1
48 246 1
48 247 1
48 248 1
48 250 1
48 253 1
48 255 1
48 257 1
48 258 1
48 259 1
48 262 1
48 264 1
48 265 1
48 267 1
48 268 1
48 269 1
48 272 1
48 274 1
48 275 1
48 276 1
48 278 1
48 279 1
48 282 1
48 284 1
48 285 1
48 287 1
48 291 1
48 292 1
48 302 1
48 304 1
48 305 1
48 306 1
48 310 1
48 312 1
48 318 1
48 319 1
48 320 1
48 322 1
48 324 1
48 327 1
48 328 1
48 333 1
48 338 1
48 339 1
48 340 1
48 341 1
48 343 1
48 344 1
48 345 1
48 348 1
48 352 1
48 354 1
48 356 1
48 361 1
48 363 1
48 369 1
48 371 1
48 372 1
48 373 1
48 375 1
48 376 1
48 377 1
48 381 1
48 383 1
48 384 1
48 385 1
48 386 1
48 387 1
48 391 1
48 392 1
48 394 1
48 398 1
49 2 1
49 3 1
49 4 1
49 7 1
49 16 1
49 17 1
49 21 1
49 26 1
49 30 1
49 34 1
49 35 1
49 36 1
49 38 1
49 40 1
49 41 1
49 42 1
49 44 1
49 45 1
49 48 1
49 50 1
49 53 1
49 58 1
49 60 1
49 61 1
49 64 1
49 65 1
49 66 1
49 69 1
49 72 1
49 74 1
49 75 1
49 76 1
49 79 1
49 82 1
49 85 1
49 86 1
49 88 1
49 90 1
49 91 1
49 98 1
49 99 1
49 102 1
49 104 1
49 111 1
49 112 1
49 113 1
49 115 1
49 119 1
49 122 1
49 123 1
49 126 1
49 128 1
49 129 1
49 133 1
49 135 1
49 143 1
49 145 1
49 148 1
49 149 1
49 155 1
49 156 1
49 157 1
49 161 1
49 163 1
49 164 1
49 169 1
49 171 1
49 173 1
49 177 1
49 178 1
49 179 1
49 180 1
49 182 1
49 183 1
49 186 1
49 187 1
49 188 1
49 189 1
49 190 1
49 192 1
49 193 1
49 194 1
49 195 1
49 196 1
49 200 1
49 203 1
49 204 1
49 206 1
49 208 1
49 210 1
49 212 1
49 213 1
49 214 1
49 216 1
49 219 1
49 220 1
49 228 1
49 230 1
49 233 1
49 236 1
49 241 1
49 242 1
49 244 1
49 245 1
49 250 1
49 253 1
49 258 1
49 260 1
49 265 1
49 267 1
49 270 1
49 272 1
49 275 1
49 276 1
49 278 1
49 283 1
49 286 1
49 287 1
49 293 1
49 294 1
49 297 1
49 298 1
49 299 1
49 300 1
49 301 1
49 302 1
49 304 1
49 305 1
49 308 1
49 310 1
49 312 1
49 314 1
49 315 1
49 317 1
49 318 1
49 321 1
49 324 1
49 331 1
49 332 1
49 334 1
49 342 1
49 347 1
49 349 1
49 353 1
49 354 1
49 356 1
49 360 1
49 364 1
49 367 1
49 371 1
49 372 1
49 379 1
49 381 1
49 382 1
49 389 1
49 393 1
49 394 1
49 395 1
49 396 1
50 1 1
50 2 1
50 5 1
50 8 1
50 9 1
50 10 1
50 12 1
50 13 1
50 16 1
50 18 1
50 19 1
50 21 1
50 24 1
50 25 1
50 26 1
50 27 1
50 28 1
50 31 1
50 33 1
50 34 1
50 35 1
50 36 1
50 37 1
50 40 1
50 42 1
50 43 1
50 44 1
50 47 1
50 49 1
50 58 1
50 62 1
50 63 1
50 64 1
50 66 1
50 67 1
50 68 1
50 69 1
50 70 1
50 71 1
50 74 1
50 76 1
50 77 1
50 81 1
50 83 1
50 85 1
50 86 1
50 87 1
50 89 1
50 90 1
50 91 1
50 94 1
50 95 1
50 96 1
50 98 1
50 99 1
50 102 1
50 103 1
50 104 1
50 105 1
50 107 1
50 108 1
50 109 1
50 111 1
50 112 1
50 113 1
50 118 1
50 120 1
50 124 1
50 125 1
50 126 1
50 128 1
50 130 1
50 131 1
50 133 1
50 134 1
50 137 1
50 138 1
50 141 1
50 142 1
50 144 1
50 145 1
50 146 1
50 151 1
50 152 1
50 153 1
50 155 1
50 158 1
50 163 1
50 166 1
50 169 1
50 171 1
50 172 1
50 175 1
50 179 1
50 180 1
50 182 1
50 183 1
50 189 1
50 191 1
50 193 1
50 195 1
50 198 1
50 199 1
50 203 1
50 205 1
50 206 1
50 207 1
50 208 1
50 210 1
50 212 1
50 217 1
50 220 1
50 222 1
50 223 1
50 224 1
50 225 1
50 232 1
50 234 1
50 235 1
50 237 1
50 244 1
50 245 1
50 246 1
50 248 1
50 249 1
50 251 1
50 259 1
50 260 1
50 261 1
50 265 1
50 266 1
50 270 1
50 274 1
50 275 1
50 276 1
50 279 1
50 280 1
50 281 1
50 282 1
50 283 1
50 284 1
50 287 1
50 288 1
50 292 1
50 295 1
50 299 1
50 301 1
50 302 1
50 303 1
50 308 1
50 309 1
50 311 1
50 314 1
50 315 1
50 316 1
50 321 1
50 326 1
50 327 1
50 328 1
50 334 1
50 336 1
50 337 1
50 338 1
50 339 1
50 342 1
50 344 1
50 346 1
50 347 1
50 349 1
50 353 1
50 354 1
50 357 1
50 359 1
50 360 1
50 361 1
50 363 1
50 365 1
50 366 1
50 369 1
50 371 1
50 372 1
50 373 1
50 374 1
50 376 1
50 378 1
50 382 1
50 385 1
50 389 1
50 391 1
50 398 1
51 3 1
51 5 1
51 7 1
51 8 1
51 10 1
51 17 1
51 18 1
51 20 1
51 22 1
51 23 1
51 27 1
51 28 1
51 33 1
51 35 1
51 41 1
51 45 1
51 52 1
51 58 1
51 61 1
51 62 1
51 63 1
51 64 1
51 65 1
51 67 1
51 69 1
51 72 1
51 73 1
51 75 1
51 77 1
51 79 1
51 81 1
51 86 1
51 87 1
51 90 1
51 94 1
51 100 1
51 104 1
51 109 1
51 112 1
51 115 1
51 122 1
51 127 1
51 130 1
51 140 1
51 141 1
51 144 1
51 148 1
51 154 1
51 155 1
51 157 1
51 158 1
51 165 1
51 168 1
51 170 1
51 174 1
51 177 1
51 181 1
51 186 1
51 188 1
51 192 1
51 195 1
51 196 1
51 199 1
51 200 1
51 203 1
51 204 1
51 206 1
51 209 1
51 210 1
51 211 1
51 212 1
51 214 1
51 215 1
51 216 1
51 218 1
51 219 1
51 221 1
51 226 1
51 227 1
51 228 1
51 230 1
51 233 1
51 235 1
51 238 1
51 242 1
51 246 1
51 248 1
51 249 1
51 250 1
51 254 1
51 257 1
51 258 1
51 259 1
51 264 1
51 267 1
51 270 1
51 271 1
51 272 1
51 273 1
51 274 1
51 282 1
51 285 1
51 289 1
51 290 1
51 292 1
51 293 1
51 294 1
51 298 1
51 301 1
51 303 1
51 305 1
51 307 1
51 310 1
51 316 1
51 318 1
51 319 1
51 320 1
51 322 1
51 328 1
51 331 1
51 332 1
51 334 1
51 335 1
51 337 1
51 346 1
51 348 1
51 354 1
51 358 1
51 368 1
51 369 1
51 371 1
51 375 1
51 376 1
51 377 1
51 379 1
51 380 1
51 382 1
51 383 1
51 386 1
51 388 1
51 393 1
51 394 1
51 395 1
51 396 1
51 400 1
52 4 1
52 14 1
52 18 1
52 19 1
52 21 1
52 22 1
52 25 1
52 27 1
52 29 1
52 30 1
52 32 1
52 37 1
52 39 1
52 41 1
52 43 1
52 44 1
52 45 1
52 46 1
52 47 1
52 51 1
52 54 1
52 55 1
52 63 1
52 65 1
52 67 1
52 68 1
52 70 1
52 72 1
52 74 1
52 79 1
52 80 1
52 82 1
52 83 1
52 84 1
52 86 1
52 87 1
52 88 1
52 91 1
52 92 1
52 95 1
52 98 1
52 100 1
52 103 1
52 106 1
52 108 1
52 109 1
52 110 1
52 111 1
52 112 1
52 113 1
52 115 1
52 120 1
52 122 1
52 126 1
52 130 1
52 131 1
52 132 1
52 135 1
52 136 1
52 137 1
52 141 1
52 142 1
52 143 1
52 145 1
52 146 1
52 151 1
52 154 1
52 155 1
52 157 1
52 158 1
52 159 1
52 160 1
52 161 1
52 162 1
52 165 1
52 166 1
52 167 1
52 169 1
52 177 1
52 178 1
52 181 1
52 185 1
52 188 1
52 192 1
52 196 1
52 200 1
52 201 1
52 202 1
52 210 1
52 211 1
52 212 1
52 213 1
52 215 1
52 216 1
52 217 1
52 220 1
52 222 1
52 223 1
52 224 1
52 228 1
52 229 1
52 233 1
52 235 1
52 236 1
52 237 1
52 238 1
52 241 1
52 246 1
52 249 1
52 250 1
52 254 1
52 256 1
52 257 1
52 258 1
52 262 1
52 263 1
52 267 1
52 268 1
52 271 1
52 274 1
52 280 1
52 282 1
52 284 1
52 286 1
52 289 1
52 290 1
52 291 1
52 292 1
52 293 1
52 294 1
52 296 1
52 297 1
52 300 1
52 302 1
52 303 1
52 304 1
52 306 1
52 312 1
52 318 1
52 321 1
52 324 1
52 325 1
52 329 1
52 330 1
52 333 1
52 335 1
52 336 1
52 337 1
52 339 1
52 341 1
52 346 1
52 349 1
52 355 1
52 358 1
52 359 1
52 361 1
52 363 1
52 365 1
52 366 1
52 367 1
52 369 1
52 372 1
52 373 1
52 374 1
52 375 1
52 377 1
52 384 1
52 385 1
52 390 1
52 391 1
52 392 1
52 394 1
52 395 1
52 396 1
52 398 1
52 400 1
53 1 1
53 4 1
53 12 1
53 13 1
53 14 1
53 15 1
53 17 1
53 19 1
53 22 1
53 24 1
53 31 1
53 32 1
53 33 1
53 38 1
53 43 1
53 45 1
53 46 1
53 47 1
53 49 1
53 54 1
53 55 1
53 56 1
53 57 1
53 64 1
53 67 1
53 70 1
53 72 1
53 75 1
53 77 1
53 80 1
53 83 1
53 84 1
53 87 1
53 95 1
53 102 1
53 107 1
53 109 1
53 117 1
53 119 1
53 122 1
53 123 1
53 132 1
53 139 1
53 140 1
53 145 1
53 146 1
53 148 1
53 149 1
53 153 1
53 154 1
53 156 1
53 157 1
53 159 1
53 162 1
53 166 1
53 168 1
53 169 1
53 170 1
53 171 1
53 172 1
53 173 1
53 178 1
53 180 1
53 181 1
53 184 1
53 186 1
53 192 1
53 193 1
53 195 1
53 198 1
53 199 1
53 202 1
53 203 1
53 205 1
53 209 1
53 212 1
53 213 1
53 214 1
53 216 1
53 217 1
53 220 1
53 221 1
53 227 1
53 229 1
53 234 1
53 237 1
53 242 1
53 245 1
53 247 1
53 253 1
53 254 1
53 257 1
53 258 1
53 260 1
53 261 1
53 262 1
53 267 1
53 271 1
53 273 1
53 277 1
53 278 1
53 280 1
53 286 1
53 287 1
53 289 1
53 290 1
53 291 1
53 293 1
53 297 1
53 299 1
53 307 1
53 309 1
53 313 1
53 315 1
53 316 1
53 322 1
53 323 1
53 325 1
53 328 1
53 334 1
53 339 1
53 341 1
53 342 1
53 347 1
53 349 1
53 352 1
53 354 1
53 356 1
53 358 1
53 359 1
53 361 1
53 364 1
53 365 1
53 367 1
53 369 1
53 370 1
53 375 1
53 376 1
53 377 1
53 378 1
53 379 1
53 386 1
53 390 1
53 393 1
53 394 1
53 398 1
53 399 1
54 1 1
54 2 1
54 4 1
54 6 1
54 7 1
54 9 1
54 12 1
54 15 1
54 18 1
54 21 1
54 22 1
54 25 1
54 28 1
54 31 1
54 34 1
54 39 1
54 40 1
54 45 1
54 47 1
54 48 1
54 52 1
54 53 1
54 56 1
54 59 1
54 61 1
54 64 1
54 65 1
54 66 1
54 67 1
54 68 1
54 69 1
54 70 1
54 76 1
54 78 1
54 79 1
54 80 1
54 85 1
54 87 1
54 91 1
54 92 1
54 93 1
54 95 1
54 96 1
54 97 1
54 99 1
54 100 1
54 102 1
54 104 1
54 108 1
54 110 1
54 112 1
54 113 1
54 114 1
54 123 1
54 127 1
54 130 1
54 131 1
54 134 1
54 135 1
54 138 1
54 140 1
54 141 1
54 143 1
54 144 1
54 145 1
54 148 1
54 150 1
54 151 1
54 152 1
54 153 1
54 154 1
54 157 1
54 158 1
54 161 1
54 164 1
54 170 1
54 177 1
54 178 1
54 181 1
54 182 1
54 183 1
54 184 1
54 186 1
54 196 1
54 197 1
54 200 1
54 201 1
54 202 1
54 204 1
54 206 1
54 208 1
54 211 1
54 213 1
54 214 1
54 218 1
54 219 1
54 221 1
54 224 1
54 225 1
54 229 1
54 230 1
54 231 1
54 233 1
54 234 1
54 236 1
54 237 1
54 238 1
54 245 1
54 246 1
54 248 1
54 250 1
54 252 1
54 254 1
54 255 1
54 256 1
54 258 1
54 262 1
54 263 1
54 265 1
54 267 1
54 268 1
54 270 1
54 274 1
54 277 1
54 283 1
54 284 1
54 289 1
54 291 1
54 292 1
54 293 1
54 295 1
54 296 1
54 299 1
54 301 1
54 302 1
54 303 1
54 305 1
54 306 1
54 308 1
54 309 1
54 310 1
54 312 1
54 317 1
54 321 1
54 322 1
54 324 1
54 325 1
54 326 1
54 328 1
54 329 1
54 330 1
54 333 1
54 336 1
54 345 1
54 347 1
54 348 1
54 349 1
54 352 1
54 359 1
54 366 1
54 368 1
54 369 1
54 371 1
54 372 1
54 373 1
54 374 1
54 376 1
54 378 1
54 380 1
54 381 1
54 383 1
54 387 1
54 388 1
54 390 1
54 391 1
54 393 1
54 395 1
54 397 1
54 398 1
54 399 1
54 400 1
55 3 1
55 5 1
55 8 1
55 11 1
55 14 1
55 15 1
55 19 1
55 21 1
55 24 1
55 27 1
55 28 1
55 31 1
55 32 1
55 33 1
55 34 1
55 35 1
55 38 1
55 44 1
55 45 1
55 46 1
55 47 1
55 52 1
55 53 1
55 56 1
55 57 1
55 58 1
55 59 1
55 60 1
55 61 1
55 62 1
55 64 1
55 66 1
55 68 1
55 70 1
55 72 1
55 73 1
55 76 1
55 82 1
55 86 1
55 87 1
55 88 1
55 89 1
55 95 1
55 96 1
55 99 1
55 102 1
55 103 1
55 104 1
55 107 1
55 108 1
55 109 1
55 113 1
55 116 1
55 122 1
55 125 1
55 131 1
55 137 1
55 139 1
55 144 1
55 147 1
55 150 1
55 152 1
55 159 1
55 160 1
55 163 1
55 166 1
55 170 1
55 173 1
55 174 1
55 175 1
55 176 1
55 178 1
55 182 1
55 186 1
55 190 1
55 192 1
55 193 1
55 194 1
55 197 1
55 199 1
55 200 1
55 201 1
55 205 1
55 206 1
55 210 1
55 212 1
55 216 1
55 218 1
55 220 1
55 223 1
55 224 1
55 226 1
55 227 1
55 229 1
55 234 1
55 241 1
55 244 1
55 247 1
55 249 1
55 252 1
55 256 1
55 258 1
55 261 1
55 263 1
55 268 1
55 270 1
55 271 1
55 273 1
55 275 1
55 277 1
55 281 1
55 282 1
55 284 1
55 291 1
55 293 1
55 295 1
55 296 1
55 297 1
55 299 1
55 301 1
55 302 1
55 303 1
55 304 1
55 305 1
55 308 1
55 309 1
55 314 1
55 318 1
55 322 1
55 323 1
55 327 1
55 329 1
55 332 1
55 335 1
55 336 1
55 338 1
55 340 1
55 343 1
55 344 1
55 347 1
55 351 1
55 353 1
55 354 1
55 355 1
55 356 1
55 364 1
55 365 1
55 370 1
55 373 1
55 378 1
55 379 1
55 381 1
55 384 1
55 386 1
55 387 1
55 388 1
55 390 1
55 391 1
56 1 1
56 2 1
56 5 1
56 8 1
56 9 1
56 12 1
56 13 1
56 14 1
56 15 1
56 16 1
56 17 1
56 19 1
56 20 1
56 26 1
56 34 1
56 35 1
56 37 1
56 40 1
56 45 1
56 47 1
56 48 1
56 53 1
56 54 1
56 55 1
56 57 1
56 58 1
56 59 1
56 60 1
56 62 1
56 64 1
56 66 1
56 68 1
56 70 1
56 71 1
56 74 1
56 75 1
56 77 1
56 84 1
56 88 1
56 90 1
56 92 1
56 93 1
56 94 1
56 96 1
56 97 1
56 98 1
56 102 1
56 103 1
56 104 1
56 107 1
56 110 1
56 114 1
56 119 1
56 122 1
56 126 1
56 129 1
56 130 1
56 131 1
56 132 1
56 133 1
56 134 1
56 135 1
56 136 1
56 138 1
56 147 1
56 149 1
56 152 1
56 155 1
56 157 1
56 159 1
56 160 1
56 165 1
56 166 1
56 167 1
56 168 1
56 169 1
56 172 1
56 175 1
56 178 1
56 180 1
56 182 1
56 183 1
56 184 1
56 185 1
56 186 1
56 187 1
56 188 1
56 194 1
56 204 1
56 205 1
56 209 1
56 212 1
56 215 1
56 217 1
56 218 1
56 220 1
56 224 1
56 229 1
56 231 1
56 232 1
56 234 1
56 239 1
56 240 1
56 245 1
56 246 1
56 247 1
56 248 1
56 249 1
56 250 1
56 251 1
56 255 1
56 256 1
56 257 1
56 262 1
56 264 1
56 265 1
56 268 1
56 273 1
56 276 1
56 277 1
56 281 1
56 282 1
56 284 1
56 285 1
56 291 1
56 292 1
56 295 1
56 297 1
56 298 1
56 304 1
56 307 1
56 309 1
56 312 1
56 316 1
56 317 1
56 326 1
56 340 1
56 342 1
56 354 1
56 355 1
56 356 1
56 358 1
56 359 1
56 362 1
56 363 1
56 365 1
56 366 1
56 370 1
56 374 1
56 375 1
56 376 1
56 379 1
56 382 1
56 384 1
56 385 1
56 387 1
56 390 1
56 391 1
56 392 1
56 394 1
57 1 1
57 7 1
57 8 1
57 13 1
57 14 1
57 15 1
57 18 1
57 29 1
57 31 1
57 34 1
57 40 1
57 42 1
57 43 1
57 45 1
57 46 1
57 47 1
57 48 1
57 53 1
57 55 1
57 56 1
57 59 1
57 61 1
57 65 1
57 67 1
57 69 1
57 71 1
57 73 1
57 74 1
57 77 1
57 78 1
57 79 1
57 82 1
57 84 1
57 92 1
57 99 1
57 100 1
57 101 1
57 103 1
57 105 1
57 109 1
57 114 1
57 116 1
57 117 1
57 119 1
57 121 1
57 123 1
57 125 1
57 129 1
57 131 1
57 141 1
57 142 1
57 144 1
57 146 1
57 148 1
57 149 1
57 150 1
57 153 1
57 155 1
57 159 1
57 160 1
57 161 1
57 163 1
57 165 1
57 169 1
57 171 1
57 172 1
57 175 1
57 176 1
57 177 1
57 179 1
57 180 1
57 186 1
57 187 1
57 188 1
57 194 1
57 198 1
57 199 1
57 201 1
57 202 1
57 206 1
57 211 1
57 216 1
57 217 1
57 219 1
57 227 1
57 228 1
57 229 1
57 230 1
57 231 1
57 236 1
57 237 1
57 240 1
57 242 1
57 247 1
57 249 1
57 251 1
57 252 1
57 261 1
57 266 1
57 268 1
57 269 1
57 271 1
57 273 1
57 276 1
57 279 1
57 280 1
57 283 1
57 284 1
57 289 1
57 290 1
57 294 1
57 297 1
57 299 1
57 305 1
57 306 1
57 310 1
57 316 1
57 317 1
57 320 1
57 323 1
57 328 1
57 330 1
57 334 1
57 335 1
57 336 1
57 340 1
57 347 1
57 351 1
57 360 1
57 363 1
57 364 1
57 368 1
57 370 1
57 371 1
57 373 1
57 376 1
57 377 1
57 378 1
57 380 1
57 382 1
57 385 1
57 387 1
57 391 1
57 393 1
57 397 1
57 398 1
57 399 1
57 400 1
58 1 1
58 3 1
58 4 1
58 8 1
58 10 1
58 19 1
58 20 1
58 23 1
58 26 1
58 34 1
58 37 1
58 40 1
58 42 1
58 43 1
58 44 1
58 45 1
58 46 1
58 49 1
58 50 1
58 51 1
58 55 1
58 56 1
58 59 1
58 62 1
58 63 1
58 64 1
58 65 1
58 66 1
58 69 1
58 71 1
58 73 1
58 94 1
58 96 1
58 97 1
58 98 1
58 102 1
58 108 1
58 109 1
58 112 1
58 115 1
58 117 1
58 119 1
58 122 1
58 123 1
58 124 1
58 128 1
58 129 1
58 133 1
58 136 1
58 140 1
58 142 1
58 143 1
58 144 1
58 147 1
58 148 1
58 153 1
58 154 1
58 156 1
58 157 1
58 158 1
58 160 1
58 163 1
58 165 1
58 169 1
58 170 1
58 173 1
58 175 1
58 176 1
58 183 1
58 186 1
58 187 1
58 189 1
58 193 1
58 194 1
58 195 1
58 196 1
58 199 1
58 202 1
58 203 1
58 206 1
58 207 1
58 208 1
58 209 1
58 211 1
58 212 1
58 213 1
58 214 1
58 215 1
58 216 1
58 219 1
58 220 1
58 221 1
58 222 1
58 230 1
58 236 1
58 237 1
58 243 1
58 246 1
58 247 1
58 248 1
58 249 1
58 251 1
58 252 1
58 254 1
58 256 1
58 257 1
58 259 1
58 262 1
58 265 1
58 270 1
58 272 1
58 275 1
58 278 1
58 282 1
58 284 1
58 285 1
58 288 1
58 292 1
58 293 1
58 301 1
58 303 1
58 304 1
58 306 1
58 307 1
58 310 1
58 313 1
58 316 1
58 317 1
58 318 1
58 319 1
58 321 1
58 322 1
58 324 1
58 325 1
58 326 1
58 330 1
58 339 1
58 340 1
58 343 1
58 344 1
58 350 1
58 352 1
58 354 1
58 356 1
58 363 1
58 367 1
58 369 1
58 373 1
58 378 1
58 382 1
58 385 1
58 386 1
58 391 1
58 392 1
58 394 1
58 395 1
58 398 1
59 3 1
59 4 1
59 5 1
59 11 1
59 12 1
59 13 1
59 14 1
59 15 1
59 16 1
59 19 1
59 22 1
59 23 1
59 24 1
59 29 1
59 30 1
59 32 1
59 34 1
59 38 1
59 45 1
59 46 1
59 47 1
59 48 1
59 54 1
59 55 1
59 56 1
59 57 1
59 58 1
59 62 1
59 63 1
59 65 1
59 66 1
59 67 1
59 68 1
59 69 1
59 73 1
59 75 1
59 79 1
59 82 1
59 86 1
59 87 1
59 89 1
59 90 1
59 95 1
59 96 1
59 99 1
59 104 1
59 105 1
59 106 1
59 107 1
59 108 1
59 111 1
59 112 1
59 113 1
59 123 1
59 124 1
59 126 1
59 129 1
59 135 1
59 139 1
59 140 1
59 144 1
59 146 1
59 147 1
59 148 1
59 149 1
59 150 1
59 153 1
59 154 1
59 155 1
59 158 1
59 160 1
59 162 1
59 164 1
59 166 1
59 167 1
59 168 1
59 170 1
59 174 1
59 178 1
59 179 1
59 180 1
59 181 1
59 185 1
59 187 1
59 188 1
59 190 1
59 191 1
59 198 1
59 210 1
59 215 1
59 219 1
59 221 1
59 224 1
59 226 1
59 227 1
59 228 1
59 232 1
59 234 1
59 237 1
59 240 1
59 242 1
59 243 1
59 245 1
59 246 1
59 250 1
59 254 1
59 256 1
59 259 1
59 265 1
59 272 1
59 273 1
59 277 1
59 278 1
59 279 1
59 280 1
59 281 1
59 282 1
59 284 1
59 287 1
59 288 1
59 293 1
59 296 1
59 298 1
59 299 1
59 304 1
59 305 1
59 306 1
59 308 1
59 311 1
59 313 1
59 314 1
59 315 1
59 317 1
59 319 1
59 323 1
59 326 1
59 329 1
59 334 1
59 336 1
59 339 1
59 341 1
59 344 1
59 345 1
59 347 1
59 349 1
59 350 1
59 353 1
59 354 1
59 355 1
59 360 1
59 362 1
59 363 1
59 366 1
59 369 1
59 371 1
59 372 1
59 373 1
59 378 1
59 384 1
59 385 1
59 386 1
59 387 1
59 390 1
59 392 1
59 394 1
59 395 1
59 397 1
59 398 1
59 400 1
60 3 1
60 8 1
60 9 1
60 11 1
60 13 1
60 14 1
60 15 1
60 18 1
60 19 1
60 21 1
60 22 1
60 26 1
60 28 1
60 29 1
60 31 1
60 32 1
60 33 1
60 34 1
60 36 1
60 45 1
60 47 1
60 48 1
60 49 1
60 55 1
60 56 1
60 61 1
60 62 1
60 64 1
60 65 1
60 69 1
60 70 1
60 73 1
60 74 1
60 75 1
60 76 1
60 79 1
60 82 1
60 84 1
60 88 1
60 90 1
60 91 1
60 92 1
60 93 1
60 97 1
60 100 1
60 103 1
60 105 1
60 109 1
60 110 1
60 111 1
60 112 1
60 114 1
60 119 1
60 120 1
60 127 1
60 129 1
60 132 1
60 135 1
60 138 1
60 142 1
60 143 1
60 145 1
60 146 1
60 152 1
60 153 1
60 154 1
60 157 1
60 158 1
60 159 1
60 162 1
60 166 1
60 169 1
60 170 1
60 173 1
60 182 1
60 185 1
60 186 1
60 190 1
60 191 1
60 192 1
60 193 1
60 195 1
60 197 1
60 201 1
60 202 1
60 209 1
60 214 1
60 215 1
60 216 1
60 217 1
60 220 1
60 224 1
60 226 1
60 228 1
60 229 1
60 230 1
60 232 1
60 233 1
60 234 1
60 237 1
60 238 1
60 241 1
60 243 1
60 245 1
60 253 1
60 257 1
60 261 1
60 266 1
60 268 1
60 269 1
60 270 1
60 275 1
60 276 1
60 277 1
60 279 1
60 282 1
60 283 1
60 285 1
60 287 1
60 297 1
60 303 1
60 305 1
60 306 1
60 307 1
60 309 1
60 310 1
60 311 1
60 312 1
60 313 1
60 320 1
60 323 1
60 324 1
60 326 1
60 328 1
60 330 1
60 333 1
60 335 1
60 336 1
60 337 1
60 338 1
60 340 1
60 342 1
60 343 1
60 344 1
60 345 1
60 347 1
60 348 1
60 350 1
60 351 1
60 352 1
60 354 1
60 355 1
60 356 1
60 360 1
60 361 1
60 365 1
60 366 1
60 367 1
60 373 1
60 374 1
60 385 1
60 386 1
60 389 1
60 391 1
60 394 1
60 396 1
60 400 1
61 3 1
61 4 1
61 5 1
61 10 1
61 13 1
61 15 1
61 17 1
61 19 1
61 20 1
61 22 1
61 23 1
61 26 1
61 27 1
61 30 1
61 31 1
61 33 1
61 36 1
61 38 1
61 39 1
61 46 1
61 47 1
61 49 1
61 51 1
61 54 1
61 55 1
61 57 1
61 60 1
61 62 1
61 63 1
61 65 1
61 69 1
61 70 1
61 72 1
61 75 1
61 76 1
61 78 1
61 79 1
61 80 1
61 84 1
61 86 1
61 87 1
61 91 1
61 92 1
61 93 1
61 98 1
61 105 1
61 106 1
61 111 1
61 112 1
61 117 1
61 119 1
61 120 1
61 122 1
61 123 1
61 126 1
61 127 1
61 128 1
61 129 1
61 130 1
61 134 1
61 144 1
61 145 1
61 146 1
61 152 1
61 157 1
61 158 1
61 159 1
61 160 1
61 162 1
61 163 1
61 164 1
61 165 1
61 167 1
61 171 1
61 173 1
61 175 1
61 176 1
61 180 1
61 181 1
61 182 1
61 183 1
61 185 1
61 186 1
61 193 1
61 195 1
61 197 1
61 198 1
61 201 1
61 204 1
61 208 1
61 209 1
61 210 1
61 211 1
61 212 1
61 216 1
61 217 1
61 221 1
61 223 1
61 224 1
61 227 1
61 231 1
61 235 1
61 236 1
61 237 1
61 240 1
61 245 1
61 247 1
61 248 1
61 249 1
61 255 1
61 257 1
61 258 1
61 260 1
61 267 1
61 268 1
61 269 1
61 277 1
61 279 1
61 280 1
61 285 1
61 286 1
61 287 1
61 288 1
61 291 1
61 292 1
61 298 1
61 299 1
61 300 1
61 302 1
61 304 1
61 306 1
61 308 1
61 314 1
61 315 1
61 316 1
61 322 1
61 329 1
61 333 1
61 334 1
61 335 1
61 338 1
61 342 1
61 345 1
61 349 1
61 352 1
61 360 1
61 369 1
61 370 1
61 373 1
61 375 1
61 377 1
61 380 1
61 381 1
61 383 1
61 385 1
61 386 1
61 390 1
61 393 1
61 394 1
61 396 1
61 399 1
62 1 1
62 4 1
62 5 1
62 7 1
62 10 1
62 11 1
62 12 1
62 15 1
62 16 1
62 19 1
62 21 1
62 26 1
62 32 1
62 34 1
62 35 1
62 38 1
62 39 1
62 40 1
62 41 1
62 43 1
62 46 1
62 50 1
62 51 1
62 55 1
62 56 1
62 58 1
62 59 1
62 60 1
62 61 1
62 63 1
62 65 1
62 68 1
62 71 1
62 72 1
62 73 1
62 76 1
62 77 1
62 78 1
62 83 1
62 84 1
62 86 1
62 90 1
62 91 1
62 96 1
62 102 1
62 103 1
62 104 1
62 105 1
62 108 1
62 113 1
62 114 1
62 117 1
62 118 1
62 119 1
62 123 1
62 126 1
62 128 1
62 132 1
62 139 1
62 145 1
62 146 1
62 148 1
62 150 1
62 151 1
62 155 1
62 157 1
62 163 1
62 165 1
62 166 1
62 167 1
62 168 1
62 169 1
62 172 1
62 174 1
62 178 1
62 181 1
62 182 1
62 187 1
62 188 1
62 193 1
62 197 1
62 198 1
62 199 1
62 201 1
62 203 1
62 209 1
62 211 1
62 217 1
62 229 1
62 231 1
62 233 1
62 234 1
62 235 1
62 237 1
62 239 1
62 241 1
62 244 1
62 248 1
62 249 1
62 250 1
62 252 1
62 253 1
62 255 1
62 256 1
62 257 1
62 266 1
62 271 1
62 274 1
62 278 1
62 279 1
62 280 1
62 283 1
62 284 1
62 285 1
62 286 1
62 287 1
62 291 1
62 292 1
62 293 1
62 295 1
62 296 1
62 300 1
62 302 1
62 303 1
62 305 1
62 306 1
62 310 1
62 311 1
62 312 1
62 314 1
62 315 1
62 317 1
62 318 1
62 319 1
62 327 1
62 328 1
62 331 1
62 335 1
62 337 1
62 338 1
62 342 1
62 346 1
62 351 1
62 354 1
62 364 1
62 365 1
62 367 1
62 371 1
62 372 1
62 374 1
62 379 1
62 381 1
62 384 1
62 385 1
62 386 1
62 387 1
62 389 1
62 390 1
62 391 1
62 394 1
62 399 1
62 400 1
63 1 1
63 3 1
63 5 1
63 6 1
63 8 1
63 10 1
63 12 1
63 15 1
63 17 1
63 18 1
63 20 1
63 23 1
63 25 1
63 27 1
63 34 1
63 36 1
63 37 1
63 40 1
63 47 1
63 50 1
63 51 1
63 52 1
63 58 1
63 59 1
63 61 1
63 62 1
63 65 1
63 68 1
63 70 1
63 71 1
63 72 1
63 75 1
63 78 1
63 81 1
63 84 1
63 85 1
63 90 1
63 95 1
63 97 1
63 100 1
63 103 1
63 104 1
63 106 1
63 110 1
63 114 1
63 115 1
63 120 1
63 121 1
63 122 1
63 126 1
63 129 1
63 131 1
63 132 1
63 133 1
63 134 1
63 138 1
63 139 1
63 140 1
63 141 1
63 142 1
63 143 1
63 149 1
63 151 1
63 169 1
63 171 1
63 172 1
63 175 1
63 177 1
63 180 1
63 184 1
63 186 1
63 187 1
63 190 1
63 196 1
63 200 1
63 203 1
63 204 1
63 205 1
63 206 1
63 207 1
63 208 1
63 210 1
63 213 1
63 215 1
63 216 1
63 217 1
63 219 1
63 220 1
63 221 1
63 223 1
63 224 1
63 226 1
63 227 1
63 229 1
63 235 1
63 236 1
63 238 1
63 239 1
63 240 1
63 242 1
63 243 1
63 247 1
63 249 1
63 250 1
63 252 1
63 254 1
63 255 1
63 256 1
63 259 1
63 262 1
63 263 1
63 266 1
63 275 1
63 278 1
63 279 1
63 285 1
63 286 1
63 289 1
63 290 1
63 293 1
63 295 1
63 296 1
63 298 1
63 302 1
63 307 1
63 308 1
63 313 1
63 315 1
63 322 1
63 323 1
63 325 1
63 326 1
63 327 1
63 328 1
63 329 1
63 332 1
63 333 1
63 335 1
63 338 1
63 340 1
63 344 1
63 345 1
63 346 1
63 348 1
63 350 1
63 352 1
63 355 1
63 356 1
63 357 1
63 360 1
63 361 1
63 364 1
63 367 1
63 372 1
63 374 1
63 376 1
63 378 1
63 379 1
63 380 1
63 382 1
63 383 1
63 384 1
63 385 1
63 386 1
63 389 1
63 391 1
63 392 1
63 394 1
63 399 1
64 5 1
64 7 1
64 9 1
64 11 1
64 13 1
64 16 1
64 17 1
64 19 1
64 23 1
64 25 1
64 26 1
64 28 1
64 30 1
64 32 1
64 33 1
64 38 1
64 40 1
64 44 1
64 45 1
64 47 1
64 49 1
64 50 1
64 51 1
64 53 1
64 54 1
64 55 1
64 56 1
64 58 1
64 60 1
64 65 1
64 67 1
64 71 1
64 73 1
64 75 1
64 76 1
64 83 1
64 84 1
64 86 1
64 90 1
64 92 1
64 96 1
64 97 1
64 102 1
64 103 1
64 104 1
64 105 1
64 107 1
64 110 1
64 111 1
64 113 1
64 114 1
64 115 1
64 116 1
64 120 1
64 122 1
64 124 1
64 131 1
64 135 1
64 141 1
64 142 1
64 144 1
64 146 1
64 148 1
64 150 1
64 153 1
64 154 1
64 157 1
64 159 1
64 160 1
64 161 1
64 162 1
64 164 1
64 168 1
64 172 1
64 181 1
64 182 1
64 183 1
64 184 1
64 186 1
64 187 1
64 189 1
64 190 1
64 195 1
64 197 1
64 201 1
64 203 1
64 206 1
64 213 1
64 214 1
64 216 1
64 217 1
64 218 1
64 219 1
64 224 1
64 225 1
64 227 1
64 229 1
64 232 1
64 233 1
64 234 1
64 235 1
64 236 1
64 239 1
64 240 1
64 241 1
64 243 1
64 245 1
64 246 1
64 247 1
64 249 1
64 251 1
64 255 1
64 258 1
64 260 1
64 262 1
64 264 1
64 265 1
64 267 1
64 268 1
64 271 1
64 274 1
64 275 1
64 277 1
64 280 1
64 281 1
64 287 1
64 288 1
64 291 1
64 294 1
64 297 1
64 298 1
64 299 1
64 300 1
64 301 1
64 302 1
64 303 1
64 304 1
64 305 1
64 309 1
64 313 1
64 315 1
64 317 1
64 322 1
64 324 1
64 325 1
64 326 1
64 327 1
64 330 1
64 333 1
64 340 1
64 344 1
64 345 1
64 354 1
64 357 1
64 358 1
64 359 1
64 360 1
64 365 1
64 366 1
64 372 1
64 376 1
64 378 1
64 381 1
64 383 1
64 387 1
64 393 1
64 397 1
64 398 1
65 1 1
65 3 1
65 8 1
65 19 1
65 22 1
65 25 1
65 27 1
65 36 1
65 39 1
65 41 1
65 43 1
65 44 1
65 46 1
65 48 1
65 49 1
65 51 1
65 52 1
65 54 1
65 57 1
65 58 1
65 59 1
65 60 1
65 61 1
65 62 1
65 63 1
65 64 1
65 72 1
65 75 1
65 79 1
65 82 1
65 88 1
65 94 1
65 98 1
65 101 1
65 103 1
65 105 1
65 106 1
65 107 1
65 109 1
65 115 1
65 120 1
65 124 1
65 126 1
65 127 1
65 131 1
65 135 1
65 138 1
65 139 1
65 143 1
65 145 1
65 146 1
65 149 1
65 152 1
65 158 1
65 162 1
65 164 1
65 175 1
65 186 1
65 188 1
65 190 1
65 195 1
65 196 1
65 197 1
65 199 1
65 202 1
65 206 1
65 212 1
65 214 1
65 216 1
65 224 1
65 225 1
65 231 1
65 235 1
65 236 1
65 237 1
65 238 1
65 239 1
65 245 1
65 247 1
65 248 1
65 251 1
65 253 1
65 254 1
65 256 1
65 258 1
65 262 1
65 263 1
65 264 1
65 265 1
65 267 1
65 269 1
65 271 1
65 278 1
65 279 1
65 281 1
65 284 1
65 290 1
65 291 1
65 292 1
65 293 1
65 297 1
65 298 1
65 300 1
65 301 1
65 303 1
65 308 1
65 310 1
65 314 1
65 315 1
65 316 1
65 317 1
65 318 1
65 320 1
65 322 1
65 324 1
65 326 1
65 327 1
65 328 1
65 329 1
65 332 1
65 346 1
65 348 1
65 351 1
65 352 1
65 353 1
65 356 1
65 357 1
65 358 1
65 360 1
65 363 1
65 365 1
65 367 1
65 369 1
65 374 1
65 376 1
65 380 1
65 382 1
65 386 1
65 388 1
65 390 1
65 391 1
65 392 1
65 399 1
66 1 1
66 10 1
66 14 1
66 15 1
66 16 1
66 19 1
66 20 1
66 21 1
66 22 1
66 23 1
66 25 1
66 28 1
66 30 1
66 32 1
66 33 1
66 34 1
66 35 1
66 39 1
66 46 1
66 47 1
66 49 1
66 50 1
66 54 1
66 55 1
66 56 1
66 58 1
66 59 1
66 76 1
66 78 1
66 80 1
66 81 1
66 84 1
66 85 1
66 87 1
66 105 1
66 107 1
66 108 1
66 109 1
66 111 1
66 112 1
66 113 1
66 114 1
66 116 1
66 118 1
66 119 1
66 120 1
66 121 1
66 126 1
66 129 1
66 132 1
66 133 1
66 134 1
66 136 1
66 139 1
66 143 1
66 146 1
66 151 1
66 157 1
66 159 1
66 160 1
66 162 1
66 164 1
66 167 1
66 168 1
66 175 1
66 177 1
66 178 1
66 179 1
66 180 1
66 183 1
66 185 1
66 189 1
66 191 1
66 193 1
66 194 1
66 201 1
66 202 1
66 203 1
66 205 1
66 207 1
66 210 1
66 216 1
66 226 1
66 234 1
66 236 1
66 242 1
66 243 1
66 246 1
66 250 1
66 251 1
66 258 1
66 261 1
66 264 1
66 265 1
66 266 1
66 268 1
66 272 1
66 273 1
66 274 1
66 275 1
66 279 1
66 282 1
66 283 1
66 284 1
66 292 1
66 299 1
66 304 1
66 306 1
66 310 1
66 312 1
66 313 1
66 314 1
66 316 1
66 317 1
66 318 1
66 319 1
66 320 1
66 322 1
66 324 1
66 325 1
66 326 1
66 327 1
66 328 1
66 330 1
66 333 1
66 334 1
66 336 1
66 341 1
66 354 1
66 358 1
66 362 1
66 363 1
66 366 1
66 371 1
66 373 1
66 374 1
66 375 1
66 376 1
66 379 1
66 380 1
66 382 1
66 386 1
66 388 1
66 392 1
66 393 1
66 394 1
66 396 1
66 398 1
66 400 1
67 4 1
67 11 1
67 13 1
67 14 1
67 15 1
67 18 1
67 19 1
67 20 1
67 22 1
67 30 1
67 34 1
67 35 1
67 36 1
67 37 1
67 38 1
67 46 1
67 50 1
67 51 1
67 52 1
67 53 1
67 54 1
67 57 1
67 59 1
67 64 1
67 72 1
67 78 1
67 80 1
67 84 1
67 86 1
67 88 1
67 90 1
67 92 1
67 100 1
67 102 1
67 105 1
67 106 1
67 110 1
67 111 1
67 112 1
67 114 1
67 117 1
67 122 1
67 123 1
67 126 1
67 127 1
67 132 1
67 135 1
67 143 1
67 145 1
67 148 1
67 150 1
67 159 1
67 161 1
67 164 1
67 169 1
67 172 1
67 176 1
67 180 1
67 181 1
67 182 1
67 185 1
67 189 1
67 190 1
67 192 1
67 193 1
67 195 1
67 203 1
67 207 1
67 209 1
67 210 1
67 212 1
67 213 1
67 215 1
67 216 1
67 218 1
67 221 1
67 222 1
67 225 1
67 226 1
67 228 1
67 230 1
67 231 1
67 232 1
67 233 1
67 235 1
67 236 1
67 238 1
67 243 1
67 245 1
67 247 1
67 250 1
67 252 1
67 254 1
67 255 1
67 260 1
67 261 1
67 262 1
67 265 1
67 266 1
67 270 1
67 271 1
67 274 1
67 280 1
67 283 1
67 284 1
67 285 1
67 286 1
67 287 1
67 288 1
67 292 1
67 295 1
67 296 1
67 300 1
67 302 1
67 307 1
67 310 1
67 314 1
67 318 1
67 319 1
67 320 1
67 322 1
67 323 1
67 327 1
67 329 1
67 331 1
67 335 1
67 336 1
67 338 1
67 340 1
67 342 1
67 343 1
67 344 1
67 347 1
67 348 1
67 349 1
67 352 1
67 353 1
67 354 1
67 356 1
67 357 1
67 360 1
67 362 1
67 364 1
67 367 1
67 370 1
67 371 1
67 374 1
67 375 1
67 377 1
67 379 1
67 380 1
67 382 1
67 389 1
67 390 1
67 393 1
67 394 1
67 395 1
67 396 1
67 397 1
68 1 1
68 4 1
68 6 1
68 7 1
68 9 1
68 11 1
68 12 1
68 13 1
68 14 1
68 17 1
68 21 1
68 24 1
68 25 1
68 27 1
68 33 1
68 36 1
68 37 1
68 38 1
68 40 1
68 42 1
68 43 1
68 48 1
68 50 1
68 52 1
68 54 1
68 55 1
68 56 1
68 59 1
68 62 1
68 63 1
68 69 1
68 70 1
68 78 1
68 80 1
68 85 1
68 86 1
68 90 1
68 91 1
68 100 1
68 101 1
68 103 1
68 110 1
68 111 1
68 113 1
68 116 1
68 126 1
68 129 1
68 131 1
68 132 1
68 135 1
68 137 1
68 142 1
68 143 1
68 147 1
68 150 1
68 151 1
68 155 1
68 156 1
68 160 1
68 161 1
68 164 1
68 165 1
68 169 1
68 170 1
68 171 1
68 173 1
68 174 1
68 178 1
68 180 1
68 182 1
68 184 1
68 186 1
68 197 1
68 202 1
68 206 1
68 211 1
68 212 1
68 213 1
68 215 1
68 216 1
68 218 1
68 220 1
68 229 1
68 233 1
68 234 1
68 236 1
68 241 1
68 245 1
68 250 1
68 251 1
68 259 1
68 264 1
68 265 1
68 266 1
68 274 1
68 277 1
68 280 1
68 285 1
68 286 1
68 288 1
68 292 1
68 294 1
68 295 1
68 298 1
68 299 1
68 300 1
68 301 1
68 302 1
68 303 1
68 304 1
68 305 1
68 306 1
68 310 1
68 312 1
68 314 1
68 316 1
68 317 1
68 319 1
68 320 1
68 324 1
68 325 1
68 329 1
68 330 1
68 332 1
68 333 1
68 336 1
68 337 1
68 338 1
68 340 1
68 345 1
68 350 1
68 353 1
68 359 1
68 362 1
68 363 1
68 368 1
68 369 1
68 374 1
68 376 1
68 378 1
68 379 1
68 380 1
68 381 1
68 382 1
68 383 1
68 385 1
68 389 1
68 394 1
68 397 1
68 400 1
69 5 1
69 10 1
69 12 1
69 13 1
69 16 1
69 17 1
69 18 1
69 19 1
69 21 1
69 24 1
69 26 1
69 27 1
69 29 1
69 35 1
69 37 1
69 41 1
69 46 1
69 47 1
69 49 1
69 50 1
69 51 1
69 54 1
69 57 1
69 58 1
69 59 1
69 60 1
69 61 1
69 68 1
69 70 1
69 71 1
69 73 1
69 74 1
69 76 1
69 78 1
69 81 1
69 82 1
69 84 1
69 90 1
69 97 1
69 109 1
69 110 1
69 112 1
69 113 1
69 114 1
69 117 1
69 121 1
69 122 1
69 126 1
69 127 1
69 130 1
69 132 1
69 133 1
69 134 1
69 137 1
69 140 1
69 144 1
69 146 1
69 147 1
69 148 1
69 149 1
69 150 1
69 151 1
69 153 1
69 155 1
69 156 1
69 160 1
69 167 1
69 170 1
69 172 1
69 173 1
69 177 1
69 178 1
69 187 1
69 190 1
69 193 1
69 198 1
69 201 1
69 210 1
69 215 1
69 216 1
69 220 1
69 221 1
69 223 1
69 225 1
69 226 1
69 241 1
69 242 1
69 248 1
69 249 1
69 250 1
69 251 1
69 254 1
69 256 1
69 259 1
69 260 1
69 264 1
69 266 1
69 267 1
69 268 1
69 270 1
69 274 1
69 280 1
69 281 1
69 282 1
69 286 1
69 287 1
69 291 1
69 293 1
69 306 1
69 307 1
69 308 1
69 309 1
69 314 1
69 315 1
69 317 1
69 318 1
69 320 1
69 322 1
69 324 1
69 325 1
69 329 1
69 331 1
69 333 1
69 335 1
69 338 1
69 339 1
69 341 1
69 342 1
69 344 1
69 345 1
69 347 1
69 352 1
69 357 1
69 358 1
69 363 1
69 365 1
69 368 1
69 369 1
69 372 1
69 373 1
69 374 1
69 375 1
69 376 1
69 381 1
69 382 1
69 384 1
69 386 1
69 390 1
69 391 1
69 397 1
70 1 1
70 5 1
70 7 1
70 8 1
70 10 1
70 13 1
70 14 1
70 20 1
70 21 1
70 22 1
70 26 1
70 29 1
70 30 1
70 32 1
70 34 1
70 35 1
70 38 1
70 41 1
70 42 1
70 44 1
70 45 1
70 46 1
70 48 1
70 50 1
70 52 1
70 53 1
70 54 1
70 55 1
70 56 1
70 60 1
70 61 1
70 63 1
70 68 1
70 69 1
70 73 1
70 74 1
70 77 1
70 78 1
70 79 1
70 80 1
70 83 1
70 85 1
70 86 1
70 88 1
70 92 1
70 94 1
70 95 1
70 96 1
70 99 1
70 101 1
70 110 1
70 111 1
70 112 1
70 114 1
70 117 1
70 118 1
70 122 1
70 125 1
70 126 1
70 131 1
70 132 1
70 134 1
70 135 1
70 139 1
70 142 1
70 146 1
70 148 1
70 149 1
70 151 1
70 152 1
70 153 1
70 157 1
70 158 1
70 159 1
70 160 1
70 161 1
70 163 1
70 164 1
70 167 1
70 168 1
70 171 1
70 175 1
70 177 1
70 179 1
70 181 1
70 183 1
70 187 1
70 189 1
70 191 1
70 195 1
70 196 1
70 198 1
70 200 1
70 201 1
70 206 1
70 207 1
70 208 1
70 214 1
70 216 1
70 218 1
70 219 1
70 220 1
70 221 1
70 223 1
70 224 1
70 226 1
70 227 1
70 229 1
70 231 1
70 233 1
70 235 1
70 236 1
70 239 1
70 241 1
70 242 1
70 246 1
70 249 1
70 250 1
70 254 1
70 255 1
70 258 1
70 259 1
70 262 1
70 264 1
70 265 1
70 268 1
70 270 1
70 278 1
70 280 1
70 281 1
70 282 1
70 283 1
70 284 1
70 290 1
70 292 1
70 295 1
70 298 1
70 302 1
70 303 1
70 304 1
70 306 1
70 309 1
70 314 1
70 315 1
70 317 1
70 318 1
70 320 1
70 321 1
70 326 1
70 331 1
70 334 1
70 340 1
70 341 1
70 345 1
70 348 1
70 356 1
70 358 1
70 359 1
70 360 1
70 363 1
70 366 1
70 368 1
70 371 1
70 374 1
70 376 1
70 378 1
70 379 1
70 380 1
70 381 1
70 383 1
70 385 1
70 386 1
70 390 1
70 393 1
70 397 1
70 398 1
70 399 1
70 400 1
71 2 1
71 3 1
71 5 1
71 6 1
71 16 1
71 19 1
71 21 1
71 23 1
71 24 1
71 25 1
71 26 1
71 27 1
71 28 1
71 31 1
71 35 1
71 36 1
71 37 1
71 38 1
71 39 1
71 41 1
71 43 1
71 44 1
71 47 1
71 50 1
71 56 1
71 57 1
71 58 1
71 62 1
71 63 1
71 64 1
71 69 1
71 72 1
71 73 1
71 74 1
71 75 1
71 77 1
71 79 1
71 81 1
71 82 1
71 85 1
71 87 1
71 89 1
71 90 1
71 91 1
71 92 1
71 94 1
71 99 1
71 100 1
71 103 1
71 108 1
71 111 1
71 113 1
71 115 1
71 117 1
71 120 1
71 126 1
71 130 1
71 131 1
71 133 1
71 134 1
71 137 1
71 138 1
71 143 1
71 146 1
71 148 1
71 149 1
71 154 1
71 155 1
71 158 1
71 159 1
71 160 1
71 161 1
71 168 1
71 169 1
71 170 1
71 172 1
71 173 1
71 174 1
71 180 1
71 182 1
71 183 1
71 186 1
71 188 1
71 190 1
71 191 1
71 193 1
71 196 1
71 197 1
71 202 1
71 203 1
71 204 1
71 207 1
71 208 1
71 211 1
71 213 1
71 214 1
71 215 1
71 218 1
71 220 1
71 221 1
71 224 1
71 225 1
71 229 1
71 230 1
71 233 1
71 234 1
71 239 1
71 241 1
71 244 1
71 251 1
71 253 1
71 256 1
71 257 1
71 258 1
71 259 1
71 260 1
71 261 1
71 263 1
71 266 1
71 267 1
71 269 1
71 270 1
71 272 1
71 273 1
71 277 1
71 278 1
71 281 1
71 289 1
71 290 1
71 295 1
71 300 1
71 301 1
71 302 1
71 303 1
71 304 1
71 306 1
71 307 1
71 308 1
71 313 1
71 315 1
71 317 1
71 319 1
71 320 1
71 321 1
71 323 1
71 325 1
71 326 1
71 329 1
71 331 1
71 339 1
71 340 1
71 344 1
71 347 1
71 351 1
71 356 1
71 360 1
71 361 1
71 362 1
71 364 1
71 366 1
71 368 1
71 371 1
71 373 1
71 376 1
71 383 1
71 388 1
71 395 1
71 396 1
71 399 1
72 1 1
72 3 1
72 4 1
72 6 1
72 7 1
72 8 1
72 9 1
72 11 1
72 14 1
72 15 1
72 16 1
72 24 1
72 28 1
72 29 1
72 30 1
72 31 1
72 33 1
72 38 1
72 39 1
72 40 1
72 41 1
72 43 1
72 49 1
72 51 1
72 52 1
72 53 1
72 55 1
72 61 1
72 62 1
72 63 1
72 65 1
72 67 1
72 71 1
72 73 1
72 75 1
72 76 1
72 79 1
72 80 1
72 82 1
72 84 1
72 89 1
72 94 1
72 102 1
72 104 1
72 105 1
72 106 1
72 109 1
72 111 1
72 113 1
72 114 1
72 115 1
72 118 1
72 121 1
72 122 1
72 126 1
72 128 1
72 129 1
72 130 1
72 132 1
72 134 1
72 135 1
72 136 1
72 137 1
72 139 1
72 142 1
72 144 1
72 145 1
72 146 1
72 147 1
72 148 1
72 149 1
72 150 1
72 154 1
72 157 1
72 167 1
72 168 1
72 169 1
72 170 1
72 172 1
72 174 1
72 176 1
72 177 1
72 183 1
72 185 1
72 186 1
72 188 1
72 189 1
72 191 1
72 192 1
72 194 1
72 195 1
72 196 1
72 198 1
72 199 1
72 201 1
72 203 1
72 204 1
72 207 1
72 209 1
72 217 1
72 219 1
72 220 1
72 225 1
72 226 1
72 229 1
72 230 1
72 231 1
72 235 1
72 237 1
72 238 1
72 245 1
72 247 1
72 253 1
72 257 1
72 265 1
72 266 1
72 270 1
72 272 1
72 273 1
72 275 1
72 278 1
72 282 1
72 284 1
72 285 1
72 287 1
72 288 1
72 289 1
72 290 1
72 292 1
72 293 1
72 296 1
72 298 1
72 299 1
72 301 1
72 305 1
72 308 1
72 311 1
72 314 1
72 316 1
72 317 1
72 320 1
72 321 1
72 322 1
72 327 1
72 328 1
72 329 1
72 330 1
72 331 1
72 333 1
72 335 1
72 336 1
72 337 1
72 339 1
72 343 1
72 348 1
72 349 1
72 351 1
72 353 1
72 355 1
72 356 1
72 358 1
72 360 1
72 361 1
72 363 1
72 364 1
72 368 1
72 369 1
72 370 1
72 376 1
72 379 1
72 383 1
72 384 1
72 388 1
72 390 1
72 391 1
72 392 1
72 393 1
73 1 1
73 3 1
73 4 1
73 7 1
73 8 1
73 10 1
73 11 1
73 13 1
73 16 1
73 22 1
73 23 1
73 24 1
73 27 1
73 28 1
73 29 1
73 33 1
73 41 1
73 46 1
73 47 1
73 51 1
73 55 1
73 57 1
73 58 1
73 59 1
73 60 1
73 62 1
73 64 1
73 69 1
73 70 1
73 71 1
73 72 1
73 76 1
73 77 1
73 78 1
73 79 1
73 80 1
73 81 1
73 85 1
73 86 1
73 87 1
73 89 1
73 91 1
73 97 1
73 101 1
73 103 1
73 104 1
73 107 1
73 112 1
73 114 1
73 117 1
73 118 1
73 119 1
73 120 1
73 121 1
73 126 1
73 129 1
73 130 1
73 131 1
73 133 1
73 134 1
73 137 1
73 140 1
73 142 1
73 145 1
73 146 1
73 147 1
73 150 1
73 152 1
73 155 1
73 158 1
73 161 1
73 162 1
73 166 1
73 167 1
73 168 1
73 173 1
73 176 1
73 177 1
73 183 1
73 185 1
73 191 1
73 193 1
73 199 1
73 201 1
73 203 1
73 205 1
73 207 1
73 208 1
73 212 1
73 213 1
73 216 1
73 220 1
73 221 1
73 224 1
73 226 1
73 227 1
73 229 1
73 233 1
73 234 1
73 242 1
73 243 1
73 248 1
73 249 1
73 252 1
73 253 1
73 255 1
73 256 1
73 260 1
73 261 1
73 264 1
73 265 1
73 266 1
73 267 1
73 272 1
73 274 1
73 275 1
73 276 1
73 278 1
73 281 1
73 284 1
73 288 1
73 290 1
73 291 1
73 295 1
73 297 1
73 300 1
73 301 1
73 302 1
73 303 1
73 310 1
73 312 1
73 313 1
73 316 1
73 317 1
73 321 1
73 322 1
73 323 1
73 331 1
73 334 1
73 336 1
73 338 1
73 340 1
73 343 1
73 346 1
73 347 1
73 348 1
73 349 1
73 350 1
73 357 1
73 359 1
73 364 1
73 367 1
73 368 1
73 370 1
73 371 1
73 372 1
73 376 1
73 379 1
73 381 1
73 383 1
73 386 1
73 387 1
73 393 1
73 394 1
73 396 1
73 398 1
73 399 1
74 6 1
74 7 1
74 8 1
74 9 1
74 10 1
74 11 1
74 14 1
74 16 1
74 19 1
74 20 1
74 29 1
74 33 1
74 37 1
74 38 1
74 40 1
74 42 1
74 47 1
74 49 1
74 50 1
74 52 1
74 56 1
74 57 1
74 60 1
74 69 1
74 70 1
74 71 1
74 76 1
74 77 1
74 82 1
74 83 1
74 84 1
74 86 1
74 89 1
74 91 1
74 92 1
74 94 1
74 96 1
74 97 1
74 102 1
74 103 1
74 107 1
74 114 1
74 118 1
74 120 1
74 121 1
74 122 1
74 123 1
74 125 1
74 131 1
74 132 1
74 134 1
74 135 1
74 136 1
74 137 1
74 138 1
74 142 1
74 145 1
74 146 1
74 148 1
74 151 1
74 152 1
74 153 1
74 155 1
74 156 1
74 160 1
74 166 1
74 167 1
74 168 1
74 169 1
74 170 1
74 172 1
74 177 1
74 178 1
74 184 1
74 187 1
74 191 1
74 192 1
74 193 1
74 196 1
74 199 1
74 202 1
74 203 1
74 209 1
74 214 1
74 218 1
74 219 1
74 224 1
74 228 1
74 233 1
74 237 1
74 238 1
74 239 1
74 240 1
74 244 1
74 247 1
74 253 1
74 257 1
74 259 1
74 260 1
74 262 1
74 269 1
74 270 1
74 271 1
74 274 1
74 275 1
74 279 1
74 282 1
74 283 1
74 295 1
74 297 1
74 299 1
74 303 1
74 304 1
74 306 1
74 308 1
74 311 1
74 316 1
74 323 1
74 324 1
74 325 1
74 328 1
74 329 1
74 331 1
74 333 1
74 335 1
74 339 1
74 341 1
74 342 1
74 344 1
74 347 1
74 351 1
74 353 1
74 356 1
74 361 1
74 368 1
74 369 1
74 374 1
74 379 1
74 380 1
74 381 1
74 384 1
74 385 1
74 386 1
74 387 1
74 388 1
74 390 1
74 392 1
74 393 1
74 397 1
74 398 1
74 400 1
75 2 1
75 3 1
75 4 1
75 6 1
75 7 1
75 9 1
75 10 1
75 11 1
75 17 1
75 19 1
75 26 1
75 31 1
75 35 1
75 36 1
75 37 1
75 38 1
75 39 1
75 41 1
75 43 1
75 45 1
75 46 1
75 49 1
75 51 1
75 53 1
75 56 1
75 59 1
75 60 1
75 61 1
75 63 1
75 64 1
75 65 1
75 71 1
75 72 1
75 77 1
75 80 1
75 83 1
75 84 1
75 86 1
75 87 1
75 88 1
75 92 1
75 93 1
75 96 1
75 97 1
75 99 1
75 100 1
75 101 1
75 103 1
75 105 1
75 106 1
75 108 1
75 109 1
75 110 1
75 111 1
75 114 1
75 116 1
75 117 1
75 120 1
75 121 1
75 122 1
75 124 1
75 126 1
75 128 1
75 129 1
75 138 1
75 141 1
75 142 1
75 143 1
75 144 1
75 146 1
75 149 1
75 151 1
75 152 1
75 160 1
75 162 1
75 163 1
75 164 1
75 165 1
75 167 1
75 173 1
75 177 1
75 179 1
75 183 1
75 184 1
75 185 1
75 189 1
75 190 1
75 192 1
75 193 1
75 194 1
75 195 1
75 196 1
75 198 1
75 199 1
75 201 1
75 202 1
75 203 1
75 205 1
75 206 1
75 207 1
75 208 1
75 211 1
75 212 1
75 213 1
75 217 1
75 220 1
75 221 1
75 226 1
75 230 1
75 231 1
75 232 1
75 233 1
75 236 1
75 237 1
75 239 1
75 242 1
75 243 1
75 248 1
75 250 1
75 252 1
75 253 1
75 255 1
75 258 1
75 261 1
75 262 1
75 266 1
75 269 1
75 271 1
75 274 1
75 275 1
75 277 1
75 287 1
75 289 1
75 291 1
75 292 1
75 294 1
75 295 1
75 298 1
75 299 1
75 306 1
75 309 1
75 310 1
75 313 1
75 316 1
75 317 1
75 321 1
75 328 1
75 330 1
75 332 1
75 335 1
75 338 1
75 341 1
75 342 1
75 346 1
75 347 1
75 349 1
75 351 1
75 356 1
75 357 1
75 359 1
75 360 1
75 362 1
75 367 1
75 375 1
75 376 1
75 377 1
75 378 1
75 379 1
75 382 1
75 386 1
75 390 1
75 392 1
75 395 1
75 396 1
75 398 1
76 4 1
76 9 1
76 10 1
76 11 1
76 12 1
76 13 1
76 16 1
76 18 1
76 19 1
76 27 1
76 28 1
76 29 1
76 32 1
76 34 1
76 35 1
76 36 1
76 39 1
76 41 1
76 44 1
76 45 1
76 47 1
76 48 1
76 49 1
76 50 1
76 54 1
76 55 1
76 60 1
76 61 1
76 62 1
76 64 1
76 66 1
76 69 1
76 72 1
76 73 1
76 74 1
76 77 1
76 80 1
76 82 1
76 84 1
76 85 1
76 87 1
76 89 1
76 90 1
76 93 1
76 98 1
76 99 1
76 100 1
76 102 1
76 103 1
76 105 1
76 109 1
76 110 1
76 112 1
76 117 1
76 118 1
76 120 1
76 126 1
76 128 1
76 134 1
76 138 1
76 139 1
76 143 1
76 146 1
76 147 1
76 149 1
76 151 1
76 154 1
76 158 1
76 160 1
76 162 1
76 163 1
76 168 1
76 171 1
76 172 1
76 175 1
76 178 1
76 180 1
76 182 1
76 183 1
76 184 1
76 185 1
76 187 1
76 188 1
76 189 1
76 193 1
76 199 1
76 201 1
76 205 1
76 206 1
76 208 1
76 209 1
76 210 1
76 211 1
76 216 1
76 221 1
76 226 1
76 227 1
76 229 1
76 230 1
76 231 1
76 233 1
76 237 1
76 242 1
76 243 1
76 246 1
76 247 1
76 249 1
76 250 1
76 251 1
76 253 1
76 256 1
76 258 1
76 259 1
76 260 1
76 262 1
76 274 1
76 276 1
76 277 1
76 284 1
76 285 1
76 291 1
76 293 1
76 298 1
76 301 1
76 304 1
76 306 1
76 307 1
76 312 1
76 316 1
76 318 1
76 321 1
76 322 1
76 324 1
76 331 1
76 338 1
76 340 1
76 342 1
76 346 1
76 349 1
76 350 1
76 351 1
76 353 1
76 355 1
76 356 1
76 357 1
76 358 1
76 359 1
76 360 1
76 361 1
76 364 1
76 367 1
76 368 1
76 376 1
76 377 1
76 380 1
76 381 1
76 387 1
76 388 1
76 389 1
76 391 1
76 393 1
76 400 1
77 2 1
77 3 1
77 5 1
77 9 1
77 11 1
77 12 1
77 15 1
77 20 1
77 22 1
77 26 1
77 28 1
77 29 1
77 31 1
77 34 1
77 41 1
77 42 1
77 50 1
77 51 1
77 53 1
77 56 1
77 57 1
77 62 1
77 70 1
77 71 1
77 73 1
77 74 1
77 75 1
77 76 1
77 82 1
77 85 1
77 91 1
77 94 1
77 95 1
77 96 1
77 107 1
77 109 1
77 111 1
77 114 1
77 116 1
77 120 1
77 125 1
77 128 1
77 136 1
77 139 1
77 140 1
77 141 1
77 145 1
77 153 1
77 157 1
77 159 1
77 160 1
77 161 1
77 163 1
77 164 1
77 168 1
77 169 1
77 170 1
77 173 1
77 174 1
77 175 1
77 176 1
77 180 1
77 182 1
77 184 1
77 185 1
77 186 1
77 188 1
77 193 1
77 196 1
77 200 1
77 202 1
77 203 1
77 206 1
77 209 1
77 210 1
77 214 1
77 215 1
77 217 1
77 218 1
77 219 1
77 224 1
77 225 1
77 227 1
77 228 1
77 230 1
77 233 1
77 234 1
77 236 1
77 237 1
77 240 1
77 242 1
77 245 1
77 247 1
77 248 1
77 257 1
77 260 1
77 261 1
77 264 1
77 270 1
77 271 1
77 272 1
77 274 1
77 277 1
77 278 1
77 279 1
77 283 1
77 291 1
77 294 1
77 298 1
77 299 1
77 302 1
77 303 1
77 307 1
77 308 1
77 311 1
77 314 1
77 319 1
77 327 1
77 328 1
77 330 1
77 331 1
77 332 1
77 340 1
77 341 1
77 345 1
77 348 1
77 349 1
77 350 1
77 352 1
77 354 1
77 355 1
77 356 1
77 357 1
77 359 1
77 360 1
77 362 1
77 363 1
77 365 1
77 367 1
77 370 1
77 373 1
77 375 1
77 376 1
77 377 1
77 378 1
77 387 1
77 388 1
77 389 1
77 390 1
77 392 1
77 394 1
77 395 1
77 396 1
77 397 1
78 5 1
78 6 1
78 9 1
78 10 1
78 11 1
78 12 1
78 14 1
78 17 1
78 18 1
78 19 1
78 21 1
78 22 1
78 23 1
78 27 1
78 28 1
78 30 1
78 33 1
78 35 1
78 38 1
78 39 1
78 40 1
78 41 1
78 43 1
78 44 1
78 47 1
78 54 1
78 57 1
78 61 1
78 62 1
78 63 1
78 66 1
78 67 1
78 68 1
78 69 1
78 70 1
78 73 1
78 83 1
78 84 1
78 85 1
78 86 1
78 89 1
78 93 1
78 94 1
78 96 1
78 98 1
78 99 1
78 100 1
78 102 1
78 105 1
78 107 1
78 108 1
78 109 1
78 111 1
78 114 1
78 115 1
78 116 1
78 118 1
78 121 1
78 123 1
78 125 1
78 127 1
78 129 1
78 130 1
78 131 1
78 132 1
78 133 1
78 136 1
78 137 1
78 142 1
78 143 1
78 144 1
78 147 1
78 149 1
78 151 1
78 156 1
78 157 1
78 161 1
78 163 1
78 165 1
78 166 1
78 172 1
78 175 1
78 176 1
78 180 1
78 184 1
78 190 1
78 192 1
78 194 1
78 197 1
78 200 1
78 204 1
78 205 1
78 213 1
78 214 1
78 215 1
78 217 1
78 219 1
78 224 1
78 225 1
78 227 1
78 228 1
78 229 1
78 230 1
78 231 1
78 232 1
78 234 1
78 240 1
78 241 1
78 244 1
78 246 1
78 248 1
78 250 1
78 251 1
78 252 1
78 253 1
78 256 1
78 257 1
78 258 1
78 259 1
78 261 1
78 266 1
78 267 1
78 268 1
78 269 1
78 274 1
78 279 1
78 280 1
78 284 1
78 285 1
78 289 1
78 291 1
78 295 1
78 297 1
78 298 1
78 299 1
78 302 1
78 304 1
78 307 1
78 313 1
78 315 1
78 318 1
78 321 1
78 325 1
78 327 1
78 329 1
78 330 1
78 340 1
78 341 1
78 343 1
78 347 1
78 350 1
78 351 1
78 356 1
78 357 1
78 358 1
78 360 1
78 363 1
78 370 1
78 371 1
78 372 1
78 373 1
78 375 1
78 377 1
78 380 1
78 381 1
78 382 1
78 383 1
78 384 1
78 389 1
78 391 1
78 393 1
78 395 1
78 397 1
78 398 1
78 399 1
78 400 1
79 2 1
79 3 1
79 4 1
79 7 1
79 9 1
79 10 1
79 11 1
79 14 1
79 15 1
79 16 1
79 17 1
79 18 1
79 25 1
79 33 1
79 34 1
79 35 1
79 37 1
79 38 1
79 39 1
79 40 1
79 46 1
79 49 1
79 51 1
79 52 1
79 54 1
79 57 1
79 59 1
79 60 1
79 61 1
79 65 1
79 70 1
79 71 1
79 72 1
79 73 1
79 80 1
79 81 1
79 82 1
79 84 1
79 88 1
79 91 1
79 94 1
79 98 1
79 99 1
79 101 1
79 103 1
79 104 1
79 107 1
79 109 1
79 110 1
79 113 1
79 114 1
79 115 1
79 117 1
79 121 1
79 123 1
79 124 1
79 126 1
79 127 1
79 128 1
79 129 1
79 130 1
79 131 1
79 135 1
79 137 1
79 142 1
79 144 1
79 145 1
79 154 1
79 159 1
79 162 1
79 163 1
79 164 1
79 165 1
79 166 1
79 169 1
79 170 1
79 171 1
79 177 1
79 178 1
79 179 1
79 183 1
79 184 1
79 185 1
79 189 1
79 191 1
79 192 1
79 193 1
79 196 1
79 197 1
79 202 1
79 203 1
79 205 1
79 206 1
79 207 1
79 208 1
79 211 1
79 214 1
79 216 1
79 217 1
79 222 1
79 224 1
79 227 1
79 229 1
79 231 1
79 236 1
79 237 1
79 240 1
79 242 1
79 243 1
79 244 1
79 246 1
79 249 1
79 252 1
79 260 1
79 269 1
79 273 1
79 274 1
79 276 1
79 279 1
79 280 1
79 281 1
79 282 1
79 286 1
79 288 1
79 289 1
79 292 1
79 293 1
79 294 1
79 297 1
79 300 1
79 303 1
79 304 1
79 305 1
79 306 1
79 307 1
79 308 1
79 309 1
79 312 1
79 313 1
79 315 1
79 318 1
79 319 1
79 320 1
79 322 1
79 329 1
79 330 1
79 331 1
79 332 1
79 335 1
79 337 1
79 339 1
79 340 1
79 342 1
79 343 1
79 344 1
79 348 1
79 350 1
79 355 1
79 356 1
79 360 1
79 362 1
79 364 1
79 366 1
79 371 1
79 374 1
79 376 1
79 377 1
79 378 1
79 380 1
79 384 1
79 387 1
79 389 1
79 394 1
79 396 1
80 1 1
80 4 1
80 5 1
80 10 1
80 14 1
80 15 1
80 17 1
80 18 1
80 19 1
80 21 1
80 23 1
80 25 1
80 26 1
80 27 1
80 28 1
80 29 1
80 30 1
80 34 1
80 35 1
80 37 1
80 39 1
80 42 1
80 45 1
80 46 1
80 47 1
80 48 1
80 52 1
80 53 1
80 54 1
80 61 1
80 66 1
80 67 1
80 68 1
80 70 1
80 72 1
80 73 1
80 75 1
80 76 1
80 79 1
80 81 1
80 82 1
80 83 1
80 84 1
80 85 1
80 91 1
80 95 1
80 97 1
80 101 1
80 103 1
80 104 1
80 106 1
80 110 1
80 113 1
80 114 1
80 116 1
80 118 1
80 121 1
80 124 1
80 128 1
80 129 1
80 137 1
80 138 1
80 139 1
80 140 1
80 150 1
80 156 1
80 159 1
80 163 1
80 166 1
80 168 1
80 174 1
80 175 1
80 176 1
80 178 1
80 179 1
80 184 1
80 185 1
80 186 1
80 187 1
80 189 1
80 190 1
80 191 1
80 192 1
80 193 1
80 194 1
80 197 1
80 198 1
80 199 1
80 200 1
80 201 1
80 202 1
80 204 1
80 209 1
80 211 1
80 217 1
80 221 1
80 222 1
80 227 1
80 228 1
80 230 1
80 233 1
80 235 1
80 238 1
80 243 1
80 244 1
80 248 1
80 253 1
80 257 1
80 260 1
80 262 1
80 264 1
80 266 1
80 267 1
80 269 1
80 271 1
80 277 1
80 278 1
80 280 1
80 282 1
80 286 1
80 287 1
80 297 1
80 299 1
80 301 1
80 305 1
80 306 1
80 309 1
80 314 1
80 316 1
80 318 1
80 320 1
80 322 1
80 326 1
80 328 1
80 329 1
80 330 1
80 331 1
80 336 1
80 339 1
80 340 1
80 344 1
80 352 1
80 354 1
80 358 1
80 360 1
80 362 1
80 363 1
80 367 1
80 368 1
80 369 1
80 370 1
80 371 1
80 373 1
80 375 1
80 384 1
80 385 1
80 386 1
80 388 1
80 389 1
80 394 1
80 397 1
81 1 1
81 2 1
81 4 1
81 5 1
81 12 1
81 13 1
81 14 1
81 16 1
81 18 1
81 24 1
81 32 1
81 34 1
81 35 1
81 36 1
81 37 1
81 38 1
81 42 1
81 43 1
81 46 1
81 47 1
81 50 1
81 51 1
81 63 1
81 66 1
81 69 1
81 71 1
81 73 1
81 79 1
81 80 1
81 82 1
81 85 1
81 86 1
81 96 1
81 98 1
81 99 1
81 100 1
81 102 1
81 107 1
81 108 1
81 116 1
81 117 1
81 119 1
81 120 1
81 121 1
81 122 1
81 123 1
81 125 1
81 129 1
81 136 1
81 137 1
81 139 1
81 141 1
81 146 1
81 147 1
81 152 1
81 154 1
81 157 1
81 158 1
81 159 1
81 160 1
81 161 1
81 164 1
81 166 1
81 167 1
81 169 1
81 170 1
81 173 1
81 175 1
81 177 1
81 178 1
81 180 1
81 181 1
81 184 1
81 186 1
81 187 1
81 188 1
81 192 1
81 193 1
81 194 1
81 196 1
81 197 1
81 198 1
81 200 1
81 205 1
81 206 1
81 207 1
81 209 1
81 210 1
81 213 1
81 219 1
81 220 1
81 222 1
81 223 1
81 224 1
81 226 1
81 228 1
81 229 1
81 234 1
81 236 1
81 237 1
81 243 1
81 245 1
81 246 1
81 252 1
81 258 1
81 259 1
81 262 1
81 266 1
81 267 1
81 271 1
81 272 1
81 273 1
81 284 1
81 288 1
81 290 1
81 292 1
81 293 1
81 294 1
81 299 1
81 300 1
81 301 1
81 305 1
81 307 1
81 310 1
81 313 1
81 317 1
81 318 1
81 321 1
81 323 1
81 324 1
81 329 1
81 330 1
81 331 1
81 332 1
81 333 1
81 338 1
81 339 1
81 342 1
81 346 1
81 348 1
81 351 1
81 353 1
81 357 1
81 358 1
81 359 1
81 360 1
81 362 1
81 363 1
81 369 1
81 370 1
81 372 1
81 374 1
81 375 1
81 382 1
81 385 1
81 386 1
81 388 1
81 389 1
81 392 1
81 393 1
81 396 1
81 397 1
81 398 1
82 1 1
82 2 1
82 4 1
82 5 1
82 6 1
82 8 1
82 11 1
82 17 1
82 28 1
82 29 1
82 30 1
82 31 1
82 32 1
82 36 1
82 39 1
82 42 1
82 43 1
82 47 1
82 49 1
82 52 1
82 55 1
82 57 1
82 59 1
82 60 1
82 65 1
82 69 1
82 71 1
82 72 1
82 74 1
82 76 1
82 77 1
82 79 1
82 80 1
82 81 1
82 85 1
82 88 1
82 89 1
82 90 1
82 93 1
82 98 1
82 100 1
82 101 1
82 108 1
82 117 1
82 118 1
82 124 1
82 126 1
82 132 1
82 134 1
82 135 1
82 140 1
82 141 1
82 144 1
82 145 1
82 152 1
82 154 1
82 155 1
82 157 1
82 164 1
82 165 1
82 167 1
82 169 1
82 173 1
82 175 1
82 176 1
82 177 1
82 184 1
82 190 1
82 192 1
82 193 1
82 194 1
82 196 1
82 197 1
82 198 1
82 199 1
82 201 1
82 202 1
82 204 1
82 206 1
82 209 1
82 213 1
82 214 1
82 216 1
82 223 1
82 224 1
82 228 1
82 230 1
82 231 1
82 232 1
82 244 1
82 245 1
82 250 1
82 251 1
82 253 1
82 256 1
82 257 1
82 258 1
82 260 1
82 263 1
82 264 1
82 267 1
82 269 1
82 270 1
82 272 1
82 276 1
82 277 1
82 278 1
82 279 1
82 281 1
82 282 1
82 285 1
82 293 1
82 294 1
82 295 1
82 297 1
82 298 1
82 301 1
82 302 1
82 303 1
82 308 1
82 313 1
82 315 1
82 316 1
82 317 1
82 318 1
82 319 1
82 321 1
82 324 1
82 328 1
82 329 1
82 332 1
82 334 1
82 335 1
82 338 1
82 342 1
82 343 1
82 346 1
82 347 1
82 348 1
82 352 1
82 354 1
82 358 1
82 359 1
82 360 1
82 361 1
82 366 1
82 367 1
82 370 1
82 371 1
82 377 1
82 378 1
82 380 1
82 381 1
82 384 1
82 385 1
82 388 1
82 389 1
82 390 1
82 393 1
82 394 1
82 396 1
82 397 1
82 399 1
82 400 1
83 1 1
83 2 1
83 3 1
83 5 1
83 7 1
83 9 1
83 13 1
83 15 1
83 17 1
83 21 1
83 24 1
83 30 1
83 31 1
83 37 1
83 38 1
83 39 1
83 41 1
83 42 1
83 50 1
83 52 1
83 53 1
83 62 1
83 64 1
83 70 1
83 74 1
83 75 1
83 78 1
83 80 1
83 90 1
83 93 1
83 94 1
83 95 1
83 98 1
83 99 1
83 102 1
83 104 1
83 106 1
83 107 1
83 109 1
83 111 1
83 112 1
83 114 1
83 115 1
83 126 1
83 129 1
83 131 1
83 132 1
83 134 1
83 136 1
83 139 1
83 141 1
83 143 1
83 147 1
83 149 1
83 152 1
83 153 1
83 154 1
83 155 1
83 157 1
83 158 1
83 159 1
83 161 1
83 164 1
83 165 1
83 167 1
83 172 1
83 174 1
83 175 1
83 182 1
83 184 1
83 185 1
83 186 1
83 188 1
83 190 1
83 192 1
83 193 1
83 194 1
83 195 1
83 202 1
83 205 1
83 207 1
83 208 1
83 209 1
83 210 1
83 214 1
83 225 1
83 227 1
83 229 1
83 231 1
83 235 1
83 236 1
83 241 1
83 242 1
83 246 1
83 247 1
83 249 1
83 250 1
83 251 1
83 254 1
83 257 1
83 258 1
83 259 1
83 260 1
83 262 1
83 263 1
83 264 1
83 266 1
83 269 1
83 271 1
83 272 1
83 275 1
83 278 1
83 281 1
83 285 1
83 291 1
83 295 1
83 297 1
83 299 1
83 300 1
83 301 1
83 302 1
83 303 1
83 304 1
83 306 1
83 311 1
83 313 1
83 318 1
83 319 1
83 323 1
83 325 1
83 326 1
83 327 1
83 328 1
83 330 1
83 333 1
83 334 1
83 336 1
83 338 1
83 339 1
83 341 1
83 342 1
83 343 1
83 346 1
83 348 1
83 349 1
83 352 1
83 354 1
83 356 1
83 357 1
83 358 1
83 360 1
83 362 1
83 365 1
83 367 1
83 369 1
83 373 1
83 378 1
83 383 1
83 384 1
83 385 1
83 390 1
83 394 1
83 395 1
83 397 1
83 399 1
84 1 1
84 2 1
84 3 1
84 6 1
84 7 1
84 9 1
84 14 1
84 17 1
84 18 1
84 19 1
84 21 1
84 28 1
84 36 1
84 38 1
84 40 1
84 43 1
84 46 1
84 47 1
84 52 1
84 53 1
84 56 1
84 57 1
84 60 1
84 61 1
84 62 1
84 63 1
84 64 1
84 66 1
84 67 1
84 69 1
84 72 1
84 74 1
84 75 1
84 76 1
84 78 1
84 79 1
84 80 1
84 86 1
84 87 1
84 90 1
84 91 1
84 92 1
84 94 1
84 96 1
84 97 1
84 98 1
84 99 1
84 101 1
84 108 1
84 110 1
84 112 1
84 116 1
84 118 1
84 119 1
84 124 1
84 136 1
84 137 1
84 139 1
84 140 1
84 142 1
84 143 1
84 144 1
84 145 1
84 148 1
84 152 1
84 153 1
84 154 1
84 156 1
84 157 1
84 160 1
84 161 1
84 162 1
84 163 1
84 166 1
84 168 1
84 174 1
84 178 1
84 179 1
84 182 1
84 184 1
84 186 1
84 189 1
84 190 1
84 192 1
84 193 1
84 194 1
84 201 1
84 203 1
84 204 1
84 207 1
84 209 1
84 211 1
84 216 1
84 217 1
84 221 1
84 223 1
84 224 1
84 226 1
84 227 1
84 228 1
84 231 1
84 240 1
84 246 1
84 248 1
84 251 1
84 252 1
84 253 1
84 254 1
84 256 1
84 261 1
84 262 1
84 263 1
84 265 1
84 266 1
84 268 1
84 269 1
84 275 1
84 276 1
84 277 1
84 283 1
84 284 1
84 285 1
84 286 1
84 288 1
84 289 1
84 291 1
84 292 1
84 295 1
84 296 1
84 297 1
84 301 1
84 302 1
84 303 1
84 306 1
84 309 1
84 311 1
84 312 1
84 314 1
84 316 1
84 317 1
84 318 1
84 319 1
84 320 1
84 324 1
84 325 1
84 327 1
84 329 1
84 332 1
84 333 1
84 335 1
84 336 1
84 339 1
84 340 1
84 342 1
84 346 1
84 351 1
84 353 1
84 357 1
84 363 1
84 365 1
84 372 1
84 373 1
84 374 1
84 375 1
84 377 1
84 379 1
84 382 1
84 384 1
84 388 1
84 389 1
84 392 1
84 395 1
84 396 1
84 399 1
84 400 1
85 3 1
85 6 1
85 7 1
85 10 1
85 11 1
85 12 1
85 16 1
85 18 1
85 19 1
85 22 1
85 24 1
85 30 1
85 32 1
85 33 1
85 34 1
85 40 1
85 42 1
85 43 1
85 45 1
85 47 1
85 49 1
85 50 1
85 54 1
85 63 1
85 66 1
85 68 1
85 70 1
85 71 1
85 73 1
85 76 1
85 77 1
85 78 1
85 80 1
85 81 1
85 82 1
85 89 1
85 91 1
85 92 1
85 93 1
85 96 1
85 97 1
85 100 1
85 103 1
85 108 1
85 111 1
85 113 1
85 114 1
85 115 1
85 117 1
85 121 1
85 126 1
85 128 1
85 129 1
85 130 1
85 134 1
85 136 1
85 138 1
85 140 1
85 143 1
85 144 1
85 145 1
85 146 1
85 159 1
85 163 1
85 167 1
85 169 1
85 171 1
85 174 1
85 177 1
85 178 1
85 180 1
85 182 1
85 185 1
85 188 1
85 191 1
85 195 1
85 199 1
85 205 1
85 207 1
85 208 1
85 213 1
85 217 1
85 218 1
85 219 1
85 223 1
85 226 1
85 228 1
85 229 1
85 230 1
85 232 1
85 235 1
85 236 1
85 238 1
85 239 1
85 242 1
85 250 1
85 255 1
85 256 1
85 259 1
85 261 1
85 262 1
85 263 1
85 266 1
85 268 1
85 269 1
85 273 1
85 277 1
85 281 1
85 283 1
85 285 1
85 286 1
85 287 1
85 291 1
85 293 1
85 295 1
85 296 1
85 298 1
85 299 1
85 300 1
85 301 1
85 304 1
85 305 1
85 307 1
85 309 1
85 312 1
85 313 1
85 317 1
85 319 1
85 323 1
85 324 1
85 328 1
85 329 1
85 330 1
85 335 1
85 340 1
85 343 1
85 345 1
85 350 1
85 351 1
85 352 1
85 354 1
85 355 1
85 356 1
85 359 1
85 363 1
85 365 1
85 366 1
85 367 1
85 370 1
85 372 1
85 374 1
85 378 1
85 381 1
85 382 1
85 384 1
85 388 1
85 392 1
85 393 1
85 394 1
85 395 1
86 5 1
86 6 1
86 9 1
86 10 1
86 12 1
86 14 1
86 17 1
86 18 1
86 19 1
86 21 1
86 24 1
86 25 1
86 27 1
86 30 1
86 32 1
86 33 1
86 34 1
86 37 1
86 39 1
86 43 1
86 44 1
86 45 1
86 49 1
86 50 1
86 51 1
86 52 1
86 55 1
86 59 1
86 61 1
86 62 1
86 64 1
86 67 1
86 68 1
86 70 1
86 73 1
86 74 1
86 75 1
86 78 1
86 81 1
86 84 1
86 92 1
86 96 1
86 97 1
86 99 1
86 100 1
86 101 1
86 103 1
86 104 1
86 105 1
86 108 1
86 111 1
86 113 1
86 114 1
86 117 1
86 118 1
86 119 1
86 120 1
86 121 1
86 126 1
86 135 1
86 136 1
86 141 1
86 142 1
86 149 1
86 152 1
86 167 1
86 168 1
86 169 1
86 176 1
86 177 1
86 178 1
86 180 1
86 181 1
86 185 1
86 186 1
86 188 1
86 190 1
86 192 1
86 197 1
86 198 1
86 200 1
86 201 1
86 202 1
86 207 1
86 208 1
86 209 1
86 210 1
86 211 1
86 214 1
86 215 1
86 216 1
86 221 1
86 222 1
86 223 1
86 225 1
86 227 1
86 229 1
86 234 1
86 235 1
86 237 1
86 238 1
86 245 1
86 249 1
86 254 1
86 255 1
86 256 1
86 260 1
86 262 1
86 263 1
86 266 1
86 269 1
86 270 1
86 273 1
86 275 1
86 276 1
86 277 1
86 280 1
86 287 1
86 290 1
86 291 1
86 292 1
86 294 1
86 295 1
86 296 1
86 297 1
86 300 1
86 301 1
86 302 1
86 304 1
86 305 1
86 307 1
86 308 1
86 316 1
86 320 1
86 321 1
86 322 1
86 329 1
86 332 1
86 337 1
86 339 1
86 340 1
86 342 1
86 343 1
86 345 1
86 346 1
86 347 1
86 351 1
86 355 1
86 356 1
86 357 1
86 361 1
86 362 1
86 365 1
86 366 1
86 368 1
86 371 1
86 372 1
86 375 1
86 376 1
86 377 1
86 382 1
86 385 1
86 386 1
86 389 1
86 390 1
86 395 1
86 400 1
87 5 1
87 6 1
87 7 1
87 8 1
87 13 1
87 14 1
87 16 1
87 22 1
87 23 1
87 24 1
87 31 1
87 33 1
87 34 1
87 36 1
87 38 1
87 39 1
87 40 1
87 41 1
87 43 1
87 45 1
87 50 1
87 51 1
87 52 1
87 53 1
87 54 1
87 55 1
87 59 1
87 61 1
87 66 1
87 71 1
87 73 1
87 75 1
87 76 1
87 84 1
87 88 1
87 97 1
87 98 1
87 99 1
87 101 1
87 108 1
87 109 1
87 111 1
87 114 1
87 115 1
87 116 1
87 122 1
87 123 1
87 124 1
87 125 1
87 126 1
87 127 1
87 128 1
87 129 1
87 131 1
87 133 1
87 134 1
87 135 1
87 136 1
87 137 1
87 141 1
87 142 1
87 144 1
87 145 1
87 146 1
87 149 1
87 150 1
87 151 1
87 153 1
87 155 1
87 156 1
87 159 1
87 162 1
87 163 1
87 164 1
87 166 1
87 173 1
87 174 1
87 176 1
87 177 1
87 178 1
87 179 1
87 182 1
87 184 1
87 185 1
87 186 1
87 188 1
87 190 1
87 191 1
87 192 1
87 201 1
87 202 1
87 204 1
87 205 1
87 213 1
87 215 1
87 219 1
87 220 1
87 222 1
87 224 1
87 225 1
87 229 1
87 231 1
87 235 1
87 238 1
87 239 1
87 241 1
87 244 1
87 250 1
87 251 1
87 256 1
87 262 1
87 264 1
87 265 1
87 266 1
87 270 1
87 273 1
87 275 1
87 277 1
87 278 1
87 282 1
87 283 1
87 285 1
87 287 1
87 301 1
87 304 1
87 307 1
87 318 1
87 319 1
87 320 1
87 322 1
87 323 1
87 326 1
87 327 1
87 328 1
87 332 1
87 335 1
87 336 1
87 338 1
87 339 1
87 341 1
87 345 1
87 346 1
87 347 1
87 349 1
87 351 1
87 354 1
87 357 1
87 367 1
87 368 1
87 370 1
87 372 1
87 373 1
87 374 1
87 379 1
87 385 1
87 386 1
87 387 1
87 388 1
87 389 1
87 390 1
87 396 1
87 399 1
88 1 1
88 3 1
88 5 1
88 7 1
88 8 1
88 14 1
88 15 1
88 18 1
88 20 1
88 28 1
88 32 1
88 33 1
88 35 1
88 36 1
88 37 1
88 44 1
88 46 1
88 47 1
88 49 1
88 52 1
88 55 1
88 56 1
88 60 1
88 65 1
88 67 1
88 70 1
88 75 1
88 79 1
88 82 1
88 87 1
88 89 1
88 90 1
88 91 1
88 94 1
88 97 1
88 98 1
88 99 1
88 102 1
88 103 1
88 105 1
88 107 1
88 111 1
88 112 1
88 113 1
88 114 1
88 116 1
88 118 1
88 121 1
88 124 1
88 128 1
88 130 1
88 131 1
88 134 1
88 140 1
88 142 1
88 144 1
88 146 1
88 147 1
88 150 1
88 155 1
88 156 1
88 162 1
88 165 1
88 166 1
88 170 1
88 171 1
88 173 1
88 174 1
88 178 1
88 181 1
88 183 1
88 185 1
88 186 1
88 187 1
88 188 1
88 189 1
88 191 1
88 197 1
88 199 1
88 200 1
88 203 1
88 204 1
88 207 1
88 211 1
88 212 1
88 213 1
88 214 1
88 215 1
88 216 1
88 217 1
88 218 1
88 219 1
88 221 1
88 222 1
88 224 1
88 226 1
88 231 1
88 233 1
88 235 1
88 242 1
88 244 1
88 245 1
88 246 1
88 249 1
88 251 1
88 252 1
88 253 1
88 254 1
88 255 1
88 256 1
88 257 1
88 258 1
88 264 1
88 265 1
88 266 1
88 268 1
88 270 1
88 272 1
88 275 1
88 277 1
88 278 1
88 283 1
88 284 1
88 285 1
88 286 1
88 288 1
88 289 1
88 295 1
88 297 1
88 298 1
88 299 1
88 300 1
88 301 1
88 306 1
88 307 1
88 308 1
88 309 1
88 311 1
88 312 1
88 314 1
88 315 1
88 320 1
88 322 1
88 324 1
88 325 1
88 327 1
88 328 1
88 329 1
88 333 1
88 335 1
88 336 1
88 338 1
88 340 1
88 343 1
88 344 1
88 345 1
88 346 1
88 350 1
88 351 1
88 353 1
88 366 1
88 367 1
88 368 1
88 369 1
88 371 1
88 372 1
88 374 1
88 379 1
88 380 1
88 388 1
88 391 1
88 397 1
88 400 1
89 2 1
89 4 1
89 8 1
89 10 1
89 11 1
89 12 1
89 13 1
89 14 1
89 16 1
89 17 1
89 19 1
89 26 1
89 28 1
89 29 1
89 31 1
89 34 1
89 38 1
89 39 1
89 44 1
89 47 1
89 50 1
89 55 1
89 59 1
89 71 1
89 72 1
89 73 1
89 74 1
89 76 1
89 78 1
89 82 1
89 85 1
89 88 1
89 91 1
89 96 1
89 98 1
89 104 1
89 105 1
89 106 1
89 107 1
89 109 1
89 110 1
89 111 1
89 116 1
89 117 1
89 118 1
89 119 1
89 120 1
89 121 1
89 124 1
89 126 1
89 131 1
89 138 1
89 141 1
89 142 1
89 143 1
89 144 1
89 147 1
89 148 1
89 150 1
89 154 1
89 155 1
89 156 1
89 158 1
89 159 1
89 160 1
89 164 1
89 165 1
89 166 1
89 167 1
89 169 1
89 170 1
89 173 1
89 177 1
89 181 1
89 182 1
89 186 1
89 191 1
89 193 1
89 195 1
89 200 1
89 213 1
89 214 1
89 215 1
89 217 1
89 218 1
89 219 1
89 224 1
89 230 1
89 233 1
89 236 1
89 237 1
89 239 1
89 241 1
89 244 1
89 245 1
89 246 1
89 247 1
89 249 1
89 251 1
89 256 1
89 258 1
89 261 1
89 262 1
89 263 1
89 264 1
89 265 1
89 266 1
89 267 1
89 269 1
89 272 1
89 276 1
89 281 1
89 282 1
89 285 1
89 286 1
89 291 1
89 296 1
89 298 1
89 299 1
89 300 1
89 301 1
89 303 1
89 308 1
89 309 1
89 312 1
89 313 1
89 317 1
89 321 1
89 325 1
89 328 1
89 333 1
89 335 1
89 341 1
89 342 1
89 344 1
89 352 1
89 355 1
89 359 1
89 360 1
89 361 1
89 364 1
89 366 1
89 371 1
89 373 1
89 376 1
89 378 1
89 380 1
89 381 1
89 386 1
89 387 1
89 391 1
89 393 1
89 394 1
89 395 1
89 397 1
89 399 1
89 400 1
90 6 1
90 10 1
90 14 1
90 15 1
90 16 1
90 17 1
90 21 1
90 22 1
90 27 1
90 30 1
90 31 1
90 33 1
90 36 1
90 38 1
90 42 1
90 45 1
90 46 1
90 47 1
90 49 1
90 50 1
90 51 1
90 56 1
90 59 1
90 60 1
90 62 1
90 63 1
90 64 1
90 67 1
90 68 1
90 69 1
90 71 1
90 76 1
90 82 1
90 83 1
90 84 1
90 88 1
90 91 1
90 93 1
90 94 1
90 97 1
90 98 1
90 108 1
90 109 1
90 110 1
90 112 1
90 113 1
90 114 1
90 115 1
90 118 1
90 119 1
90 120 1
90 121 1
90 122 1
90 131 1
90 132 1
90 133 1
90 134 1
90 137 1
90 143 1
90 144 1
90 146 1
90 148 1
90 153 1
90 154 1
90 155 1
90 157 1
90 158 1
90 160 1
90 163 1
90 168 1
90 171 1
90 172 1
90 173 1
90 177 1
90 181 1
90 182 1
90 184 1
90 185 1
90 186 1
90 190 1
90 193 1
90 195 1
90 196 1
90 198 1
90 200 1
90 203 1
90 206 1
90 208 1
90 214 1
90 215 1
90 220 1
90 223 1
90 224 1
90 225 1
90 228 1
90 230 1
90 233 1
90 234 1
90 237 1
90 241 1
90 242 1
90 243 1
90 246 1
90 248 1
90 252 1
90 255 1
90 261 1
90 262 1
90 268 1
90 270 1
90 271 1
90 272 1
90 273 1
90 274 1
90 275 1
90 277 1
90 279 1
90 281 1
90 287 1
90 293 1
90 294 1
90 295 1
90 296 1
90 297 1
90 299 1
90 303 1
90 304 1
90 306 1
90 308 1
90 309 1
90 316 1
90 317 1
90 318 1
90 320 1
90 322 1
90 324 1
90 325 1
90 328 1
90 332 1
90 333 1
90 334 1
90 335 1
90 336 1
90 340 1
90 341 1
90 342 1
90 343 1
90 349 1
90 351 1
90 355 1
90 358 1
90 360 1
90 364 1
90 365 1
90 366 1
90 367 1
90 368 1
90 370 1
90 372 1
90 373 1
90 376 1
90 382 1
90 383 1
90 384 1
90 386 1
90 393 1
90 395 1
90 397 1
90 398 1
90 399 1
90 400 1
91 4 1
91 5 1
91 6 1
91 8 1
91 13 1
91 15 1
91 16 1
91 17 1
91 20 1
91 23 1
91 26 1
91 35 1
91 38 1
91 39 1
91 41 1
91 42 1
91 46 1
91 47 1
91 49 1
91 50 1
91 52 1
91 54 1
91 60 1
91 61 1
91 62 1
91 68 1
91 71 1
91 73 1
91 74 1
91 77 1
91 79 1
91 80 1
91 84 1
91 85 1
91 88 1
91 89 1
91 90 1
91 97 1
91 106 1
91 107 1
91 109 1
91 111 1
91 112 1
91 115 1
91 120 1
91 121 1
91 122 1
91 126 1
91 129 1
91 133 1
91 136 1
91 141 1
91 142 1
91 143 1
91 146 1
91 151 1
91 152 1
91 155 1
91 163 1
91 168 1
91 173 1
91 174 1
91 176 1
91 177 1
91 179 1
91 180 1
91 183 1
91 184 1
91 185 1
91 186 1
91 188 1
91 189 1
91 194 1
91 204 1
91 207 1
91 208 1
91 214 1
91 215 1
91 219 1
91 222 1
91 224 1
91 227 1
91 231 1
91 234 1
91 236 1
91 237 1
91 240 1
91 241 1
91 246 1
91 248 1
91 254 1
91 256 1
91 262 1
91 263 1
91 265 1
91 268 1
91 270 1
91 271 1
91 272 1
91 274 1
91 279 1
91 280 1
91 287 1
91 288 1
91 289 1
91 291 1
91 295 1
91 297 1
91 303 1
91 307 1
91 317 1
91 320 1
91 321 1
91 322 1
91 326 1
91 327 1
91 328 1
91 329 1
91 330 1
91 332 1
91 335 1
91 336 1
91 339 1
91 341 1
91 343 1
91 344 1
91 346 1
91 348 1
91 358 1
91 359 1
91 360 1
91 364 1
91 369 1
91 371 1
91 373 1
91 378 1
91 379 1
91 381 1
91 384 1
91 385 1
91 387 1
91 390 1
91 392 1
91 393 1
91 398 1
91 400 1
92 3 1
92 8 1
92 9 1
92 10 1
92 11 1
92 12 1
92 22 1
92 24 1
92 26 1
92 34 1
92 36 1
92 37 1
92 39 1
92 40 1
92 41 1
92 43 1
92 52 1
92 54 1
92 56 1
92 57 1
92 60 1
92 61 1
92 64 1
92 67 1
92 70 1
92 71 1
92 74 1
92 75 1
92 84 1
92 85 1
92 86 1
92 93 1
92 97 1
92 101 1
92 103 1
92 104 1
92 105 1
92 107 1
92 108 1
92 109 1
92 112 1
92 121 1
92 127 1
92 129 1
92 132 1
92 138 1
92 139 1
92 142 1
92 143 1
92 145 1
92 146 1
92 150 1
92 151 1
92 152 1
92 159 1
92 160 1
92 162 1
92 166 1
92 168 1
92 172 1
92 173 1
92 174 1
92 175 1
92 177 1
92 184 1
92 185 1
92 190 1
92 192 1
92 195 1
92 196 1
92 199 1
92 202 1
92 203 1
92 207 1
92 209 1
92 211 1
92 213 1
92 214 1
92 216 1
92 219 1
92 224 1
92 226 1
92 227 1
92 229 1
92 231 1
92 233 1
92 238 1
92 240 1
92 242 1
92 243 1
92 244 1
92 247 1
92 248 1
92 249 1
92 250 1
92 255 1
92 261 1
92 265 1
92 269 1
92 270 1
92 272 1
92 274 1
92 275 1
92 276 1
92 281 1
92 282 1
92 289 1
92 290 1
92 292 1
92 293 1
92 294 1
92 295 1
92 296 1
92 298 1
92 299 1
92 303 1
92 313 1
92 314 1
92 320 1
92 322 1
92 323 1
92 324 1
92 326 1
92 328 1
92 330 1
92 331 1
92 332 1
92 334 1
92 335 1
92 336 1
92 337 1
92 339 1
92 346 1
92 347 1
92 348 1
92 349 1
92 351 1
92 352 1
92 355 1
92 357 1
92 363 1
92 366 1
92 369 1
92 372 1
92 375 1
92 376 1
92 380 1
92 383 1
92 385 1
92 388 1
92 389 1
92 391 1
92 392 1
92 394 1
93 6 1
93 7 1
93 8 1
93 10 1
93 12 1
93 13 1
93 18 1
93 20 1
93 27 1
93 33 1
93 34 1
93 35 1
93 36 1
93 37 1
93 38 1
93 40 1
93 45 1
93 46 1
93 47 1
93 54 1
93 56 1
93 60 1
93 61 1
93 75 1
93 76 1
93 78 1
93 82 1
93 83 1
93 85 1
93 90 1
93 92 1
93 94 1
93 96 1
93 98 1
93 99 1
93 100 1
93 102 1
93 103 1
93 107 1
93 109 1
93 111 1
93 112 1
93 113 1
93 114 1
93 116 1
93 119 1
93 121 1
93 122 1
93 127 1
93 128 1
93 130 1
93 135 1
93 137 1
93 138 1
93 139 1
93 142 1
93 144 1
93 145 1
93 147 1
93 151 1
93 154 1
93 157 1
93 160 1
93 162 1
93 164 1
93 165 1
93 170 1
93 176 1
93 178 1
93 179 1
93 180 1
93 182 1
93 184 1
93 188 1
93 190 1
93 191 1
93 192 1
93 196 1
93 200 1
93 201 1
93 205 1
93 206 1
93 207 1
93 209 1
93 211 1
93 212 1
93 213 1
93 215 1
93 218 1
93 222 1
93 226 1
93 227 1
93 228 1
93 230 1
93 231 1
93 233 1
93 234 1
93 236 1
93 238 1
93 240 1
93 242 1
93 244 1
93 250 1
93 255 1
93 256 1
93 257 1
93 262 1
93 264 1
93 265 1
93 270 1
93 271 1
93 274 1
93 277 1
93 280 1
93 281 1
93 282 1
93 287 1
93 288 1
93 289 1
93 296 1
93 302 1
93 305 1
93 310 1
93 312 1
93 314 1
93 315 1
93 320 1
93 321 1
93 331 1
93 333 1
93 335 1
93 336 1
93 337 1
93 343 1
93 345 1
93 346 1
93 348 1
93 349 1
93 353 1
93 354 1
93 355 1
93 361 1
93 367 1
93 369 1
93 371 1
93 376 1
93 377 1
93 378 1
93 380 1
93 381 1
93 384 1
93 393 1
93 398 1
93 399 1
93 400 1
94 1 1
94 2 1
94 4 1
94 5 1
94 6 1
94 8 1
94 9 1
94 14 1
94 18 1
94 19 1
94 20 1
94 24 1
94 25 1
94 30 1
94 33 1
94 35 1
94 36 1
94 37 1
94 39 1
94 42 1
94 43 1
94 48 1
94 50 1
94 51 1
94 56 1
94 58 1
94 65 1
94 70 1
94 71 1
94 72 1
94 74 1
94 77 1
94 78 1
94 79 1
94 83 1
94 84 1
94 88 1
94 90 1
94 93 1
94 98 1
94 104 1
94 107 1
94 112 1
94 115 1
94 120 1
94 122 1
94 124 1
94 128 1
94 132 1
94 137 1
94 138 1
94 142 1
94 144 1
94 145 1
94 146 1
94 147 1
94 152 1
94 153 1
94 154 1
94 158 1
94 160 1
94 166 1
94 168 1
94 169 1
94 171 1
94 177 1
94 182 1
94 184 1
94 188 1
94 194 1
94 196 1
94 197 1
94 198 1
94 199 1
94 208 1
94 209 1
94 212 1
94 214 1
94 216 1
94 219 1
94 220 1
94 221 1
94 223 1
94 224 1
94 225 1
94 226 1
94 227 1
94 230 1
94 231 1
94 232 1
94 240 1
94 246 1
94 247 1
94 248 1
94 253 1
94 254 1
94 255 1
94 258 1
94 260 1
94 263 1
94 264 1
94 265 1
94 268 1
94 272 1
94 273 1
94 275 1
94 276 1
94 277 1
94 278 1
94 279 1
94 281 1
94 287 1
94 293 1
94 295 1
94 297 1
94 300 1
94 304 1
94 306 1
94 310 1
94 314 1
94 317 1
94 318 1
94 320 1
94 321 1
94 325 1
94 326 1
94 327 1
94 332 1
94 333 1
94 335 1
94 336 1
94 337 1
94 338 1
94 343 1
94 344 1
94 347 1
94 348 1
94 351 1
94 354 1
94 356 1
94 360 1
94 362 1
94 367 1
94 368 1
94 372 1
94 373 1
94 374 1
94 376 1
94 385 1
94 387 1
94 388 1
94 390 1
94 392 1
94 393 1
94 394 1
94 396 1
94 399 1
94 400 1
95 3 1
95 5 1
95 12 1
95 13 1
95 15 1
95 17 1
95 19 1
95 22 1
95 23 1
95 25 1
95 27 1
95 34 1
95 36 1
95 37 1
95 38 1
95 45 1
95 47 1
95 48 1
95 50 1
95 52 1
95 53 1
95 54 1
95 55 1
95 59 1
95 63 1
95 70 1
95 77 1
95 80 1
95 83 1
95 96 1
95 100 1
95 102 1
95 103 1
95 104 1
95 106 1
95 107 1
95 114 1
95 115 1
95 117 1
95 118 1
95 119 1
95 122 1
95 123 1
95 125 1
95 126 1
95 128 1
95 133 1
95 136 1
95 139 1
95 147 1
95 156 1
95 157 1
95 158 1
95 159 1
95 160 1
95 161 1
95 162 1
95 164 1
95 165 1
95 172 1
95 178 1
95 180 1
95 184 1
95 185 1
95 186 1
95 190 1
95 191 1
95 193 1
95 195 1
95 198 1
95 199 1
95 202 1
95 205 1
95 208 1
95 213 1
95 215 1
95 219 1
95 221 1
95 223 1
95 227 1
95 231 1
95 238 1
95 240 1
95 241 1
95 242 1
95 243 1
95 244 1
95 245 1
95 246 1
95 248 1
95 249 1
95 254 1
95 255 1
95 258 1
95 259 1
95 260 1
95 261 1
95 264 1
95 267 1
95 269 1
95 272 1
95 275 1
95 276 1
95 281 1
95 284 1
95 286 1
95 288 1
95 290 1
95 292 1
95 296 1
95 298 1
95 299 1
95 302 1
95 303 1
95 309 1
95 314 1
95 315 1
95 319 1
95 321 1
95 323 1
95 324 1
95 326 1
95 327 1
95 334 1
95 335 1
95 336 1
95 337 1
95 338 1
95 341 1
95 344 1
95 346 1
95 350 1
95 351 1
95 352 1
95 353 1
95 356 1
95 361 1
95 362 1
95 371 1
95 374 1
95 378 1
95 380 1
95 386 1
95 388 1
95 390 1
95 394 1
95 395 1
95 398 1
95 400 1
96 3 1
96 6 1
96 10 1
96 11 1
96 14 1
96 15 1
96 16 1
96 18 1
96 19 1
96 20 1
96 22 1
96 23 1
96 25 1
96 26 1
96 28 1
96 30 1
96 36 1
96 38 1
96 40 1
96 48 1
96 50 1
96 54 1
96 55 1
96 56 1
96 58 1
96 59 1
96 62 1
96 64 1
96 70 1
96 74 1
96 75 1
96 77 1
96 78 1
96 81 1
96 84 1
96 85 1
96 86 1
96 89 1
96 93 1
96 95 1
96 98 1
96 101 1
96 104 1
96 105 1
96 106 1
96 108 1
96 110 1
96 112 1
96 113 1
96 119 1
96 120 1
96 127 1
96 129 1
96 130 1
96 132 1
96 133 1
96 138 1
96 141 1
96 144 1
96 146 1
96 149 1
96 151 1
96 153 1
96 154 1
96 155 1
96 161 1
96 162 1
96 163 1
96 166 1
96 170 1
96 175 1
96 176 1
96 179 1
96 181 1
96 183 1
96 184 1
96 187 1
96 189 1
96 192 1
96 194 1
96 198 1
96 199 1
96 200 1
96 201 1
96 205 1
96 206 1
96 211 1
96 219 1
96 221 1
96 227 1
96 232 1
96 234 1
96 235 1
96 237 1
96 239 1
96 240 1
96 241 1
96 243 1
96 258 1
96 261 1
96 262 1
96 263 1
96 265 1
96 270 1
96 274 1
96 279 1
96 285 1
96 286 1
96 288 1
96 290 1
96 291 1
96 292 1
96 295 1
96 296 1
96 298 1
96 300 1
96 301 1
96 302 1
96 304 1
96 306 1
96 307 1
96 310 1
96 313 1
96 316 1
96 322 1
96 324 1
96 325 1
96 326 1
96 329 1
96 331 1
96 333 1
96 334 1
96 345 1
96 346 1
96 347 1
96 350 1
96 352 1
96 357 1
96 358 1
96 359 1
96 366 1
96 367 1
96 369 1
96 373 1
96 375 1
96 378 1
96 379 1
96 381 1
96 386 1
96 388 1
96 392 1
96 400 1
97 1 1
97 6 1
97 9 1
97 10 1
97 13 1
97 14 1
97 16 1
97 19 1
97 21 1
97 22 1
97 23 1
97 25 1
97 27 1
97 29 1
97 32 1
97 36 1
97 40 1
97 45 1
97 47 1
97 48 1
97 54 1
97 56 1
97 58 1
97 60 1
97 63 1
97 64 1
97 69 1
97 73 1
97 74 1
97 75 1
97 80 1
97 84 1
97 85 1
97 86 1
97 87 1
97 88 1
97 90 1
97 91 1
97 92 1
97 98 1
97 100 1
97 101 1
97 102 1
97 104 1
97 105 1
97 106 1
97 111 1
97 117 1
97 118 1
97 122 1
97 125 1
97 127 1
97 128 1
97 129 1
97 136 1
97 142 1
97 144 1
97 146 1
97 148 1
97 151 1
97 155 1
97 158 1
97 159 1
97 160 1
97 161 1
97 163 1
97 164 1
97 165 1
97 168 1
97 170 1
97 171 1
97 172 1
97 175 1
97 176 1
97 177 1
97 178 1
97 182 1
97 183 1
97 185 1
97 189 1
97 190 1
97 194 1
97 195 1
97 198 1
97 202 1
97 203 1
97 205 1
97 210 1
97 212 1
97 225 1
97 229 1
97 236 1
97 237 1
97 241 1
97 243 1
97 246 1
97 251 1
97 252 1
97 253 1
97 255 1
97 261 1
97 263 1
97 264 1
97 268 1
97 270 1
97 273 1
97 274 1
97 277 1
97 278 1
97 280 1
97 286 1
97 289 1
97 290 1
97 291 1
97 295 1
97 298 1
97 300 1
97 302 1
97 308 1
97 309 1
97 311 1
97 312 1
97 316 1
97 317 1
97 321 1
97 322 1
97 324 1
97 328 1
97 329 1
97 332 1
97 335 1
97 337 1
97 339 1
97 340 1
97 341 1
97 346 1
97 350 1
97 355 1
97 357 1
97 358 1
97 359 1
97 361 1
97 365 1
97 368 1
97 372 1
97 376 1
97 377 1
97 379 1
97 381 1
97 384 1
97 385 1
97 391 1
97 392 1
97 396 1
97 399 1
97 400 1
98 2 1
98 3 1
98 5 1
98 9 1
98 10 1
98 12 1
98 15 1
98 20 1
98 21 1
98 23 1
98 24 1
98 26 1
98 27 1
98 30 1
98 31 1
98 35 1
98 37 1
98 38 1
98 40 1
98 41 1
98 43 1
98 49 1
98 50 1
98 52 1
98 56 1
98 58 1
98 61 1
98 65 1
98 76 1
98 78 1
98 79 1
98 81 1
98 82 1
98 83 1
98 84 1
98 87 1
98 88 1
98 89 1
98 90 1
98 93 1
98 94 1
98 96 1
98 97 1
98 100 1
98 101 1
98 104 1
98 106 1
98 107 1
98 110 1
98 111 1
98 112 1
98 114 1
98 115 1
98 118 1
98 124 1
98 125 1
98 127 1
98 130 1
98 131 1
98 134 1
98 135 1
98 138 1
98 142 1
98 144 1
98 147 1
98 149 1
98 150 1
98 151 1
98 152 1
98 153 1
98 156 1
98 159 1
98 162 1
98 164 1
98 165 1
98 166 1
98 168 1
98 179 1
98 180 1
98 186 1
98 188 1
98 189 1
98 191 1
98 192 1
98 195 1
98 201 1
98 203 1
98 204 1
98 206 1
98 210 1
98 214 1
98 216 1
98 217 1
98 218 1
98 219 1
98 221 1
98 223 1
98 227 1
98 230 1
98 231 1
98 233 1
98 236 1
98 243 1
98 244 1
98 245 1
98 248 1
98 249 1
98 250 1
98 252 1
98 257 1
98 258 1
98 260 1
98 262 1
98 263 1
98 266 1
98 267 1
98 268 1
98 269 1
98 270 1
98 271 1
98 272 1
98 273 1
98 276 1
98 279 1
98 283 1
98 284 1
98 287 1
98 289 1
98 293 1
98 295 1
98 299 1
98 304 1
98 306 1
98 309 1
98 312 1
98 315 1
98 316 1
98 317 1
98 318 1
98 323 1
98 325 1
98 328 1
98 330 1
98 340 1
98 344 1
98 345 1
98 347 1
98 348 1
98 353 1
98 358 1
98 360 1
98 361 1
98 362 1
98 363 1
98 364 1
98 366 1
98 368 1
98 370 1
98 373 1
98 376 1
98 378 1
98 381 1
98 382 1
98 385 1
98 388 1
98 389 1
98 392 1
98 398 1
99 2 1
99 6 1
99 7 1
99 8 1
99 9 1
99 10 1
99 12 1
99 15 1
99 16 1
99 17 1
99 18 1
99 27 1
99 28 1
99 29 1
99 31 1
99 37 1
99 44 1
99 46 1
99 49 1
99 50 1
99 54 1
99 55 1
99 57 1
99 59 1
99 70 1
99 71 1
99 75 1
99 76 1
99 78 1
99 79 1
99 81 1
99 83 1
99 84 1
99 86 1
99 87 1
99 88 1
99 93 1
99 102 1
99 103 1
99 104 1
99 107 1
99 109 1
99 110 1
99 112 1
99 114 1
99 116 1
99 119 1
99 120 1
99 121 1
99 123 1
99 125 1
99 126 1
99 128 1
99 129 1
99 132 1
99 133 1
99 135 1
99 136 1
99 137 1
99 138 1
99 141 1
99 142 1
99 145 1
99 146 1
99 148 1
99 149 1
99 150 1
99 151 1
99 154 1
99 160 1
99 161 1
99 162 1
99 163 1
99 164 1
99 165 1
99 168 1
99 170 1
99 172 1
99 173 1
99 175 1
99 176 1
99 178 1
99 179 1
99 184 1
99 185 1
99 187 1
99 193 1
99 200 1
99 202 1
99 208 1
99 213 1
99 214 1
99 216 1
99 217 1
99 219 1
99 222 1
99 227 1
99 229 1
99 230 1
99 233 1
99 235 1
99 236 1
99 239 1
99 240 1
99 241 1
99 242 1
99 243 1
99 244 1
99 246 1
99 247 1
99 252 1
99 255 1
99 262 1
99 263 1
99 266 1
99 268 1
99 269 1
99 270 1
99 271 1
99 273 1
99 274 1
99 275 1
99 276 1
99 281 1
99 282 1
99 284 1
99 286 1
99 290 1
99 295 1
99 297 1
99 302 1
99 303 1
99 305 1
99 306 1
99 308 1
99 311 1
99 312 1
99 319 1
99 325 1
99 326 1
99 332 1
99 334 1
99 335 1
99 340 1
99 341 1
99 342 1
99 344 1
99 346 1
99 347 1
99 349 1
99 351 1
99 353 1
99 355 1
99 357 1
99 359 1
99 361 1
99 363 1
99 365 1
99 367 1
99 368 1
99 371 1
99 373 1
99 377 1
99 380 1
99 381 1
99 382 1
99 385 1
99 386 1
99 388 1
99 390 1
99 393 1
99 396 1
99 397 1
99 398 1
100 1 1
100 2 1
100 4 1
100 5 1
100 6 1
100 7 1
100 11 1
100 12 1
100 13 1
100 14 1
100 17 1
100 18 1
100 25 1
100 26 1
100 30 1
100 31 1
100 32 1
100 33 1
100 34 1
100 36 1
100 38 1
100 41 1
100 42 1
100 43 1
100 44 1
100 46 1
100 51 1
100 52 1
100 54 1
100 57 1
100 60 1
100 63 1
100 67 1
100 68 1
100 71 1
100 75 1
100 76 1
100 78 1
100 81 1
100 82 1
100 85 1
100 86 1
100 93 1
100 95 1
100 97 1
100 98 1
100 101 1
100 102 1
100 103 1
100 104 1
100 108 1
100 112 1
100 116 1
100 117 1
100 118 1
100 120 1
100 122 1
100 123 1
100 126 1
100 127 1
100 143 1
100 144 1
100 145 1
100 150 1
100 157 1
100 158 1
100 159 1
100 161 1
100 162 1
100 163 1
100 165 1
100 167 1
100 168 1
100 178 1
100 184 1
100 185 1
100 186 1
100 188 1
100 189 1
100 191 1
100 192 1
100 193 1
100 195 1
100 201 1
100 202 1
100 208 1
100 212 1
100 216 1
100 219 1
100 220 1
100 222 1
100 225 1
100 226 1
100 229 1
100 230 1
100 233 1
100 235 1
100 245 1
100 247 1
100 254 1
100 257 1
100 263 1
100 265 1
100 269 1
100 273 1
100 280 1
100 282 1
100 284 1
100 286 1
100 289 1
100 290 1
100 292 1
100 295 1
100 296 1
100 297 1
100 304 1
100 308 1
100 310 1
100 312 1
100 322 1
100 324 1
100 325 1
100 328 1
100 336 1
100 340 1
100 346 1
100 350 1
100 352 1
100 355 1
100 356 1
100 358 1
100 361 1
100 363 1
100 364 1
100 365 1
100 366 1
100 367 1
100 368 1
100 369 1
100 371 1
100 372 1
100 373 1
100 374 1
100 376 1
100 378 1
100 380 1
100 383 1
100 384 1
100 387 1
100 388 1
100 392 1
100 393 1
100 395 1
100 398 1
100 399 1
100 400 1
101 1 1
101 2 1
101 3 1
101 6 1
101 7 1
101 13 1
101 14 1
101 16 1
101 19 1
101 27 1
101 33 1
101 35 1
101 40 1
101 41 1
101 42 1
101 43 1
101 57 1
101 65 1
101 68 1
101 70 1
101 73 1
101 75 1
101 79 1
101 80 1
101 82 1
101 84 1
101 86 1
101 87 1
101 92 1
101 96 1
101 97 1
101 98 1
101 100 1
101 103 1
101 106 1
101 108 1
101 110 1
101 112 1
101 113 1
101 118 1
101 119 1
101 121 1
101 123 1
101 128 1
101 133 1
101 137 1
101 142 1
101 144 1
101 145 1
101 147 1
101 148 1
101 151 1
101 161 1
101 163 1
101 164 1
101 166 1
101 167 1
101 169 1
101 174 1
101 176 1
101 179 1
101 180 1
101 182 1
101 183 1
101 187 1
101 190 1
101 196 1
101 200 1
101 201 1
101 202 1
101 204 1
101 206 1
101 207 1
101 209 1
101 211 1
101 213 1
101 214 1
101 219 1
101 220 1
101 222 1
101 224 1
101 226 1
101 233 1
101 235 1
101 240 1
101 248 1
101 251 1
101 253 1
101 254 1
101 255 1
101 257 1
101 260 1
101 261 1
101 266 1
101 267 1
101 268 1
101 270 1
101 271 1
101 273 1
101 275 1
101 278 1
101 280 1
101 282 1
101 283 1
101 284 1
101 286 1
101 296 1
101 300 1
101 302 1
101 303 1
101 308 1
101 309 1
101 311 1
101 312 1
101 314 1
101 316 1
101 317 1
101 319 1
101 320 1
101 323 1
101 324 1
101 325 1
101 326 1
101 329 1
101 335 1
101 336 1
101 351 1
101 353 1
101 358 1
101 361 1
101 362 1
101 363 1
101 364 1
101 365 1
101 366 1
101 367 1
101 369 1
101 371 1
101 373 1
101 377 1
101 382 1
101 386 1
101 388 1
101 389 1
101 390 1
101 392 1
101 394 1
101 395 1
101 398 1
102 2 1
102 3 1
102 5 1
102 7 1
102 11 1
102 13 1
102 14 1
102 15 1
102 17 1
102 21 1
102 24 1
102 25 1
102 30 1
102 31 1
102 34 1
102 36 1
102 37 1
102 38 1
102 40 1
102 41 1
102 44 1
102 47 1
102 49 1
102 50 1
102 53 1
102 54 1
102 55 1
102 56 1
102 58 1
102 62 1
102 64 1
102 67 1
102 72 1
102 74 1
102 76 1
102 78 1
102 81 1
102 83 1
102 88 1
102 93 1
102 95 1
102 97 1
102 99 1
102 100 1
102 103 1
102 104 1
102 107 1
102 109 1
102 117 1
102 119 1
102 120 1
102 121 1
102 123 1
102 128 1
102 130 1
102 131 1
102 143 1
102 144 1
102 151 1
102 152 1
102 161 1
102 163 1
102 166 1
102 168 1
102 173 1
102 175 1
102 177 1
102 178 1
102 182 1
102 184 1
102 187 1
102 188 1
102 193 1
102 195 1
102 196 1
102 198 1
102 199 1
102 200 1
102 206 1
102 209 1
102 211 1
102 214 1
102 215 1
102 216 1
102 218 1
102 221 1
102 225 1
102 227 1
102 235 1
102 237 1
102 242 1
102 250 1
102 253 1
102 254 1
102 255 1
102 258 1
102 261 1
102 262 1
102 266 1
102 278 1
102 279 1
102 287 1
102 289 1
102 296 1
102 299 1
102 300 1
102 305 1
102 307 1
102 308 1
102 311 1
102 312 1
102 314 1
102 316 1
102 319 1
102 320 1
102 321 1
102 322 1
102 324 1
102 326 1
102 327 1
102 328 1
102 332 1
102 337 1
102 338 1
102 339 1
102 341 1
102 343 1
102 346 1
102 347 1
102 350 1
102 351 1
102 352 1
102 353 1
102 357 1
102 361 1
102 363 1
102 365 1
102 368 1
102 371 1
102 376 1
102 377 1
102 379 1
102 380 1
102 381 1
102 382 1
102 389 1
102 390 1
102 391 1
102 394 1
102 395 1
102 397 1
102 398 1
102 400 1
103 1 1
103 3 1
103 4 1
103 5 1
103 6 1
103 7 1
103 10 1
103 11 1
103 13 1
103 16 1
103 17 1
103 19 1
103 22 1
103 23 1
103 25 1
103 27 1
103 28 1
103 34 1
103 36 1
103 37 1
103 42 1
103 43 1
103 46 1
103 47 1
103 48 1
103 50 1
103 52 1
103 55 1
103 56 1
103 57 1
103 60 1
103 62 1
103 63 1
103 64 1
103 65 1
103 68 1
103 71 1
103 73 1
103 74 1
103 75 1
103 76 1
103 79 1
103 80 1
103 85 1
103 86 1
103 88 1
103 92 1
103 93 1
103 95 1
103 99 1
103 100 1
103 101 1
103 102 1
103 107 1
103 109 1
103 113 1
103 115 1
103 118 1
103 120 1
103 121 1
103 126 1
103 131 1
103 132 1
103 133 1
103 137 1
103 140 1
103 141 1
103 142 1
103 143 1
103 144 1
103 145 1
103 151 1
103 152 1
103 153 1
103 154 1
103 157 1
103 165 1
103 167 1
103 171 1
103 173 1
103 175 1
103 177 1
103 180 1
103 181 1
103 184 1
103 185 1
103 187 1
103 189 1
103 190 1
103 191 1
103 194 1
103 195 1
103 196 1
103 199 1
103 200 1
103 201 1
103 202 1
103 203 1
103 204 1
103 211 1
103 212 1
103 213 1
103 220 1
103 221 1
103 223 1
103 225 1
103 230 1
103 233 1
103 237 1
103 240 1
103 243 1
103 244 1
103 245 1
103 246 1
103 250 1
103 252 1
103 253 1
103 254 1
103 256 1
103 257 1
103 258 1
103 263 1
103 265 1
103 267 1
103 269 1
103 271 1
103 272 1
103 274 1
103 276 1
103 278 1
103 284 1
103 285 1
103 286 1
103 295 1
103 297 1
103 300 1
103 305 1
103 307 1
103 308 1
103 310 1
103 312 1
103 313 1
103 317 1
103 319 1
103 322 1
103 324 1
103 326 1
103 327 1
103 328 1
103 330 1
103 335 1
103 342 1
103 344 1
103 346 1
103 349 1
103 350 1
103 359 1
103 360 1
103 361 1
103 363 1
103 365 1
103 368 1
103 369 1
103 370 1
103 371 1
103 373 1
103 376 1
103 379 1
103 380 1
103 381 1
103 386 1
103 387 1
103 390 1
103 391 1
103 397 1
104 2 1
104 3 1
104 6 1
104 7 1
104 10 1
104 14 1
104 15 1
104 16 1
104 17 1
104 19 1
104 22 1
104 23 1
104 25 1
104 27 1
104 34 1
104 35 1
104 36 1
104 38 1
104 39 1
104 41 1
104 44 1
104 46 1
104 49 1
104 50 1
104 51 1
104 54 1
104 55 1
104 56 1
104 59 1
104 62 1
104 63 1
104 64 1
104 72 1
104 73 1
104 79 1
104 80 1
104 83 1
104 86 1
104 89 1
104 92 1
104 94 1
104 95 1
104 96 1
104 97 1
104 98 1
104 99 1
104 100 1
104 102 1
104 105 1
104 109 1
104 111 1
104 116 1
104 117 1
104 119 1
104 122 1
104 123 1
104 126 1
104 127 1
104 128 1
104 129 1
104 132 1
104 133 1
104 136 1
104 137 1
104 138 1
104 141 1
104 147 1
104 149 1
104 152 1
104 161 1
104 162 1
104 164 1
104 167 1
104 170 1
104 171 1
104 172 1
104 173 1
104 174 1
104 175 1
104 176 1
104 179 1
104 180 1
104 186 1
104 188 1
104 190 1
104 191 1
104 194 1
104 199 1
104 201 1
104 202 1
104 203 1
104 206 1
104 207 1
104 208 1
104 211 1
104 212 1
104 215 1
104 218 1
104 221 1
104 225 1
104 231 1
104 233 1
104 237 1
104 240 1
104 241 1
104 243 1
104 249 1
104 253 1
104 254 1
104 257 1
104 264 1
104 265 1
104 267 1
104 270 1
104 271 1
104 272 1
104 277 1
104 282 1
104 284 1
104 287 1
104 289 1
104 290 1
104 293 1
104 294 1
104 295 1
104 297 1
104 298 1
104 299 1
104 307 1
104 308 1
104 311 1
104 313 1
104 315 1
104 318 1
104 320 1
104 321 1
104 322 1
104 325 1
104 329 1
104 336 1
104 342 1
104 343 1
104 344 1
104 346 1
104 348 1
104 350 1
104 354 1
104 357 1
104 360 1
104 366 1
104 372 1
104 375 1
104 377 1
104 378 1
104 379 1
104 382 1
104 383 1
104 384 1
104 386 1
104 390 1
104 391 1
104 392 1
104 393 1
104 395 1
104 397 1
104 398 1
104 400 1
105 2 1
105 4 1
105 5 1
105 6 1
105 12 1
105 13 1
105 22 1
105 26 1
105 31 1
105 34 1
105 36 1
105 38 1
105 42 1
105 43 1
105 45 1
105 50 1
105 57 1
105 59 1
105 60 1
105 61 1
105 62 1
105 64 1
105 65 1
105 66 1
105 67 1
105 72 1
105 75 1
105 76 1
105 78 1
105 86 1
105 88 1
105 89 1
105 92 1
105 96 1
105 97 1
105 104 1
105 112 1
105 113 1
105 114 1
105 117 1
105 118 1
105 124 1
105 128 1
105 129 1
105 133 1
105 135 1
105 136 1
105 139 1
105 141 1
105 145 1
105 147 1
105 148 1
105 154 1
105 158 1
105 159 1
105 164 1
105 165 1
105 168 1
105 169 1
105 171 1
105 172 1
105 173 1
105 174 1
105 181 1
105 183 1
105 184 1
105 187 1
105 188 1
105 189 1
105 190 1
105 193 1
105 195 1
105 197 1
105 205 1
105 208 1
105 210 1
105 215 1
105 220 1
105 224 1
105 230 1
105 233 1
105 234 1
105 240 1
105 241 1
105 243 1
105 244 1
105 245 1
105 248 1
105 249 1
105 250 1
105 251 1
105 253 1
105 254 1
105 255 1
105 257 1
105 262 1
105 264 1
105 265 1
105 268 1
105 274 1
105 276 1
105 277 1
105 278 1
105 281 1
105 282 1
105 283 1
105 284 1
105 287 1
105 289 1
105 291 1
105 294 1
105 297 1
105 300 1
105 302 1
105 303 1
105 306 1
105 309 1
105 315 1
105 316 1
105 320 1
105 321 1
105 324 1
105 326 1
105 337 1
105 338 1
105 339 1
105 341 1
105 342 1
105 344 1
105 347 1
105 348 1
105 350 1
105 356 1
105 360 1
105 362 1
105 363 1
105 365 1
105 366 1
105 368 1
105 369 1
105 371 1
105 373 1
105 375 1
105 377 1
105 379 1
105 381 1
105 385 1
105 386 1
105 387 1
105 391 1
105 394 1
106 1 1
106 4 1
106 6 1
106 7 1
106 11 1
106 12 1
106 15 1
106 16 1
106 18 1
106 19 1
106 21 1
106 23 1
106 25 1
106 27 1
106 31 1
106 37 1
106 38 1
106 39 1
106 45 1
106 46 1
106 48 1
106 52 1
106 59 1
106 61 1
106 63 1
106 65 1
106 67 1
106 72 1
106 75 1
106 80 1
106 83 1
106 89 1
106 91 1
106 95 1
106 96 1
106 97 1
106 98 1
106 101 1
106 107 1
106 110 1
106 115 1
106 118 1
106 119 1
106 120 1
106 123 1
106 124 1
106 126 1
106 127 1
106 136 1
106 137 1
106 141 1
106 143 1
106 144 1
106 145 1
106 146 1
106 147 1
106 149 1
106 151 1
106 155 1
106 157 1
106 159 1
106 167 1
106 169 1
106 172 1
106 173 1
106 177 1
106 184 1
106 188 1
106 189 1
106 192 1
106 195 1
106 199 1
106 201 1
106 202 1
106 209 1
106 213 1
106 215 1
106 218 1
106 221 1
106 227 1
106 228 1
106 229 1
106 230 1
106 231 1
106 233 1
106 238 1
106 241 1
106 243 1
106 244 1
106 245 1
106 246 1
106 249 1
106 251 1
106 252 1
106 253 1
106 254 1
106 255 1
106 256 1
106 257 1
106 259 1
106 261 1
106 263 1
106 264 1
106 265 1
106 266 1
106 267 1
106 268 1
106 270 1
106 271 1
106 275 1
106 278 1
106 281 1
106 285 1
106 288 1
106 290 1
106 291 1
106 296 1
106 297 1
106 298 1
106 299 1
106 301 1
106 303 1
106 307 1
106 308 1
106 311 1
106 313 1
106 315 1
106 316 1
106 321 1
106 323 1
106 326 1
106 330 1
106 331 1
106 340 1
106 342 1
106 343 1
106 345 1
106 346 1
106 350 1
106 351 1
106 352 1
106 353 1
106 354 1
106 358 1
106 372 1
106 373 1
106 377 1
106 380 1
106 384 1
106 386 1
106 387 1
106 390 1
106 392 1
106 395 1
107 2 1
107 6 1
107 12 1
107 13 1
107 16 1
107 17 1
107 18 1
107 19 1
107 21 1
107 24 1
107 25 1
107 27 1
107 30 1
107 33 1
107 36 1
107 39 1
107 41 1
107 42 1
107 44 1
107 47 1
107 50 1
107 53 1
107 55 1
107 56 1
107 59 1
107 64 1
107 65 1
107 66 1
107 73 1
107 74 1
107 77 1
107 78 1
107 79 1
107 81 1
107 83 1
107 88 1
107 89 1
107 91 1
107 92 1
107 93 1
107 94 1
107 95 1
107 98 1
107 99 1
107 102 1
107 103 1
107 106 1
107 108 1
107 110 1
107 115 1
107 119 1
107 123 1
107 127 1
107 135 1
107 137 1
107 139 1
107 141 1
107 146 1
107 147 1
107 148 1
107 149 1
107 150 1
107 154 1
107 155 1
107 156 1
107 157 1
107 159 1
107 166 1
107 167 1
107 172 1
107 177 1
107 179 1
107 183 1
107 184 1
107 185 1
107 188 1
107 189 1
107 190 1
107 200 1
107 203 1
107 205 1
107 209 1
107 210 1
107 215 1
107 216 1
107 218 1
107 219 1
107 222 1
107 223 1
107 224 1
107 225 1
107 228 1
107 233 1
107 234 1
107 238 1
107 239 1
107 242 1
107 243 1
107 244 1
107 246 1
107 247 1
107 250 1
107 255 1
107 257 1
107 260 1
107 261 1
107 263 1
107 266 1
107 268 1
107 269 1
107 272 1
107 274 1
107 276 1
107 279 1
107 285 1
107 291 1
107 292 1
107 293 1
107 294 1
107 296 1
107 300 1
107 301 1
107 303 1
107 304 1
107 307 1
107 308 1
107 309 1
107 312 1
107 315 1
107 317 1
107 319 1
107 320 1
107 322 1
107 324 1
107 325 1
107 328 1
107 329 1
107 330 1
107 332 1
107 336 1
107 338 1
107 341 1
107 342 1
107 348 1
107 351 1
107 360 1
107 363 1
107 364 1
107 365 1
107 366 1
107 367 1
107 368 1
107 372 1
107 373 1
107 376 1
107 378 1
107 379 1
107 380 1
107 384 1
107 385 1
107 386 1
107 389 1
107 393 1
107 395 1
107 396 1
107 397 1
107 399 1
107 400 1
108 9 1
108 16 1
108 17 1
108 21 1
108 25 1
108 26 1
108 30 1
108 31 1
108 34 1
108 35 1
108 42 1
108 43 1
108 44 1
108 45 1
108 50 1
108 52 1
108 54 1
108 55 1
108 58 1
108 59 1
108 62 1
108 66 1
108 71 1
108 75 1
108 78 1
108 81 1
108 82 1
108 84 1
108 85 1
108 86 1
108 87 1
108 90 1
108 92 1
108 96 1
108 100 1
108 101 1
108 107 1
108 113 1
108 114 1
108 116 1
108 117 1
108 122 1
108 126 1
108 130 1
108 132 1
108 133 1
108 135 1
108 138 1
108 146 1
108 148 1
108 151 1
108 152 1
108 155 1
108 156 1
108 159 1
108 160 1
108 161 1
108 162 1
108 167 1
108 170 1
108 173 1
108 176 1
108 178 1
108 183 1
108 186 1
108 188 1
108 190 1
108 195 1
108 197 1
108 199 1
108 201 1
108 205 1
108 207 1
108 208 1
108 213 1
108 216 1
108 217 1
108 218 1
108 220 1
108 223 1
108 224 1
108 229 1
108 235 1
108 237 1
108 241 1
108 243 1
108 245 1
108 246 1
108 253 1
108 255 1
108 258 1
108 262 1
108 268 1
108 269 1
108 276 1
108 278 1
108 280 1
108 282 1
108 297 1
108 298 1
108 300 1
108 301 1
108 303 1
108 308 1
108 309 1
108 310 1
108 315 1
108 316 1
108 319 1
108 321 1
108 330 1
108 331 1
108 335 1
108 339 1
108 340 1
108 342 1
108 343 1
108 344 1
108 345 1
108 348 1
108 351 1
108 353 1
108 354 1
108 355 1
108 357 1
108 359 1
108 360 1
108 368 1
108 370 1
108 371 1
108 372 1
108 373 1
108 374 1
108 375 1
108 376 1
108 377 1
108 379 1
108 380 1
108 387 1
108 393 1
108 395 1
108 397 1
108 398 1
108 399 1
108 400 1
109 2 1
109 6 1
109 10 1
109 12 1
109 14 1
109 16 1
109 17 1
109 18 1
109 19 1
109 24 1
109 27 1
109 28 1
109 31 1
109 34 1
109 36 1
109 37 1
109 39 1
109 40 1
109 43 1
109 46 1
109 48 1
109 50 1
109 51 1
109 52 1
109 53 1
109 55 1
109 57 1
109 58 1
109 60 1
109 65 1
109 66 1
109 69 1
109 72 1
109 75 1
109 76 1
109 77 1
109 78 1
109 79 1
109 83 1
109 87 1
109 89 1
109 90 1
109 91 1
109 92 1
109 93 1
109 99 1
109 102 1
109 103 1
109 104 1
109 112 1
109 113 1
109 116 1
109 128 1
109 132 1
109 134 1
109 135 1
109 141 1
109 142 1
109 146 1
109 147 1
109 149 1
109 153 1
109 154 1
109 156 1
109 157 1
109 162 1
109 163 1
109 164 1
109 165 1
109 166 1
109 167 1
109 168 1
109 171 1
109 172 1
109 176 1
109 179 1
109 180 1
109 183 1
109 187 1
109 191 1
109 192 1
109 193 1
109 196 1
109 197 1
109 199 1
109 203 1
109 205 1
109 206 1
109 210 1
109 211 1
109 217 1
109 222 1
109 231 1
109 238 1
109 243 1
109 244 1
109 248 1
109 253 1
109 255 1
109 257 1
109 259 1
109 262 1
109 263 1
109 265 1
109 269 1
109 271 1
109 274 1
109 280 1
109 281 1
109 287 1
109 288 1
109 290 1
109 291 1
109 295 1
109 299 1
109 300 1
109 301 1
109 303 1
109 306 1
109 309 1
109 310 1
109 312 1
109 313 1
109 315 1
109 316 1
109 317 1
109 320 1
109 321 1
109 324 1
109 325 1
109 327 1
109 328 1
109 331 1
109 334 1
109 340 1
109 341 1
109 342 1
109 347 1
109 352 1
109 354 1
109 369 1
109 371 1
109 372 1
109 373 1
109 375 1
109 377 1
109 384 1
109 386 1
109 389 1
109 393 1
109 395 1
110 1 1
110 10 1
110 12 1
110 13 1
110 16 1
110 17 1
110 18 1
110 19 1
110 22 1
110 26 1
110 27 1
110 28 1
110 29 1
110 33 1
110 34 1
110 35 1
110 40 1
110 42 1
110 44 1
110 45 1
110 46 1
110 52 1
110 54 1
110 56 1
110 60 1
110 63 1
110 64 1
110 67 1
110 68 1
110 69 1
110 70 1
110 75 1
110 76 1
110 79 1
110 80 1
110 84 1
110 89 1
110 90 1
110 96 1
110 98 1
110 99 1
110 101 1
110 106 1
110 107 1
110 114 1
110 120 1
110 126 1
110 128 1
110 134 1
110 135 1
110 136 1
110 139 1
110 140 1
110 141 1
110 145 1
110 146 1
110 149 1
110 150 1
110 153 1
110 156 1
110 157 1
110 159 1
110 162 1
110 163 1
110 166 1
110 167 1
110 178 1
110 186 1
110 191 1
110 192 1
110 193 1
110 198 1
110 200 1
110 202 1
110 203 1
110 215 1
110 217 1
110 218 1
110 220 1
110 223 1
110 225 1
110 227 1
110 229 1
110 230 1
110 235 1
110 239 1
110 244 1
110 245 1
110 246 1
110 247 1
110 250 1
110 251 1
110 252 1
110 253 1
110 255 1
110 256 1
110 262 1
110 265 1
110 266 1
110 267 1
110 269 1
110 272 1
110 273 1
110 275 1
110 276 1
110 279 1
110 280 1
110 283 1
110 288 1
110 290 1
110 292 1
110 293 1
110 294 1
110 298 1
110 299 1
110 300 1
110 302 1
110 305 1
110 306 1
110 307 1
110 312 1
110 314 1
110 316 1
110 318 1
110 319 1
110 322 1
110 324 1
110 327 1
110 330 1
110 331 1
110 332 1
110 334 1
110 335 1
110 337 1
110 342 1
110 343 1
110 345 1
110 346 1
110 347 1
110 349 1
110 351 1
110 352 1
110 356 1
110 357 1
110 358 1
110 367 1
110 368 1
110 369 1
110 370 1
110 372 1
110 375 1
110 381 1
110 382 1
110 399 1
111 2 1
111 4 1
111 6 1
111 7 1
111 8 1
111 9 1
111 18 1
111 21 1
111 23 1
111 24 1
111 25 1
111 27 1
111 29 1
111 32 1
111 36 1
111 38 1
111 39 1
111 41 1
111 44 1
111 45 1
111 47 1
111 48 1
111 49 1
111 50 1
111 52 1
111 59 1
111 60 1
111 61 1
111 64 1
111 66 1
111 67 1
111 68 1
111 70 1
111 71 1
111 72 1
111 75 1
111 77 1
111 78 1
111 83 1
111 85 1
111 86 1
111 87 1
111 88 1
111 89 1
111 91 1
111 93 1
111 97 1
111 98 1
111 104 1
111 114 1
111 115 1
111 124 1
111 125 1
111 127 1
111 128 1
111 131 1
111 134 1
111 135 1
111 139 1
111 140 1
111 141 1
111 144 1
111 146 1
111 147 1
111 153 1
111 154 1
111 155 1
111 164 1
111 166 1
111 169 1
111 170 1
111 176 1
111 178 1
111 184 1
111 185 1
111 189 1
111 191 1
111 193 1
111 201 1
111 202 1
111 204 1
111 206 1
111 210 1
111 212 1
111 213 1
111 223 1
111 225 1
111 229 1
111 230 1
111 236 1
111 238 1
111 241 1
111 243 1
111 245 1
111 248 1
111 253 1
111 255 1
111 257 1
111 258 1
111 261 1
111 262 1
111 263 1
111 264 1
111 266 1
111 267 1
111 270 1
111 271 1
111 274 1
111 276 1
111 277 1
111 282 1
111 284 1
111 285 1
111 286 1
111 288 1
111 291 1
111 292 1
111 296 1
111 299 1
111 301 1
111 304 1
111 305 1
111 306 1
111 310 1
111 314 1
111 316 1
111 317 1
111 319 1
111 320 1
111 323 1
111 326 1
111 329 1
111 332 1
111 333 1
111 335 1
111 339 1
111 345 1
111 347 1
111 348 1
111 349 1
111 352 1
111 353 1
111 355 1
111 361 1
111 363 1
111 365 1
111 366 1
111 367 1
111 369 1
111 370 1
111 371 1
111 372 1
111 373 1
111 375 1
111 380 1
111 382 1
111 383 1
111 385 1
111 391 1
111 395 1
111 396 1
111 398 1
112 1 1
112 2 1
112 3 1
112 4 1
112 7 1
112 9 1
112 11 1
112 12 1
112 13 1
112 14 1
112 17 1
112 19 1
112 20 1
112 21 1
112 24 1
112 25 1
112 30 1
112 31 1
112 36 1
112 41 1
112 46 1
112 48 1
112 49 1
112 50 1
112 51 1
112 52 1
112 54 1
112 58 1
112 59 1
112 60 1
112 61 1
112 66 1
112 67 1
112 69 1
112 70 1
112 73 1
112 76 1
112 83 1
112 84 1
112 88 1
112 90 1
112 91 1
112 92 1
112 93 1
112 94 1
112 96 1
112 98 1
112 99 1
112 100 1
112 101 1
112 105 1
112 109 1
112 116 1
112 117 1
112 118 1
112 121 1
112 123 1
112 124 1
112 125 1
112 130 1
112 137 1
112 149 1
112 151 1
112 153 1
112 154 1
112 159 1
112 160 1
112 161 1
112 162 1
112 164 1
112 165 1
112 168 1
112 170 1
112 172 1
112 173 1
112 175 1
112 176 1
112 177 1
112 179 1
112 181 1
112 182 1
112 184 1
112 186 1
112 193 1
112 196 1
112 198 1
112 199 1
112 210 1
112 211 1
112 213 1
112 214 1
112 216 1
112 218 1
112 219 1
112 220 1
112 221 1
112 224 1
112 227 1
112 228 1
112 229 1
112 231 1
112 232 1
112 234 1
112 239 1
112 242 1
112 248 1
112 250 1
112 251 1
112 252 1
112 254 1
112 255 1
112 260 1
112 262 1
112 264 1
112 265 1
112 268 1
112 269 1
112 270 1
112 272 1
112 274 1
112 275 1
112 276 1
112 280 1
112 282 1
112 285 1
112 288 1
112 289 1
112 291 1
112 295 1
112 300 1
112 301 1
112 303 1
112 305 1
112 307 1
112 308 1
112 311 1
112 314 1
112 315 1
112 317 1
112 321 1
112 324 1
112 325 1
112 330 1
112 332 1
112 333 1
112 335 1
112 341 1
112 342 1
112 347 1
112 350 1
112 352 1
112 355 1
112 356 1
112 357 1
112 358 1
112 360 1
112 361 1
112 362 1
112 363 1
112 366 1
112 368 1
112 371 1
112 372 1
112 376 1
112 377 1
112 378 1
112 388 1
112 392 1
112 393 1
112 394 1
112 398 1
112 400 1
113 1 1
113 4 1
113 5 1
113 8 1
113 9 1
113 11 1
113 12 1
113 13 1
113 18 1
113 21 1
113 23 1
113 26 1
113 28 1
113 31 1
113 33 1
113 36 1
113 37 1
113 38 1
113 39 1
113 40 1
113 41 1
113 43 1
113 47 1
113 49 1
113 50 1
113 52 1
113 54 1
113 55 1
113 59 1
113 62 1
113 64 1
113 66 1
113 68 1
113 69 1
113 71 1
113 72 1
113 79 1
113 80 1
113 85 1
113 86 1
113 88 1
113 90 1
113 93 1
113 96 1
113 101 1
113 103 1
113 105 1
113 108 1
113 109 1
113 114 1
113 117 1
113 118 1
113 119 1
113 120 1
113 123 1
113 124 1
113 125 1
113 126 1
113 129 1
113 130 1
113 132 1
113 133 1
113 135 1
113 136 1
113 138 1
113 139 1
113 140 1
113 142 1
113 144 1
113 146 1
113 150 1
113 151 1
113 154 1
113 155 1
113 156 1
113 157 1
113 159 1
113 162 1
113 163 1
113 170 1
113 171 1
113 174 1
113 178 1
113 179 1
113 180 1
113 183 1
113 185 1
113 186 1
113 190 1
113 192 1
113 194 1
113 197 1
113 204 1
113 207 1
113 209 1
113 211 1
113 212 1
113 214 1
113 217 1
113 223 1
113 224 1
113 228 1
113 232 1
113 233 1
113 234 1
113 236 1
113 239 1
113 240 1
113 241 1
113 242 1
113 244 1
113 248 1
113 250 1
113 253 1
113 257 1
113 260 1
113 266 1
113 270 1
113 276 1
113 277 1
113 279 1
113 280 1
113 281 1
113 283 1
113 284 1
113 287 1
113 289 1
113 291 1
113 293 1
113 294 1
113 296 1
113 298 1
113 300 1
113 301 1
113 303 1
113 305 1
113 308 1
113 309 1
113 310 1
113 312 1
113 316 1
113 322 1
113 329 1
113 330 1
113 332 1
113 337 1
113 345 1
113 346 1
113 348 1
113 349 1
113 351 1
113 354 1
113 356 1
113 358 1
113 359 1
113 360 1
113 362 1
113 364 1
113 365 1
113 367 1
113 372 1
113 373 1
113 375 1
113 376 1
113 378 1
113 380 1
113 382 1
113 384 1
113 385 1
113 391 1
113 392 1
113 393 1
113 394 1
113 396 1
113 397 1
113 398 1
113 400 1
114 1 1
114 2 1
114 4 1
114 5 1
114 8 1
114 9 1
114 10 1
114 12 1
114 16 1
114 20 1
114 21 1
114 22 1
114 23 1
114 25 1
114 26 1
114 28 1
114 36 1
114 39 1
114 42 1
114 45 1
114 46 1
114 54 1
114 56 1
114 57 1
114 60 1
114 62 1
114 63 1
114 64 1
114 66 1
114 67 1
114 69 1
114 70 1
114 72 1
114 73 1
114 74 1
114 75 1
114 77 1
114 78 1
114 79 1
114 80 1
114 83 1
114 85 1
114 86 1
114 87 1
114 88 1
114 90 1
114 93 1
114 95 1
114 98 1
114 99 1
114 105 1
114 108 1
114 110 1
114 111 1
114 113 1
114 115 1
114 119 1
114 122 1
114 125 1
114 126 1
114 134 1
114 135 1
114 142 1
114 144 1
114 159 1
114 161 1
114 170 1
114 171 1
114 172 1
114 173 1
114 174 1
114 176 1
114 177 1
114 180 1
114 182 1
114 183 1
114 186 1
114 187 1
114 190 1
114 196 1
114 200 1
114 203 1
114 204 1
114 206 1
114 210 1
114 212 1
114 215 1
114 221 1
114 222 1
114 223 1
114 225 1
114 230 1
114 231 1
114 238 1
114 239 1
114 240 1
114 241 1
114 244 1
114 245 1
114 247 1
114 248 1
114 249 1
114 251 1
114 252 1
114 253 1
114 255 1
114 256 1
114 258 1
114 264 1
114 266 1
114 267 1
114 269 1
114 274 1
114 275 1
114 277 1
114 279 1
114 280 1
114 284 1
114 287 1
114 292 1
114 294 1
114 296 1
114 299 1
114 301 1
114 302 1
114 304 1
114 306 1
114 307 1
114 309 1
114 318 1
114 322 1
114 327 1
114 328 1
114 329 1
114 330 1
114 331 1
114 333 1
114 335 1
114 337 1
114 342 1
114 343 1
114 349 1
114 350 1
114 359 1
114 361 1
114 362 1
114 366 1
114 367 1
114 371 1
114 375 1
114 376 1
114 377 1
114 378 1
114 379 1
114 382 1
114 390 1
114 391 1
114 393 1
114 395 1
115 1 1
115 3 1
115 7 1
115 10 1
115 14 1
115 15 1
115 17 1
115 21 1
115 25 1
115 26 1
115 27 1
115 28 1
115 30 1
115 31 1
115 32 1
115 36 1
115 37 1
115 38 1
115 42 1
115 44 1
115 45 1
115 47 1
115 49 1
115 51 1
115 52 1
115 58 1
115 63 1
115 64 1
115 65 1
115 71 1
115 72 1
115 78 1
115 79 1
115 83 1
115 85 1
115 87 1
115 90 1
115 91 1
115 94 1
115 95 1
115 98 1
115 103 1
115 106 1
115 107 1
115 111 1
115 114 1
115 117 1
115 119 1
115 121 1
115 122 1
115 123 1
115 125 1
115 126 1
115 130 1
115 131 1
115 133 1
115 135 1
115 136 1
115 137 1
115 140 1
115 141 1
115 144 1
115 146 1
115 148 1
115 150 1
115 153 1
115 156 1
115 158 1
115 159 1
115 164 1
115 166 1
115 176 1
115 178 1
115 183 1
115 184 1
115 186 1
115 189 1
115 191 1
115 192 1
115 193 1
115 195 1
115 203 1
115 206 1
115 210 1
115 214 1
115 215 1
115 217 1
115 218 1
115 219 1
115 221 1
115 223 1
115 224 1
115 225 1
115 229 1
115 232 1
115 234 1
115 235 1
115 238 1
115 239 1
115 241 1
115 248 1
115 250 1
115 257 1
115 259 1
115 260 1
115 262 1
115 266 1
115 267 1
115 268 1
115 269 1
115 271 1
115 274 1
115 275 1
115 276 1
115 280 1
115 282 1
115 284 1
115 285 1
115 288 1
115 299 1
115 306 1
115 309 1
115 316 1
115 318 1
115 320 1
115 321 1
115 325 1
115 326 1
115 328 1
115 330 1
115 332 1
115 333 1
115 334 1
115 336 1
115 339 1
115 341 1
115 344 1
115 345 1
115 348 1
115 349 1
115 350 1
115 352 1
115 354 1
115 357 1
115 359 1
115 361 1
115 362 1
115 365 1
115 366 1
115 372 1
115 376 1
115 381 1
115 382 1
115 397 1
115 398 1
115 400 1
116 1 1
116 4 1
116 7 1
116 8 1
116 9 1
116 12 1
116 13 1
116 14 1
116 17 1
116 19 1
116 23 1
116 25 1
116 26 1
116 32 1
116 38 1
116 39 1
116 40 1
116 42 1
116 43 1
116 45 1
116 46 1
116 47 1
116 48 1
116 55 1
116 57 1
116 64 1
116 66 1
116 68 1
116 75 1
116 77 1
116 78 1
116 80 1
116 81 1
116 84 1
116 87 1
116 88 1
116 89 1
116 93 1
116 99 1
116 100 1
116 104 1
116 108 1
116 109 1
116 112 1
116 120 1
116 124 1
116 125 1
116 128 1
116 131 1
116 133 1
116 136 1
116 138 1
116 141 1
116 144 1
116 145 1
116 147 1
116 149 1
116 151 1
116 152 1
116 159 1
116 162 1
116 164 1
116 165 1
116 166 1
116 167 1
116 168 1
116 169 1
116 170 1
116 180 1
116 184 1
116 185 1
116 186 1
116 190 1
116 196 1
116 197 1
116 200 1
116 201 1
116 202 1
116 204 1
116 205 1
116 206 1
116 209 1
116 215 1
116 216 1
116 217 1
116 220 1
116 223 1
116 224 1
116 225 1
116 226 1
116 227 1
116 230 1
116 231 1
116 232 1
116 233 1
116 236 1
116 237 1
116 238 1
116 241 1
116 246 1
116 251 1
116 253 1
116 255 1
116 256 1
116 257 1
116 262 1
116 263 1
116 264 1
116 268 1
116 269 1
116 271 1
116 273 1
116 281 1
116 288 1
116 293 1
116 294 1
116 295 1
116 301 1
116 304 1
116 309 1
116 310 1
116 313 1
116 314 1
116 316 1
116 317 1
116 318 1
116 319 1
116 320 1
116 323 1
116 324 1
116 325 1
116 328 1
116 331 1
116 332 1
116 338 1
116 340 1
116 341 1
116 343 1
116 344 1
116 351 1
116 355 1
116 356 1
116 357 1
116 358 1
116 360 1
116 361 1
116 367 1
116 372 1
116 376 1
116 381 1
116 385 1
116 386 1
116 387 1
116 389 1
116 390 1
116 391 1
116 392 1
116 393 1
116 396 1
116 397 1
116 398 1
117 3 1
117 6 1
117 9 1
117 11 1
117 15 1
117 16 1
117 17 1
117 18 1
117 20 1
117 22 1
117 28 1
117 29 1
117 30 1
117 32 1
117 34 1
117 41 1
117 42 1
117 46 1
117 47 1
117 48 1
117 53 1
117 57 1
117 58 1
117 61 1
117 62 1
117 67 1
117 69 1
117 70 1
117 71 1
117 73 1
117 75 1
117 76 1
117 79 1
117 81 1
117 82 1
117 85 1
117 86 1
117 89 1
117 95 1
117 97 1
117 100 1
117 102 1
117 104 1
117 105 1
117 108 1
117 112 1
117 113 1
117 115 1
117 118 1
117 121 1
117 126 1
117 127 1
117 130 1
117 131 1
117 134 1
117 135 1
117 138 1
117 139 1
117 142 1
117 144 1
117 145 1
117 146 1
117 147 1
117 149 1
117 155 1
117 156 1
117 159 1
117 163 1
117 166 1
117 167 1
117 168 1
117 174 1
117 176 1
117 178 1
117 179 1
117 180 1
117 181 1
117 183 1
117 186 1
117 187 1
117 188 1
117 189 1
117 191 1
117 192 1
117 197 1
117 198 1
117 201 1
117 209 1
117 211 1
117 213 1
117 214 1
117 216 1
117 219 1
117 222 1
117 224 1
117 226 1
117 227 1
117 230 1
117 233 1
117 234 1
117 235 1
117 237 1
117 238 1
117 243 1
117 245 1
117 247 1
117 252 1
117 254 1
117 255 1
117 260 1
117 261 1
117 265 1
117 266 1
117 268 1
117 269 1
117 271 1
117 272 1
117 273 1
117 279 1
117 280 1
117 282 1
117 284 1
117 286 1
117 297 1
117 299 1
117 300 1
117 301 1
117 302 1
117 303 1
117 305 1
117 306 1
117 307 1
117 312 1
117 313 1
117 314 1
117 317 1
117 321 1
117 322 1
117 324 1
117 330 1
117 332 1
117 333 1
117 334 1
117 335 1
117 344 1
117 345 1
117 346 1
117 352 1
117 353 1
117 356 1
117 357 1
117 360 1
117 362 1
117 367 1
117 368 1
117 372 1
117 374 1
117 379 1
117 380 1
117 384 1
117 385 1
117 386 1
117 388 1
117 391 1
117 395 1
117 399 1
118 3 1
118 4 1
118 5 1
118 8 1
118 9 1
118 12 1
118 14 1
118 15 1
118 17 1
118 18 1
118 20 1
118 23 1
118 25 1
118 26 1
118 30 1
118 32 1
118 34 1
118 37 1
118 38 1
118 40 1
118 41 1
118 43 1
118 44 1
118 45 1
118 50 1
118 62 1
118 66 1
118 70 1
118 72 1
118 73 1
118 74 1
118 76 1
118 78 1
118 80 1
118 82 1
118 84 1
118 86 1
118 88 1
118 89 1
118 90 1
118 95 1
118 97 1
118 98 1
118 100 1
118 101 1
118 103 1
118 105 1
118 106 1
118 112 1
118 113 1
118 117 1
118 119 1
118 125 1
118 126 1
118 127 1
118 128 1
118 132 1
118 133 1
118 134 1
118 135 1
118 139 1
118 143 1
118 146 1
118 148 1
118 154 1
118 155 1
118 166 1
118 167 1
118 168 1
118 170 1
118 171 1
118 174 1
118 175 1
118 176 1
118 178 1
118 179 1
118 185 1
118 186 1
118 187 1
118 190 1
118 191 1
118 197 1
118 198 1
118 199 1
118 201 1
118 203 1
118 204 1
118 209 1
118 210 1
118 212 1
118 216 1
118 220 1
118 221 1
118 223 1
118 226 1
118 229 1
118 230 1
118 231 1
118 233 1
118 235 1
118 236 1
118 239 1
118 242 1
118 245 1
118 247 1
118 250 1
118 252 1
118 253 1
118 257 1
118 258 1
118 259 1
118 260 1
118 264 1
118 265 1
118 267 1
118 270 1
118 271 1
118 277 1
118 278 1
118 281 1
118 282 1
118 283 1
118 284 1
118 285 1
118 287 1
118 288 1
118 290 1
118 291 1
118 292 1
118 295 1
118 297 1
118 298 1
118 299 1
118 303 1
118 313 1
118 315 1
118 320 1
118 325 1
118 327 1
118 333 1
118 337 1
118 339 1
118 341 1
118 344 1
118 345 1
118 347 1
118 350 1
118 353 1
118 355 1
118 359 1
118 367 1
118 369 1
118 373 1
118 375 1
118 376 1
118 379 1
118 381 1
118 383 1
118 387 1
118 393 1
118 397 1
118 399 1
119 4 1
119 5 1
119 6 1
119 12 1
119 15 1
119 18 1
119 20 1
119 21 1
119 22 1
119 23 1
119 26 1
119 27 1
119 30 1
119 33 1
119 35 1
119 36 1
119 41 1
119 45 1
119 49 1
119 53 1
119 56 1
119 57 1
119 58 1
119 60 1
119 61 1
119 62 1
119 66 1
119 73 1
119 81 1
119 84 1
119 86 1
119 89 1
119 90 1
119 93 1
119 95 1
119 96 1
119 99 1
119 101 1
119 102 1
119 104 1
119 106 1
119 107 1
119 113 1
119 114 1
119 115 1
119 118 1
119 120 1
119 121 1
119 122 1
119 128 1
119 130 1
119 131 1
119 132 1
119 134 1
119 136 1
119 137 1
119 142 1
119 143 1
119 149 1
119 150 1
119 152 1
119 154 1
119 155 1
119 156 1
119 160 1
119 165 1
119 166 1
119 170 1
119 172 1
119 174 1
119 175 1
119 177 1
119 180 1
119 187 1
119 191 1
119 192 1
119 193 1
119 198 1
119 200 1
119 201 1
119 206 1
119 207 1
119 208 1
119 212 1
119 214 1
119 217 1
119 218 1
119 222 1
119 224 1
119 225 1
119 226 1
119 228 1
119 233 1
119 234 1
119 236 1
119 240 1
119 244 1
119 245 1
119 246 1
119 247 1
119 252 1
119 254 1
119 257 1
119 258 1
119 259 1
119 262 1
119 265 1
119 270 1
119 272 1
119 273 1
119 278 1
119 279 1
119 281 1
119 284 1
119 285 1
119 286 1
119 293 1
119 296 1
119 298 1
119 299 1
119 302 1
119 304 1
119 305 1
119 306 1
119 309 1
119 310 1
119 311 1
119 316 1
119 319 1
119 320 1
119 321 1
119 322 1
119 323 1
119 332 1
119 335 1
119 336 1
119 339 1
119 343 1
119 344 1
119 352 1
119 354 1
119 356 1
119 359 1
119 361 1
119 367 1
119 369 1
119 372 1
119 373 1
119 374 1
119 380 1
119 381 1
119 382 1
119 383 1
119 385 1
119 386 1
119 388 1
119 392 1
119 393 1
119 397 1
120 6 1
120 9 1
120 10 1
120 12 1
120 14 1
120 16 1
120 18 1
120 21 1
120 24 1
120 25 1
120 26 1
120 31 1
120 34 1
120 35 1
120 36 1
120 38 1
120 39 1
120 41 1
120 46 1
120 48 1
120 50 1
120 52 1
120 60 1
120 61 1
120 63 1
120 64 1
120 65 1
120 66 1
120 71 1
120 73 1
120 74 1
120 75 1
120 76 1
120 77 1
120 81 1
120 86 1
120 89 1
120 90 1
120 91 1
120 94 1
120 96 1
120 99 1
120 100 1
120 102 1
120 103 1
120 106 1
120 110 1
120 113 1
120 116 1
120 119 1
120 123 1
120 124 1
120 125 1
120 127 1
120 130 1
120 131 1
120 132 1
120 136 1
120 138 1
120 140 1
120 141 1
120 143 1
120 147 1
120 148 1
120 150 1
120 152 1
120 153 1
120 155 1
120 157 1
120 158 1
120 160 1
120 161 1
120 163 1
120 166 1
120 168 1
120 169 1
120 170 1
120 174 1
120 175 1
120 176 1
120 178 1
120 184 1
120 185 1
120 187 1
120 189 1
120 191 1
120 196 1
120 198 1
120 199 1
120 200 1
120 201 1
120 202 1
120 204 1
120 207 1
120 210 1
120 211 1
120 212 1
120 216 1
120 217 1
120 218 1
120 219 1
120 221 1
120 222 1
120 223 1
120 227 1
120 228 1
120 231 1
120 232 1
120 234 1
120 235 1
120 239 1
120 241 1
120 242 1
120 246 1
120 249 1
120 250 1
120 253 1
120 255 1
120 258 1
120 261 1
120 262 1
120 265 1
120 266 1
120 267 1
120 268 1
120 269 1
120 270 1
120 273 1
120 274 1
120 276 1
120 277 1
120 279 1
120 280 1
120 281 1
120 284 1
120 296 1
120 297 1
120 298 1
120 299 1
120 301 1
120 303 1
120 304 1
120 305 1
120 306 1
120 307 1
120 309 1
120 310 1
120 314 1
120 315 1
120 318 1
120 319 1
120 321 1
120 322 1
120 324 1
120 325 1
120 326 1
120 328 1
120 329 1
120 330 1
120 331 1
120 332 1
120 335 1
120 336 1
120 342 1
120 343 1
120 344 1
120 345 1
120 351 1
120 355 1
120 357 1
120 358 1
120 360 1
120 361 1
120 362 1
120 363 1
120 364 1
120 375 1
120 377 1
120 378 1
120 379 1
120 381 1
120 392 1
120 393 1
120 396 1
120 397 1
120 399 1
121 6 1
121 7 1
121 8 1
121 9 1
121 10 1
121 11 1
121 12 1
121 13 1
121 14 1
121 15 1
121 21 1
121 25 1
121 28 1
121 29 1
121 30 1
121 40 1
121 43 1
121 45 1
121 48 1
121 57 1
121 63 1
121 66 1
121 69 1
121 72 1
121 73 1
121 74 1
121 75 1
121 78 1
121 79 1
121 80 1
121 81 1
121 85 1
121 86 1
121 88 1
121 89 1
121 90 1
121 91 1
121 92 1
121 93 1
121 99 1
121 101 1
121 102 1
121 103 1
121 112 1
121 115 1
121 117 1
121 119 1
121 122 1
121 125 1
121 131 1
121 137 1
121 140 1
121 142 1
121 144 1
121 149 1
121 150 1
121 156 1
121 157 1
121 161 1
121 162 1
121 164 1
121 165 1
121 168 1
121 171 1
121 173 1
121 174 1
121 176 1
121 179 1
121 180 1
121 181 1
121 183 1
121 184 1
121 186 1
121 188 1
121 189 1
121 190 1
121 193 1
121 194 1
121 198 1
121 200 1
121 201 1
121 203 1
121 205 1
121 206 1
121 211 1
121 212 1
121 213 1
121 215 1
121 217 1
121 223 1
121 224 1
121 225 1
121 229 1
121 230 1
121 232 1
121 234 1
121 238 1
121 249 1
121 250 1
121 251 1
121 253 1
121 255 1
121 256 1
121 257 1
121 263 1
121 268 1
121 272 1
121 273 1
121 274 1
121 281 1
121 283 1
121 285 1
121 291 1
121 292 1
121 300 1
121 301 1
121 305 1
121 309 1
121 310 1
121 313 1
121 318 1
121 320 1
121 323 1
121 324 1
121 326 1
121 327 1
121 329 1
121 331 1
121 332 1
121 333 1
121 334 1
121 336 1
121 340 1
121 341 1
121 342 1
121 343 1
121 349 1
121 350 1
121 351 1
121 355 1
121 356 1
121 357 1
121 359 1
121 363 1
121 367 1
121 368 1
121 371 1
121 374 1
121 377 1
121 379 1
121 381 1
121 382 1
121 384 1
121 386 1
121 388 1
121 389 1
121 390 1
121 392 1
121 396 1
121 397 1
121 398 1
121 399 1
122 3 1
122 8 1
122 11 1
122 15 1
122 21 1
122 24 1
122 26 1
122 27 1
122 30 1
122 31 1
122 33 1
122 36 1
122 37 1
122 39 1
122 44 1
122 47 1
122 49 1
122 51 1
122 52 1
122 53 1
122 55 1
122 56 1
122 58 1
122 61 1
122 63 1
122 64 1
122 67 1
122 69 1
122 70 1
122 72 1
122 74 1
122 75 1
122 81 1
122 87 1
122 90 1
122 91 1
122 93 1
122 94 1
122 95 1
122 97 1
122 100 1
122 104 1
122 108 1
122 114 1
122 115 1
122 119 1
122 121 1
122 123 1
122 125 1
122 126 1
122 129 1
122 131 1
122 135 1
122 137 1
122 140 1
122 141 1
122 142 1
122 147 1
122 149 1
122 152 1
122 153 1
122 154 1
122 157 1
122 162 1
122 165 1
122 166 1
122 168 1
122 170 1
122 171 1
122 176 1
122 179 1
122 182 1
122 183 1
122 185 1
122 186 1
122 187 1
122 189 1
122 190 1
122 194 1
122 200 1
122 201 1
122 202 1
122 203 1
122 204 1
122 207 1
122 208 1
122 211 1
122 212 1
122 213 1
122 215 1
122 216 1
122 217 1
122 219 1
122 222 1
122 223 1
122 225 1
122 226 1
122 232 1
122 233 1
122 234 1
122 235 1
122 238 1
122 239 1
122 242 1
122 245 1
122 246 1
122 249 1
122 252 1
122 253 1
122 254 1
122 255 1
122 257 1
122 264 1
122 271 1
122 273 1
122 275 1
122 276 1
122 277 1
122 280 1
122 283 1
122 286 1
122 287 1
122 288 1
122 289 1
122 293 1
122 296 1
122 300 1
122 301 1
122 302 1
122 308 1
122 311 1
122 315 1
122 317 1
122 318 1
122 322 1
122 323 1
122 325 1
122 326 1
122 332 1
122 337 1
122 340 1
122 345 1
122 346 1
122 348 1
122 349 1
122 351 1
122 352 1
122 355 1
122 356 1
122 357 1
122 359 1
122 361 1
122 362 1
122 363 1
122 369 1
122 371 1
122 376 1
122 380 1
122 382 1
122 383 1
122 385 1
122 389 1
122 390 1
123 2 1
123 4 1
123 5 1
123 8 1
123 10 1
123 13 1
123 14 1
123 18 1
123 20 1
123 21 1
123 24 1
123 26 1
123 27 1
123 29 1
123 30 1
123 33 1
123 34 1
123 36 1
123 38 1
123 40 1
123 41 1
123 43 1
123 45 1
123 49 1
123 53 1
123 54 1
123 57 1
123 58 1
123 59 1
123 61 1
123 62 1
123 67 1
123 74 1
123 78 1
123 79 1
123 81 1
123 87 1
123 95 1
123 99 1
123 100 1
123 101 1
123 102 1
123 104 1
123 106 1
123 107 1
123 112 1
123 113 1
123 115 1
123 120 1
123 122 1
123 124 1
123 128 1
123 130 1
123 132 1
123 134 1
123 135 1
123 137 1
123 139 1
123 140 1
123 141 1
123 146 1
123 150 1
123 151 1
123 152 1
123 158 1
123 159 1
123 162 1
123 164 1
123 165 1
123 169 1
123 170 1
123 174 1
123 175 1
123 176 1
123 177 1
123 183 1
123 185 1
123 186 1
123 187 1
123 189 1
123 190 1
123 192 1
123 193 1
123 194 1
123 198 1
123 200 1
123 204 1
123 205 1
123 210 1
123 211 1
123 212 1
123 214 1
123 216 1
123 218 1
123 220 1
123 226 1
123 230 1
123 231 1
123 232 1
123 233 1
123 237 1
123 238 1
123 246 1
123 250 1
123 255 1
123 256 1
123 261 1
123 264 1
123 265 1
123 269 1
123 278 1
123 284 1
123 287 1
123 296 1
123 297 1
123 298 1
123 303 1
123 304 1
123 305 1
123 306 1
123 307 1
123 308 1
123 310 1
123 314 1
123 316 1
123 318 1
123 319 1
123 320 1
123 321 1
123 322 1
123 324 1
123 326 1
123 327 1
123 332 1
123 333 1
123 339 1
123 340 1
123 345 1
123 350 1
123 351 1
123 353 1
123 354 1
123 355 1
123 359 1
123 360 1
123 366 1
123 367 1
123 368 1
123 374 1
123 376 1
123 378 1
123 387 1
123 388 1
123 389 1
123 390 1
123 395 1
123 396 1
123 397 1
124 8 1
124 10 1
124 12 1
124 18 1
124 19 1
124 21 1
124 24 1
124 29 1
124 37 1
124 39 1
124 42 1
124 43 1
124 47 1
124 48 1
124 50 1
124 58 1
124 59 1
124 64 1
124 65 1
124 75 1
124 79 1
124 80 1
124 82 1
124 84 1
124 87 1
124 88 1
124 89 1
124 94 1
124 98 1
124 105 1
124 106 1
124 111 1
124 112 1
124 113 1
124 116 1
124 120 1
124 123 1
124 126 1
124 129 1
124 132 1
124 133 1
124 134 1
124 136 1
124 137 1
124 139 1
124 140 1
124 147 1
124 148 1
124 151 1
124 154 1
124 155 1
124 156 1
124 160 1
124 161 1
124 162 1
124 164 1
124 165 1
124 167 1
124 170 1
124 172 1
124 173 1
124 175 1
124 177 1
124 182 1
124 183 1
124 187 1
124 191 1
124 193 1
124 198 1
124 203 1
124 207 1
124 211 1
124 213 1
124 214 1
124 218 1
124 222 1
124 224 1
124 230 1
124 231 1
124 234 1
124 235 1
124 237 1
124 240 1
124 241 1
124 244 1
124 249 1
124 252 1
124 255 1
124 257 1
124 262 1
124 265 1
124 267 1
124 268 1
124 269 1
124 270 1
124 272 1
124 273 1
124 275 1
124 279 1
124 280 1
124 281 1
124 283 1
124 287 1
124 288 1
124 289 1
124 291 1
124 293 1
124 294 1
124 295 1
124 299 1
124 300 1
124 301 1
124 304 1
124 305 1
124 307 1
124 314 1
124 315 1
124 316 1
124 318 1
124 319 1
124 326 1
124 328 1
124 329 1
124 333 1
124 334 1
124 335 1
124 339 1
124 342 1
124 343 1
124 347 1
124 348 1
124 349 1
124 350 1
124 351 1
124 353 1
124 354 1
124 355 1
124 365 1
124 367 1
124 372 1
124 380 1
124 383 1
124 387 1
124 388 1
124 389 1
124 390 1
124 392 1
124 395 1
124 396 1
124 397 1
124 399 1
125 2 1
125 3 1
125 5 1
125 7 1
125 9 1
125 10 1
125 12 1
125 14 1
125 15 1
125 16 1
125 19 1
125 20 1
125 21 1
125 23 1
125 24 1
125 26 1
125 27 1
125 28 1
125 31 1
125 32 1
125 34 1
125 37 1
125 38 1
125 41 1
125 44 1
125 45 1
125 47 1
125 50 1
125 55 1
125 57 1
125 70 1
125 74 1
125 77 1
125 78 1
125 81 1
125 87 1
125 95 1
125 97 1
125 98 1
125 99 1
125 111 1
125 112 1
125 113 1
125 114 1
125 115 1
125 116 1
125 118 1
125 120 1
125 121 1
125 122 1
125 130 1
125 133 1
125 135 1
125 136 1
125 137 1
125 138 1
125 139 1
125 145 1
125 150 1
125 152 1
125 156 1
125 157 1
125 162 1
125 165 1
125 166 1
125 168 1
125 170 1
125 179 1
125 180 1
125 187 1
125 189 1
125 192 1
125 193 1
125 195 1
125 203 1
125 205 1
125 206 1
125 207 1
125 211 1
125 213 1
125 215 1
125 221 1
125 223 1
125 225 1
125 229 1
125 230 1
125 231 1
125 232 1
125 234 1
125 239 1
125 242 1
125 244 1
125 245 1
125 249 1
125 256 1
125 258 1
125 259 1
125 261 1
125 263 1
125 264 1
125 266 1
125 269 1
125 271 1
125 272 1
125 273 1
125 277 1
125 284 1
125 285 1
125 288 1
125 289 1
125 292 1
125 295 1
125 297 1
125 298 1
125 299 1
125 300 1
125 301 1
125 303 1
125 313 1
125 314 1
125 321 1
125 322 1
125 323 1
125 324 1
125 328 1
125 333 1
125 335 1
125 339 1
125 341 1
125 342 1
125 343 1
125 344 1
125 348 1
125 355 1
125 357 1
125 361 1
125 363 1
125 364 1
125 367 1
125 369 1
125 377 1
125 378 1
125 380 1
125 382 1
125 383 1
125 384 1
125 385 1
125 386 1
125 391 1
125 398 1
125 400 1
126 1 1
126 2 1
126 3 1
126 6 1
126 7 1
126 8 1
126 9 1
126 12 1
126 14 1
126 15 1
126 24 1
126 28 1
126 31 1
126 33 1
126 34 1
126 41 1
126 42 1
126 43 1
126 45 1
126 47 1
126 48 1
126 49 1
126 50 1
126 52 1
126 56 1
126 59 1
126 61 1
126 62 1
126 63 1
126 65 1
126 66 1
126 67 1
126 68 1
126 69 1
126 70 1
126 71 1
126 72 1
126 73 1
126 75 1
126 76 1
126 79 1
126 82 1
126 83 1
126 85 1
126 86 1
126 87 1
126 89 1
126 91 1
126 95 1
126 99 1
126 100 1
126 103 1
126 104 1
126 106 1
126 108 1
126 110 1
126 113 1
126 114 1
126 115 1
126 117 1
126 118 1
126 122 1
126 124 1
126 132 1
126 136 1
126 137 1
126 138 1
126 140 1
126 145 1
126 149 1
126 151 1
126 154 1
126 156 1
126 159 1
126 160 1
126 165 1
126 167 1
126 168 1
126 176 1
126 177 1
126 179 1
126 181 1
126 183 1
126 185 1
126 189 1
126 192 1
126 193 1
126 197 1
126 198 1
126 199 1
126 200 1
126 201 1
126 205 1
126 206 1
126 209 1
126 210 1
126 216 1
126 218 1
126 227 1
126 229 1
126 231 1
126 232 1
126 233 1
126 234 1
126 237 1
126 238 1
126 240 1
126 242 1
126 246 1
126 248 1
126 250 1
126 251 1
126 260 1
126 262 1
126 264 1
126 268 1
126 274 1
126 275 1
126 279 1
126 283 1
126 284 1
126 285 1
126 288 1
126 289 1
126 291 1
126 292 1
126 294 1
126 303 1
126 307 1
126 309 1
126 313 1
126 314 1
126 315 1
126 316 1
126 318 1
126 319 1
126 321 1
126 325 1
126 326 1
126 327 1
126 328 1
126 332 1
126 334 1
126 335 1
126 336 1
126 339 1
126 340 1
126 341 1
126 342 1
126 343 1
126 346 1
126 348 1
126 350 1
126 351 1
126 352 1
126 354 1
126 357 1
126 358 1
126 363 1
126 368 1
126 370 1
126 372 1
126 373 1
126 374 1
126 376 1
126 377 1
126 382 1
126 383 1
126 387 1
126 389 1
126 391 1
126 393 1
126 395 1
126 400 1
127 1 1
127 2 1
127 4 1
127 6 1
127 8 1
127 9 1
127 12 1
127 13 1
127 15 1
127 19 1
127 22 1
127 23 1
127 28 1
127 30 1
127 32 1
127 37 1
127 38 1
127 39 1
127 48 1
127 51 1
127 54 1
127 60 1
127 61 1
127 65 1
127 67 1
127 69 1
127 78 1
127 79 1
127 87 1
127 92 1
127 93 1
127 96 1
127 97 1
127 98 1
127 100 1
127 104 1
127 106 1
127 107 1
127 111 1
127 117 1
127 118 1
127 120 1
127 129 1
127 132 1
127 134 1
127 135 1
127 136 1
127 137 1
127 140 1
127 143 1
127 144 1
127 146 1
127 149 1
127 150 1
127 151 1
127 152 1
127 156 1
127 157 1
127 161 1
127 163 1
127 171 1
127 174 1
127 177 1
127 180 1
127 192 1
127 193 1
127 194 1
127 201 1
127 202 1
127 204 1
127 206 1
127 209 1
127 216 1
127 220 1
127 223 1
127 225 1
127 228 1
127 231 1
127 233 1
127 245 1
127 248 1
127 249 1
127 252 1
127 256 1
127 259 1
127 264 1
127 266 1
127 269 1
127 272 1
127 275 1
127 278 1
127 280 1
127 283 1
127 284 1
127 287 1
127 288 1
127 290 1
127 291 1
127 294 1
127 295 1
127 296 1
127 298 1
127 301 1
127 304 1
127 305 1
127 313 1
127 314 1
127 316 1
127 317 1
127 322 1
127 323 1
127 324 1
127 325 1
127 327 1
127 328 1
127 332 1
127 334 1
127 335 1
127 337 1
127 340 1
127 341 1
127 343 1
127 346 1
127 355 1
127 356 1
127 357 1
127 358 1
127 359 1
127 362 1
127 366 1
127 370 1
127 377 1
127 379 1
127 380 1
127 382 1
127 385 1
127 391 1
127 393 1
127 394 1
127 398 1
128 6 1
128 8 1
128 11 1
128 13 1
128 15 1
128 17 1
128 18 1
128 20 1
128 21 1
128 26 1
128 27 1
128 33 1
128 34 1
128 37 1
128 40 1
128 41 1
128 48 1
128 49 1
128 50 1
128 58 1
128 61 1
128 62 1
128 72 1
128 75 1
128 76 1
128 77 1
128 79 1
128 80 1
128 85 1
128 87 1
128 88 1
128 93 1
128 94 1
128 95 1
128 97 1
128 99 1
128 101 1
128 102 1
128 104 1
128 105 1
128 109 1
128 110 1
128 111 1
128 116 1
128 118 1
128 119 1
128 123 1
128 129 1
128 131 1
128 133 1
128 136 1
128 137 1
128 139 1
128 140 1
128 144 1
128 145 1
128 146 1
128 147 1
128 148 1
128 149 1
128 152 1
128 154 1
128 156 1
128 157 1
128 160 1
128 163 1
128 164 1
128 169 1
128 173 1
128 176 1
128 179 1
128 189 1
128 193 1
128 195 1
128 196 1
128 197 1
128 200 1
128 202 1
128 205 1
128 208 1
128 212 1
128 214 1
128 216 1
128 217 1
128 223 1
128 228 1
128 231 1
128 234 1
128 237 1
128 240 1
128 241 1
128 245 1
128 247 1
128 250 1
128 251 1
128 252 1
128 253 1
128 255 1
128 256 1
128 257 1
128 259 1
128 263 1
128 264 1
128 265 1
128 267 1
128 274 1
128 275 1
128 276 1
128 280 1
128 282 1
128 283 1
128 285 1
128 286 1
128 287 1
128 288 1
128 289 1
128 294 1
128 296 1
128 298 1
128 300 1
128 303 1
128 305 1
128 306 1
128 307 1
128 308 1
128 315 1
128 320 1
128 322 1
128 326 1
128 328 1
128 329 1
128 332 1
128 337 1
128 340 1
128 344 1
128 346 1
128 349 1
128 350 1
128 352 1
128 357 1
128 359 1
128 362 1
128 363 1
128 364 1
128 374 1
128 375 1
128 379 1
128 381 1
128 385 1
128 390 1
128 395 1
129 1 1
129 5 1
129 6 1
129 11 1
129 14 1
129 17 1
129 20 1
129 21 1
129 24 1
129 25 1
129 33 1
129 34 1
129 38 1
129 40 1
129 45 1
129 49 1
129 56 1
129 57 1
129 58 1
129 59 1
129 60 1
129 61 1
129 63 1
129 66 1
129 68 1
129 72 1
129 73 1
129 75 1
129 78 1
129 79 1
129 80 1
129 81 1
129 83 1
129 85 1
129 87 1
129 91 1
129 92 1
129 96 1
129 97 1
129 99 1
129 104 1
129 105 1
129 113 1
129 122 1
129 124 1
129 127 1
129 128 1
129 130 1
129 131 1
129 134 1
129 139 1
129 142 1
129 143 1
129 145 1
129 146 1
129 151 1
129 152 1
129 153 1
129 157 1
129 158 1
129 159 1
129 161 1
129 165 1
129 173 1
129 176 1
129 177 1
129 181 1
129 182 1
129 183 1
129 184 1
129 185 1
129 189 1
129 190 1
129 191 1
129 192 1
129 193 1
129 197 1
129 198 1
129 199 1
129 200 1
129 202 1
129 204 1
129 206 1
129 209 1
129 211 1
129 213 1
129 218 1
129 221 1
129 223 1
129 225 1
129 226 1
129 229 1
129 230 1
129 232 1
129 234 1
129 235 1
129 237 1
129 239 1
129 241 1
129 242 1
129 243 1
129 247 1
129 248 1
129 249 1
129 250 1
129 251 1
129 253 1
129 254 1
129 255 1
129 256 1
129 260 1
129 261 1
129 263 1
129 264 1
129 267 1
129 268 1
129 271 1
129 272 1
129 275 1
129 281 1
129 282 1
129 285 1
129 286 1
129 287 1
129 288 1
129 291 1
129 292 1
129 296 1
129 298 1
129 302 1
129 304 1
129 306 1
129 311 1
129 314 1
129 317 1
129 319 1
129 321 1
129 326 1
129 328 1
129 331 1
129 335 1
129 336 1
129 338 1
129 341 1
129 348 1
129 349 1
129 351 1
129 354 1
129 355 1
129 357 1
129 358 1
129 360 1
129 363 1
129 364 1
129 365 1
129 367 1
129 369 1
129 371 1
129 372 1
129 376 1
129 377 1
129 379 1
129 382 1
129 384 1
129 386 1
129 387 1
129 391 1
129 392 1
129 394 1
129 395 1
129 396 1
129 399 1
129 400 1
130 2 1
130 4 1
130 5 1
130 7 1
130 11 1
130 13 1
130 15 1
130 16 1
130 17 1
130 19 1
130 22 1
130 25 1
130 27 1
130 30 1
130 33 1
130 34 1
130 37 1
130 38 1
130 42 1
130 47 1
130 50 1
130 51 1
130 52 1
130 54 1
130 56 1
130 61 1
130 69 1
130 71 1
130 72 1
130 73 1
130 78 1
130 79 1
130 85 1
130 88 1
130 93 1
130 96 1
130 98 1
130 102 1
130 108 1
130 112 1
130 113 1
130 115 1
130 117 1
130 119 1
130 120 1
130 123 1
130 125 1
130 129 1
130 132 1
130 133 1
130 134 1
130 135 1
130 137 1
130 138 1
130 141 1
130 146 1
130 149 1
130 150 1
130 153 1
130 154 1
130 167 1
130 168 1
130 170 1
130 172 1
130 176 1
130 180 1
130 181 1
130 182 1
130 183 1
130 186 1
130 188 1
130 189 1
130 192 1
130 193 1
130 194 1
130 199 1
130 201 1
130 202 1
130 205 1
130 206 1
130 208 1
130 210 1
130 212 1
130 213 1
130 214 1
130 215 1
130 216 1
130 218 1
130 220 1
130 222 1
130 225 1
130 230 1
130 234 1
130 238 1
130 240 1
130 241 1
130 245 1
130 247 1
130 252 1
130 253 1
130 255 1
130 257 1
130 259 1
130 261 1
130 262 1
130 264 1
130 266 1
130 269 1
130 270 1
130 271 1
130 273 1
130 275 1
130 277 1
130 280 1
130 282 1
130 285 1
130 290 1
130 291 1
130 292 1
130 294 1
130 298 1
130 302 1
130 305 1
130 311 1
130 317 1
130 318 1
130 319 1
130 321 1
130 325 1
130 328 1
130 330 1
130 331 1
130 332 1
130 333 1
130 335 1
130 336 1
130 337 1
130 341 1
130 345 1
130 350 1
130 354 1
130 356 1
130 358 1
130 360 1
130 363 1
130 366 1
130 367 1
130 369 1
130 370 1
130 376 1
130 378 1
130 379 1
130 382 1
130 384 1
130 393 1
130 396 1
130 400 1
131 3 1
131 7 1
131 8 1
131 10 1
131 11 1
131 12 1
131 13 1
131 16 1
131 17 1
131 18 1
131 20 1
131 23 1
131 24 1
131 29 1
131 30 1
131 32 1
131 33 1
131 39 1
131 41 1
131 42 1
131 43 1
131 46 1
131 47 1
131 50 1
131 52 1
131 54 1
131 55 1
131 56 1
131 57 1
131 63 1
131 64 1
131 65 1
131 68 1
131 70 1
131 71 1
131 73 1
131 74 1
131 78 1
131 79 1
131 83 1
131 87 1
131 88 1
131 89 1
131 90 1
131 98 1
131 102 1
131 103 1
131 111 1
131 115 1
131 116 1
131 117 1
131 119 1
131 120 1
131 121 1
131 122 1
131 128 1
131 129 1
131 132 1
131 135 1
131 140 1
131 141 1
131 144 1
131 149 1
131 150 1
131 152 1
131 156 1
131 158 1
131 175 1
131 176 1
131 178 1
131 179 1
131 180 1
131 181 1
131 183 1
131 184 1
131 185 1
131 191 1
131 194 1
131 196 1
131 197 1
131 198 1
131 202 1
131 204 1
131 207 1
131 214 1
131 216 1
131 218 1
131 219 1
131 224 1
131 226 1
131 227 1
131 228 1
131 229 1
131 233 1
131 234 1
131 241 1
131 242 1
131 246 1
131 248 1
131 250 1
131 252 1
131 255 1
131 256 1
131 257 1
131 260 1
131 261 1
131 267 1
131 269 1
131 276 1
131 279 1
131 281 1
131 282 1
131 284 1
131 285 1
131 288 1
131 289 1
131 294 1
131 295 1
131 296 1
131 298 1
131 301 1
131 304 1
131 305 1
131 307 1
131 311 1
131 312 1
131 319 1
131 324 1
131 325 1
131 326 1
131 327 1
131 332 1
131 336 1
131 341 1
131 343 1
131 346 1
131 348 1
131 351 1
131 353 1
131 357 1
131 358 1
131 359 1
131 361 1
131 363 1
131 364 1
131 367 1
131 368 1
131 373 1
131 377 1
131 380 1
131 384 1
131 385 1
131 387 1
131 390 1
131 391 1
131 392 1
131 397 1
131 399 1
131 400 1
132 1 1
132 3 1
132 15 1
132 19 1
132 20 1
132 22 1
132 23 1
132 27 1
132 28 1
132 29 1
132 33 1
132 36 1
132 38 1
132 40 1
132 47 1
132 52 1
132 53 1
132 56 1
132 60 1
132 62 1
132 63 1
132 66 1
132 67 1
132 68 1
132 69 1
132 70 1
132 72 1
132 74 1
132 78 1
132 82 1
132 83 1
132 90 1
132 92 1
132 94 1
132 96 1
132 99 1
132 103 1
132 104 1
132 108 1
132 109 1
132 113 1
132 118 1
132 119 1
132 120 1
132 123 1
132 124 1
132 126 1
132 127 1
132 130 1
132 131 1
132 139 1
132 141 1
132 142 1
132 144 1
132 146 1
132 147 1
132 150 1
132 151 1
132 156 1
132 157 1
132 159 1
132 161 1
132 162 1
132 164 1
132 168 1
132 171 1
132 172 1
132 175 1
132 176 1
132 177 1
132 178 1
132 179 1
132 180 1
132 182 1
132 183 1
132 184 1
132 188 1
132 189 1
132 191 1
132 193 1
132 197 1
132 199 1
132 209 1
132 212 1
132 213 1
132 218 1
132 219 1
132 222 1
132 223 1
132 224 1
132 229 1
132 231 1
132 233 1
132 234 1
132 252 1
132 254 1
132 259 1
132 263 1
132 267 1
132 268 1
132 271 1
132 272 1
132 276 1
132 279 1
132 283 1
132 284 1
132 286 1
132 288 1
132 292 1
132 297 1
132 300 1
132 302 1
132 305 1
132 306 1
132 308 1
132 309 1
132 310 1
132 314 1
132 315 1
132 317 1
132 323 1
132 325 1
132 327 1
132 330 1
132 334 1
132 338 1
132 348 1
132 349 1
132 352 1
132 358 1
132 362 1
132 367 1
132 370 1
132 373 1
132 374 1
132 375 1
132 379 1
132 382 1
132 388 1
132 390 1
132 392 1
132 394 1
132 395 1
132 400 1
133 4 1
133 8 1
133 9 1
133 11 1
133 13 1
133 14 1
133 16 1
133 18 1
133 21 1
133 25 1
133 29 1
133 30 1
133 31 1
133 35 1
133 37 1
133 38 1
133 40 1
133 41 1
133 42 1
133 43 1
133 47 1
133 49 1
133 50 1
133 56 1
133 58 1
133 63 1
133 66 1
133 69 1
133 71 1
133 73 1
133 78 1
133 87 1
133 90 1
133 91 1
133 95 1
133 96 1
133 99 1
133 101 1
133 103 1
133 104 1
133 105 1
133 108 1
133 113 1
133 115 1
133 116 1
133 118 1
133 124 1
133 125 1
133 128 1
133 130 1
133 136 1
133 139 1
133 142 1
133 143 1
133 144 1
133 146 1
133 147 1
133 149 1
133 150 1
133 156 1
133 157 1
133 160 1
133 162 1
133 163 1
133 174 1
133 178 1
133 179 1
133 181 1
133 182 1
133 184 1
133 186 1
133 189 1
133 195 1
133 198 1
133 200 1
133 204 1
133 206 1
133 208 1
133 211 1
133 212 1
133 217 1
133 221 1
133 223 1
133 225 1
133 228 1
133 233 1
133 235 1
133 244 1
133 246 1
133 247 1
133 252 1
133 253 1
133 254 1
133 256 1
133 257 1
133 260 1
133 263 1
133 267 1
133 268 1
133 269 1
133 270 1
133 271 1
133 272 1
133 276 1
133 282 1
133 283 1
133 286 1
133 289 1
133 304 1
133 305 1
133 306 1
133 307 1
133 308 1
133 311 1
133 312 1
133 315 1
133 316 1
133 317 1
133 320 1
133 326 1
133 327 1
133 328 1
133 329 1
133 331 1
133 333 1
133 336 1
133 339 1
133 340 1
133 341 1
133 342 1
133 344 1
133 347 1
133 354 1
133 356 1
133 357 1
133 359 1
133 360 1
133 366 1
133 374 1
133 381 1
133 384 1
133 385 1
133 386 1
133 388 1
133 389 1
133 391 1
133 394 1
133 396 1
133 397 1
133 400 1
134 7 1
134 8 1
134 10 1
134 17 1
134 18 1
134 24 1
134 28 1
134 34 1
134 36 1
134 38 1
134 40 1
134 41 1
134 45 1
134 46 1
134 50 1
134 54 1
134 56 1
134 61 1
134 63 1
134 66 1
134 69 1
134 70 1
134 71 1
134 72 1
134 73 1
134 74 1
134 76 1
134 82 1
134 83 1
134 85 1
134 87 1
134 88 1
134 90 1
134 98 1
134 109 1
134 110 1
134 111 1
134 114 1
134 117 1
134 118 1
134 119 1
134 123 1
134 124 1
134 127 1
134 129 1
134 130 1
134 136 1
134 137 1
134 139 1
134 147 1
134 148 1
134 151 1
134 152 1
134 157 1
134 162 1
134 163 1
134 164 1
134 167 1
134 168 1
134 171 1
134 173 1
134 174 1
134 179 1
134 184 1
134 189 1
134 190 1
134 192 1
134 193 1
134 196 1
134 198 1
134 205 1
134 206 1
134 208 1
134 209 1
134 211 1
134 216 1
134 223 1
134 224 1
134 225 1
134 228 1
134 230 1
134 232 1
134 235 1
134 236 1
134 242 1
134 244 1
134 251 1
134 255 1
134 256 1
134 258 1
134 262 1
134 265 1
134 266 1
134 272 1
134 274 1
134 275 1
134 276 1
134 282 1
134 285 1
134 292 1
134 295 1
134 297 1
134 300 1
134 303 1
134 305 1
134 307 1
134 309 1
134 311 1
134 312 1
134 315 1
134 318 1
134 320 1
134 323 1
134 325 1
134 326 1
134 327 1
134 330 1
134 332 1
134 334 1
134 336 1
134 337 1
134 344 1
134 345 1
134 353 1
134 354 1
134 355 1
134 358 1
134 361 1
134 366 1
134 370 1
134 371 1
134 376 1
134 378 1
134 381 1
134 389 1
134 390 1
134 391 1
134 394 1
134 396 1
134 397 1
134 400 1
135 1 1
135 11 1
135 12 1
135 16 1
135 18 1
135 19 1
135 20 1
135 28 1
135 29 1
135 34 1
135 35 1
135 36 1
135 38 1
135 41 1
135 42 1
135 47 1
135 48 1
135 49 1
135 52 1
135 54 1
135 56 1
135 59 1
135 60 1
135 64 1
135 65 1
135 67 1
135 68 1
135 70 1
135 72 1
135 74 1
135 79 1
135 82 1
135 86 1
135 87 1
135 93 1
135 98 1
135 99 1
135 105 1
135 107 1
135 108 1
135 109 1
135 110 1
135 111 1
135 113 1
135 114 1
135 115 1
135 117 1
135 118 1
135 122 1
135 123 1
135 125 1
135 127 1
135 130 1
135 131 1
135 137 1
135 138 1
135 141 1
135 144 1
135 145 1
135 148 1
135 151 1
135 156 1
135 159 1
135 161 1
135 162 1
135 170 1
135 171 1
135 172 1
135 175 1
135 177 1
135 181 1
135 182 1
135 183 1
135 185 1
135 186 1
135 187 1
135 188 1
135 189 1
135 190 1
135 191 1
135 193 1
135 197 1
135 200 1
135 202 1
135 204 1
135 207 1
135 208 1
135 211 1
135 212 1
135 219 1
135 221 1
135 222 1
135 223 1
135 225 1
135 226 1
135 232 1
135 234 1
135 236 1
135 242 1
135 246 1
135 247 1
135 252 1
135 253 1
135 254 1
135 257 1
135 258 1
135 261 1
135 262 1
135 266 1
135 267 1
135 268 1
135 271 1
135 273 1
135 276 1
135 279 1
135 280 1
135 281 1
135 284 1
135 285 1
135 288 1
135 289 1
135 293 1
135 294 1
135 295 1
135 297 1
135 298 1
135 303 1
135 305 1
135 306 1
135 307 1
135 310 1
135 313 1
135 314 1
135 315 1
135 321 1
135 322 1
135 323 1
135 324 1
135 330 1
135 331 1
135 332 1
135 336 1
135 345 1
135 350 1
135 351 1
135 352 1
135 353 1
135 358 1
135 359 1
135 360 1
135 361 1
135 363 1
135 368 1
135 371 1
135 374 1
135 376 1
135 379 1
135 380 1
135 384 1
135 385 1
135 387 1
135 388 1
135 391 1
135 392 1
135 393 1
135 394 1
135 396 1
135 399 1
136 1 1
136 3 1
136 4 1
136 5 1
136 8 1
136 12 1
136 14 1
136 16 1
136 18 1
136 20 1
136 22 1
136 24 1
136 27 1
136 30 1
136 33 1
136 34 1
136 36 1
136 38 1
136 43 1
136 46 1
136 52 1
136 56 1
136 58 1
136 66 1
136 72 1
136 74 1
136 77 1
136 78 1
136 81 1
136 83 1
136 84 1
136 85 1
136 86 1
136 87 1
136 91 1
136 95 1
136 97 1
136 99 1
136 104 1
136 105 1
136 106 1
136 110 1
136 113 1
136 115 1
136 116 1
136 119 1
136 120 1
136 124 1
136 125 1
136 126 1
136 127 1
136 128 1
136 133 1
136 134 1
136 137 1
136 140 1
136 141 1
136 145 1
136 146 1
136 147 1
136 153 1
136 159 1
136 163 1
136 164 1
136 166 1
136 168 1
136 170 1
136 173 1
136 174 1
136 179 1
136 181 1
136 183 1
136 187 1
136 189 1
136 190 1
136 198 1
136 200 1
136 203 1
136 207 1
136 208 1
136 209 1
136 212 1
136 215 1
136 217 1
136 218 1
136 219 1
136 220 1
136 222 1
136 224 1
136 225 1
136 230 1
136 233 1
136 236 1
136 237 1
136 239 1
136 240 1
136 242 1
136 244 1
136 245 1
136 246 1
136 251 1
136 252 1
136 257 1
136 262 1
136 264 1
136 265 1
136 266 1
136 275 1
136 276 1
136 280 1
136 281 1
136 282 1
136 286 1
136 288 1
136 289 1
136 292 1
136 293 1
136 294 1
136 300 1
136 301 1
136 304 1
136 312 1
136 313 1
136 314 1
136 317 1
136 318 1
136 321 1
136 322 1
136 324 1
136 326 1
136 327 1
136 328 1
136 330 1
136 332 1
136 333 1
136 335 1
136 338 1
136 339 1
136 341 1
136 345 1
136 346 1
136 350 1
136 352 1
136 354 1
136 359 1
136 360 1
136 364 1
136 365 1
136 369 1
136 373 1
136 376 1
136 378 1
136 380 1
136 384 1
136 385 1
136 386 1
136 390 1
136 391 1
136 393 1
136 395 1
136 396 1
136 397 1
136 400 1
137 5 1
137 9 1
137 11 1
137 12 1
137 13 1
137 15 1
137 20 1
137 21 1
137 22 1
137 23 1
137 25 1
137 28 1
137 32 1
137 37 1
137 38 1
137 40 1
137 41 1
137 44 1
137 45 1
137 50 1
137 52 1
137 55 1
137 68 1
137 69 1
137 71 1
137 72 1
137 73 1
137 74 1
137 78 1
137 79 1
137 80 1
137 81 1
137 84 1
137 87 1
137 90 1
137 93 1
137 94 1
137 99 1
137 101 1
137 103 1
137 104 1
137 106 1
137 107 1
137 112 1
137 115 1
137 119 1
137 121 1
137 122 1
137 123 1
137 124 1
137 125 1
137 126 1
137 127 1
137 128 1
137 130 1
137 134 1
137 135 1
137 136 1
137 139 1
137 140 1
137 143 1
137 146 1
137 148 1
137 150 1
137 154 1
137 155 1
137 156 1
137 158 1
137 159 1
137 163 1
137 164 1
137 167 1
137 168 1
137 169 1
137 170 1
137 173 1
137 174 1
137 175 1
137 176 1
137 178 1
137 179 1
137 180 1
137 182 1
137 185 1
137 187 1
137 188 1
137 191 1
137 193 1
137 196 1
137 197 1
137 198 1
137 201 1
137 204 1
137 208 1
137 210 1
137 212 1
137 213 1
137 215 1
137 216 1
137 219 1
137 223 1
137 224 1
137 225 1
137 226 1
137 232 1
137 236 1
137 237 1
137 241 1
137 242 1
137 245 1
137 246 1
137 247 1
137 250 1
137 253 1
137 255 1
137 258 1
137 259 1
137 260 1
137 261 1
137 264 1
137 265 1
137 266 1
137 267 1
137 269 1
137 270 1
137 271 1
137 274 1
137 276 1
137 277 1
137 278 1
137 281 1
137 282 1
137 283 1
137 286 1
137 287 1
137 288 1
137 289 1
137 290 1
137 292 1
137 298 1
137 299 1
137 302 1
137 303 1
137 304 1
137 309 1
137 310 1
137 313 1
137 314 1
137 316 1
137 320 1
137 324 1
137 326 1
137 330 1
137 332 1
137 333 1
137 334 1
137 335 1
137 337 1
137 340 1
137 341 1
137 343 1
137 344 1
137 345 1
137 347 1
137 348 1
137 349 1
137 360 1
137 362 1
137 367 1
137 369 1
137 374 1
137 379 1
137 380 1
137 383 1
137 384 1
137 387 1
137 396 1
137 397 1
137 398 1
137 400 1
138 1 1
138 2 1
138 3 1
138 4 1
138 5 1
138 6 1
138 7 1
138 8 1
138 10 1
138 11 1
138 12 1
138 14 1
138 15 1
138 22 1
138 25 1
138 28 1
138 32 1
138 33 1
138 34 1
138 36 1
138 39 1
138 40 1
138 42 1
138 44 1
138 46 1
138 48 1
138 50 1
138 54 1
138 56 1
138 60 1
138 63 1
138 65 1
138 71 1
138 74 1
138 75 1
138 76 1
138 80 1
138 85 1
138 89 1
138 92 1
138 93 1
138 94 1
138 96 1
138 98 1
138 99 1
138 104 1
138 108 1
138 113 1
138 116 1
138 117 1
138 120 1
138 125 1
138 126 1
138 130 1
138 135 1
138 140 1
138 144 1
138 147 1
138 150 1
138 151 1
138 153 1
138 159 1
138 161 1
138 162 1
138 166 1
138 172 1
138 173 1
138 174 1
138 176 1
138 180 1
138 182 1
138 184 1
138 185 1
138 190 1
138 194 1
138 195 1
138 203 1
138 204 1
138 205 1
138 206 1
138 207 1
138 208 1
138 209 1
138 210 1
138 211 1
138 222 1
138 223 1
138 225 1
138 227 1
138 231 1
138 232 1
138 234 1
138 239 1
138 243 1
138 244 1
138 247 1
138 249 1
138 251 1
138 254 1
138 256 1
138 257 1
138 262 1
138 264 1
138 265 1
138 268 1
138 269 1
138 270 1
138 271 1
138 282 1
138 284 1
138 286 1
138 287 1
138 289 1
138 292 1
138 295 1
138 298 1
138 300 1
138 301 1
138 303 1
138 304 1
138 307 1
138 310 1
138 311 1
138 314 1
138 315 1
138 316 1
138 319 1
138 321 1
138 322 1
138 325 1
138 327 1
138 331 1
138 332 1
138 334 1
138 335 1
138 336 1
138 341 1
138 342 1
138 344 1
138 347 1
138 352 1
138 353 1
138 355 1
138 358 1
138 360 1
138 361 1
138 365 1
138 367 1
138 371 1
138 373 1
138 378 1
138 379 1
138 382 1
138 383 1
138 384 1
138 392 1
138 394 1
138 395 1
138 396 1
138 397 1
138 399 1
139 6 1
139 7 1
139 8 1
139 9 1
139 11 1
139 12 1
139 13 1
139 17 1
139 18 1
139 22 1
139 25 1
139 26 1
139 27 1
139 29 1
139 30 1
139 31 1
139 32 1
139 33 1
139 37 1
139 38 1
139 41 1
139 43 1
139 44 1
139 53 1
139 55 1
139 59 1
139 62 1
139 63 1
139 65 1
139 66 1
139 70 1
139 72 1
139 76 1
139 77 1
139 80 1
139 81 1
139 83 1
139 84 1
139 92 1
139 93 1
139 95 1
139 105 1
139 107 1
139 110 1
139 111 1
139 113 1
139 117 1
139 118 1
139 123 1
139 124 1
139 125 1
139 128 1
139 129 1
139 132 1
139 133 1
139 134 1
139 137 1
139 143 1
139 145 1
139 146 1
139 151 1
139 152 1
139 153 1
139 154 1
139 156 1
139 157 1
139 158 1
139 159 1
139 160 1
139 161 1
139 169 1
139 173 1
139 177 1
139 178 1
139 181 1
139 185 1
139 191 1
139 193 1
139 197 1
139 198 1
139 199 1
139 200 1
139 202 1
139 207 1
139 211 1
139 214 1
139 217 1
139 221 1
139 222 1
139 226 1
139 228 1
139 233 1
139 234 1
139 235 1
139 237 1
139 239 1
139 240 1
139 243 1
139 244 1
139 246 1
139 248 1
139 250 1
139 252 1
139 255 1
139 258 1
139 260 1
139 261 1
139 262 1
139 265 1
139 266 1
139 269 1
139 270 1
139 271 1
139 273 1
139 274 1
139 275 1
139 279 1
139 281 1
139 285 1
139 287 1
139 289 1
139 290 1
139 293 1
139 295 1
139 300 1
139 301 1
139 305 1
139 307 1
139 309 1
139 312 1
139 313 1
139 314 1
139 321 1
139 325 1
139 327 1
139 330 1
139 333 1
139 334 1
139 338 1
139 339 1
139 340 1
139 342 1
139 343 1
139 345 1
139 347 1
139 352 1
139 353 1
139 354 1
139 356 1
139 357 1
139 362 1
139 364 1
139 367 1
139 368 1
139 374 1
139 375 1
139 378 1
139 379 1
139 381 1
139 383 1
139 386 1
139 390 1
139 393 1
139 394 1
139 395 1
139 396 1
139 397 1
140 2 1
140 3 1
140 6 1
140 7 1
140 8 1
140 13 1
140 18 1
140 24 1
140 25 1
140 28 1
140 33 1
140 37 1
140 39 1
140 41 1
140 44 1
140 45 1
140 51 1
140 53 1
140 54 1
140 58 1
140 59 1
140 63 1
140 69 1
140 73 1
140 77 1
140 80 1
140 82 1
140 84 1
140 85 1
140 88 1
140 103 1
140 110 1
140 111 1
140 113 1
140 115 1
140 120 1
140 121 1
140 122 1
140 123 1
140 124 1
140 126 1
140 127 1
140 128 1
140 131 1
140 136 1
140 137 1
140 138 1
140 143 1
140 144 1
140 150 1
140 152 1
140 153 1
140 157 1
140 163 1
140 165 1
140 166 1
140 169 1
140 170 1
140 172 1
140 173 1
140 178 1
140 186 1
140 187 1
140 190 1
140 191 1
140 192 1
140 196 1
140 200 1
140 201 1
140 203 1
140 207 1
140 208 1
140 219 1
140 224 1
140 225 1
140 229 1
140 230 1
140 236 1
140 238 1
140 240 1
140 241 1
140 242 1
140 247 1
140 253 1
140 254 1
140 257 1
140 258 1
140 265 1
140 267 1
140 268 1
140 270 1
140 271 1
140 273 1
140 281 1
140 287 1
140 291 1
140 293 1
140 297 1
140 298 1
140 299 1
140 300 1
140 318 1
140 319 1
140 320 1
140 321 1
140 323 1
140 324 1
140 326 1
140 330 1
140 331 1
140 332 1
140 338 1
140 339 1
140 340 1
140 341 1
140 343 1
140 348 1
140 349 1
140 350 1
140 351 1
140 352 1
140 356 1
140 357 1
140 361 1
140 362 1
140 365 1
140 368 1
140 370 1
140 371 1
140 372 1
140 374 1
140 381 1
140 384 1
140 388 1
140 390 1
140 391 1
140 393 1
140 394 1
140 397 1
140 398 1
140 400 1
141 1 1
141 3 1
141 4 1
141 5 1
141 6 1
141 7 1
141 9 1
141 10 1
141 11 1
141 17 1
141 20 1
141 21 1
141 22 1
141 23 1
141 26 1
141 27 1
141 31 1
141 34 1
141 35 1
141 36 1
141 37 1
141 39 1
141 44 1
141 45 1
141 50 1
141 51 1
141 52 1
141 54 1
141 57 1
141 63 1
141 64 1
141 75 1
141 77 1
141 81 1
141 82 1
141 83 1
141 86 1
141 87 1
141 89 1
141 91 1
141 96 1
141 99 1
141 103 1
141 104 1
141 105 1
141 106 1
141 107 1
141 109 1
141 110 1
141 111 1
141 115 1
141 116 1
141 120 1
141 122 1
141 123 1
141 130 1
141 131 1
141 132 1
141 135 1
141 136 1
141 143 1
141 144 1
141 150 1
141 151 1
141 152 1
141 153 1
141 154 1
141 156 1
141 157 1
141 163 1
141 165 1
141 166 1
141 167 1
141 169 1
141 176 1
141 177 1
141 178 1
141 183 1
141 185 1
141 192 1
141 193 1
141 194 1
141 197 1
141 198 1
141 199 1
141 202 1
141 204 1
141 205 1
141 209 1
141 212 1
141 215 1
141 221 1
141 222 1
141 223 1
141 224 1
141 225 1
141 226 1
141 227 1
141 228 1
141 230 1
141 231 1
141 232 1
141 234 1
141 235 1
141 241 1
141 242 1
141 243 1
141 244 1
141 245 1
141 251 1
141 256 1
141 262 1
141 264 1
141 265 1
141 267 1
141 272 1
141 275 1
141 277 1
141 281 1
141 282 1
141 286 1
141 288 1
141 294 1
141 298 1
141 307 1
141 308 1
141 312 1
141 319 1
141 322 1
141 330 1
141 331 1
141 332 1
141 333 1
141 334 1
141 343 1
141 344 1
141 348 1
141 349 1
141 350 1
141 351 1
141 356 1
141 357 1
141 358 1
141 360 1
141 361 1
141 363 1
141 364 1
141 367 1
141 369 1
141 374 1
141 376 1
141 378 1
141 379 1
141 381 1
141 386 1
141 388 1
141 390 1
141 392 1
141 393 1
141 397 1
141 398 1
142 2 1
142 3 1
142 5 1
142 12 1
142 14 1
142 17 1
142 18 1
142 20 1
142 21 1
142 22 1
142 24 1
142 25 1
142 27 1
142 28 1
142 35 1
142 36 1
142 38 1
142 40 1
142 42 1
142 43 1
142 47 1
142 50 1
142 52 1
142 57 1
142 58 1
142 60 1
142 63 1
142 64 1
142 68 1
142 70 1
142 72 1
142 73 1
142 74 1
142 75 1
142 78 1
142 79 1
142 84 1
142 86 1
142 87 1
142 88 1
142 89 1
142 91 1
142 92 1
142 93 1
142 94 1
142 97 1
142 98 1
142 99 1
142 101 1
142 103 1
142 109 1
142 113 1
142 114 1
142 117 1
142 119 1
142 121 1
142 122 1
142 129 1
142 132 1
142 133 1
142 145 1
142 148 1
142 151 1
142 152 1
142 156 1
142 158 1
142 160 1
142 161 1
142 164 1
142 166 1
142 167 1
142 169 1
142 173 1
142 175 1
142 178 1
142 179 1
142 181 1
142 184 1
142 185 1
142 186 1
142 187 1
142 191 1
142 192 1
142 193 1
142 194 1
142 197 1
142 198 1
142 199 1
142 202 1
142 204 1
142 211 1
142 213 1
142 216 1
142 220 1
142 221 1
142 222 1
142 223 1
142 231 1
142 233 1
142 236 1
142 238 1
142 239 1
142 242 1
142 244 1
142 246 1
142 252 1
142 259 1
142 261 1
142 264 1
142 267 1
142 271 1
142 273 1
142 274 1
142 280 1
142 281 1
142 282 1
142 283 1
142 284 1
142 286 1
142 288 1
142 290 1
142 292 1
142 293 1
142 297 1
142 299 1
142 300 1
142 301 1
142 302 1
142 303 1
142 304 1
142 305 1
142 307 1
142 311 1
142 321 1
142 323 1
142 325 1
142 328 1
142 329 1
142 330 1
142 332 1
142 334 1
142 335 1
142 336 1
142 337 1
142 340 1
142 342 1
142 346 1
142 348 1
142 351 1
142 357 1
142 361 1
142 363 1
142 365 1
142 371 1
142 372 1
142 373 1
142 375 1
142 376 1
142 377 1
142 378 1
142 379 1
142 380 1
142 381 1
142 384 1
142 388 1
142 390 1
142 391 1
142 395 1
142 396 1
142 397 1
142 399 1
143 1 1
143 2 1
143 4 1
143 8 1
143 10 1
143 13 1
143 15 1
143 18 1
143 19 1
143 20 1
143 22 1
143 27 1
143 32 1
143 34 1
143 35 1
143 39 1
143 46 1
143 47 1
143 48 1
143 49 1
143 52 1
143 54 1
143 58 1
143 60 1
143 63 1
143 65 1
143 66 1
143 67 1
143 68 1
143 71 1
143 75 1
143 76 1
143 78 1
143 83 1
143 84 1
143 85 1
143 89 1
143 90 1
143 91 1
143 92 1
143 100 1
143 102 1
143 103 1
143 106 1
143 118 1
143 119 1
143 120 1
143 127 1
143 129 1
143 133 1
143 137 1
143 139 1
143 140 1
143 141 1
143 144 1
143 146 1
143 147 1
143 149 1
143 151 1
143 152 1
143 154 1
143 161 1
143 162 1
143 163 1
143 171 1
143 172 1
143 175 1
143 176 1
143 181 1
143 182 1
143 183 1
143 184 1
143 185 1
143 186 1
143 188 1
143 194 1
143 195 1
143 196 1
143 199 1
143 201 1
143 202 1
143 206 1
143 208 1
143 209 1
143 214 1
143 217 1
143 221 1
143 226 1
143 229 1
143 230 1
143 232 1
143 234 1
143 235 1
143 240 1
143 241 1
143 243 1
143 245 1
143 247 1
143 248 1
143 251 1
143 254 1
143 255 1
143 256 1
143 258 1
143 259 1
143 260 1
143 261 1
143 262 1
143 263 1
143 265 1
143 266 1
143 269 1
143 272 1
143 273 1
143 279 1
143 282 1
143 284 1
143 285 1
143 290 1
143 291 1
143 292 1
143 294 1
143 295 1
143 296 1
143 297 1
143 298 1
143 300 1
143 301 1
143 305 1
143 307 1
143 308 1
143 309 1
143 310 1
143 312 1
143 313 1
143 316 1
143 318 1
143 319 1
143 320 1
143 321 1
143 322 1
143 324 1
143 326 1
143 330 1
143 333 1
143 335 1
143 338 1
143 339 1
143 340 1
143 341 1
143 343 1
143 344 1
143 345 1
143 347 1
143 348 1
143 349 1
143 351 1
143 353 1
143 354 1
143 361 1
143 364 1
143 366 1
143 371 1
143 374 1
143 375 1
143 376 1
143 377 1
143 378 1
143 384 1
143 386 1
143 387 1
143 389 1
143 390 1
143 395 1
143 396 1
144 2 1
144 4 1
144 5 1
144 7 1
144 11 1
144 14 1
144 15 1
144 17 1
144 19 1
144 20 1
144 25 1
144 26 1
144 30 1
144 32 1
144 34 1
144 35 1
144 38 1
144 39 1
144 41 1
144 50 1
144 51 1
144 54 1
144 55 1
144 57 1
144 58 1
144 59 1
144 61 1
144 64 1
144 69 1
144 72 1
144 75 1
144 78 1
144 79 1
144 82 1
144 84 1
144 85 1
144 87 1
144 88 1
144 89 1
144 90 1
144 93 1
144 94 1
144 96 1
144 97 1
144 98 1
144 100 1
144 101 1
144 102 1
144 103 1
144 106 1
144 111 1
144 113 1
144 114 1
144 115 1
144 116 1
144 117 1
144 121 1
144 127 1
144 128 1
144 131 1
144 132 1
144 133 1
144 135 1
144 138 1
144 140 1
144 141 1
144 143 1
144 148 1
144 150 1
144 153 1
144 156 1
144 165 1
144 166 1
144 169 1
144 170 1
144 171 1
144 173 1
144 177 1
144 178 1
144 179 1
144 180 1
144 183 1
144 185 1
144 191 1
144 192 1
144 193 1
144 194 1
144 202 1
144 203 1
144 209 1
144 210 1
144 212 1
144 216 1
144 222 1
144 227 1
144 228 1
144 236 1
144 238 1
144 239 1
144 240 1
144 246 1
144 247 1
144 257 1
144 261 1
144 265 1
144 266 1
144 271 1
144 273 1
144 276 1
144 277 1
144 278 1
144 283 1
144 289 1
144 292 1
144 293 1
144 296 1
144 299 1
144 300 1
144 303 1
144 306 1
144 307 1
144 311 1
144 314 1
144 320 1
144 322 1
144 323 1
144 324 1
144 326 1
144 328 1
144 329 1
144 330 1
144 332 1
144 333 1
144 335 1
144 338 1
144 339 1
144 340 1
144 343 1
144 344 1
144 349 1
144 350 1
144 353 1
144 357 1
144 358 1
144 361 1
144 362 1
144 365 1
144 368 1
144 370 1
144 377 1
144 379 1
144 381 1
144 383 1
144 385 1
144 386 1
144 387 1
144 388 1
144 389 1
144 390 1
144 394 1
144 398 1
144 399 1
144 400 1
145 1 1
145 3 1
145 4 1
145 6 1
145 7 1
145 8 1
145 10 1
145 12 1
145 14 1
145 16 1
145 20 1
145 21 1
145 28 1
145 29 1
145 30 1
145 31 1
145 32 1
145 34 1
145 35 1
145 36 1
145 37 1
145 38 1
145 40 1
145 43 1
145 49 1
145 50 1
145 52 1
145 53 1
145 54 1
145 60 1
145 61 1
145 62 1
145 65 1
145 67 1
145 72 1
145 73 1
145 74 1
145 77 1
145 79 1
145 82 1
145 84 1
145 85 1
145 87 1
145 92 1
145 93 1
145 94 1
145 99 1
145 100 1
145 101 1
145 103 1
145 105 1
145 106 1
145 110 1
145 116 1
145 117 1
145 125 1
145 126 1
145 128 1
145 129 1
145 135 1
145 136 1
145 139 1
145 142 1
145 147 1
145 150 1
145 154 1
145 160 1
145 164 1
145 166 1
145 167 1
145 175 1
145 177 1
145 178 1
145 179 1
145 180 1
145 183 1
145 185 1
145 188 1
145 192 1
145 194 1
145 197 1
145 198 1
145 199 1
145 200 1
145 208 1
145 209 1
145 212 1
145 213 1
145 214 1
145 216 1
145 217 1
145 218 1
145 219 1
145 223 1
145 224 1
145 225 1
145 226 1
145 231 1
145 232 1
145 233 1
145 235 1
145 237 1
145 239 1
145 240 1
145 246 1
145 247 1
145 251 1
145 255 1
145 260 1
145 262 1
145 263 1
145 264 1
145 267 1
145 268 1
145 269 1
145 270 1
145 272 1
145 274 1
145 275 1
145 276 1
145 277 1
145 279 1
145 283 1
145 291 1
145 296 1
145 303 1
145 304 1
145 305 1
145 306 1
145 307 1
145 310 1
145 311 1
145 315 1
145 316 1
145 317 1
145 318 1
145 320 1
145 323 1
145 327 1
145 329 1
145 330 1
145 331 1
145 333 1
145 334 1
145 338 1
145 340 1
145 341 1
145 346 1
145 349 1
145 351 1
145 352 1
145 357 1
145 358 1
145 360 1
145 364 1
145 368 1
145 370 1
145 372 1
145 373 1
145 376 1
145 382 1
145 387 1
145 397 1
146 1 1
146 2 1
146 5 1
146 6 1
146 8 1
146 10 1
146 12 1
146 14 1
146 15 1
146 17 1
146 18 1
146 22 1
146 24 1
146 27 1
146 28 1
146 29 1
146 30 1
146 31 1
146 35 1
146 36 1
146 37 1
146 38 1
146 42 1
146 43 1
146 50 1
146 52 1
146 53 1
146 57 1
146 59 1
146 60 1
146 61 1
146 62 1
146 64 1
146 65 1
146 66 1
146 69 1
146 70 1
146 71 1
146 72 1
146 73 1
146 74 1
146 75 1
146 76 1
146 81 1
146 85 1
146 87 1
146 88 1
146 90 1
146 91 1
146 92 1
146 94 1
146 96 1
146 97 1
146 99 1
146 106 1
146 107 1
146 108 1
146 109 1
146 110 1
146 111 1
146 113 1
146 115 1
146 117 1
146 118 1
146 123 1
146 127 1
146 128 1
146 129 1
146 130 1
146 132 1
146 133 1
146 136 1
146 137 1
146 139 1
146 143 1
146 150 1
146 151 1
146 153 1
146 154 1
146 158 1
146 169 1
146 170 1
146 174 1
146 177 1
146 178 1
146 179 1
146 182 1
146 183 1
146 184 1
146 185 1
146 187 1
146 188 1
146 190 1
146 194 1
146 197 1
146 198 1
146 199 1
146 202 1
146 208 1
146 218 1
146 219 1
146 220 1
146 224 1
146 225 1
146 229 1
146 233 1
146 235 1
146 242 1
146 244 1
146 245 1
146 248 1
146 249 1
146 250 1
146 254 1
146 255 1
146 256 1
146 259 1
146 262 1
146 263 1
146 266 1
146 278 1
146 279 1
146 284 1
146 290 1
146 294 1
146 295 1
146 301 1
146 304 1
146 306 1
146 308 1
146 310 1
146 313 1
146 314 1
146 315 1
146 316 1
146 322 1
146 324 1
146 329 1
146 330 1
146 331 1
146 332 1
146 333 1
146 334 1
146 340 1
146 342 1
146 343 1
146 344 1
146 345 1
146 346 1
146 347 1
146 348 1
146 349 1
146 353 1
146 362 1
146 363 1
146 366 1
146 371 1
146 372 1
146 373 1
146 390 1
146 392 1
146 393 1
146 394 1
146 395 1
146 398 1
146 399 1
146 400 1
147 5 1
147 6 1
147 15 1
147 21 1
147 23 1
147 24 1
147 25 1
147 27 1
147 28 1
147 31 1
147 33 1
147 34 1
147 36 1
147 37 1
147 38 1
147 55 1
147 56 1
147 58 1
147 59 1
147 68 1
147 69 1
147 72 1
147 73 1
147 76 1
147 78 1
147 81 1
147 83 1
147 88 1
147 89 1
147 93 1
147 94 1
147 95 1
147 98 1
147 101 1
147 104 1
147 105 1
147 106 1
147 107 1
147 109 1
147 111 1
147 116 1
147 117 1
147 120 1
147 122 1
147 124 1
147 128 1
147 132 1
147 133 1
147 134 1
147 136 1
147 138 1
147 143 1
147 145 1
147 150 1
147 152 1
147 157 1
147 163 1
147 165 1
147 168 1
147 169 1
147 170 1
147 177 1
147 182 1
147 185 1
147 188 1
147 189 1
147 190 1
147 195 1
147 196 1
147 198 1
147 200 1
147 203 1
147 209 1
147 211 1
147 212 1
147 214 1
147 215 1
147 216 1
147 219 1
147 220 1
147 228 1
147 229 1
147 230 1
147 238 1
147 244 1
147 249 1
147 251 1
147 252 1
147 254 1
147 255 1
147 256 1
147 261 1
147 263 1
147 267 1
147 270 1
147 272 1
147 273 1
147 274 1
147 275 1
147 284 1
147 291 1
147 293 1
147 295 1
147 297 1
147 303 1
147 311 1
147 315 1
147 316 1
147 320 1
147 321 1
147 334 1
147 335 1
147 336 1
147 341 1
147 345 1
147 347 1
147 349 1
147 350 1
147 351 1
147 352 1
147 353 1
147 355 1
147 357 1
147 359 1
147 361 1
147 363 1
147 364 1
147 365 1
147 370 1
147 373 1
147 375 1
147 378 1
147 380 1
147 385 1
147 390 1
147 395 1
147 398 1
147 399 1
148 1 1
148 2 1
148 4 1
148 5 1
148 7 1
148 8 1
148 9 1
148 13 1
148 14 1
148 15 1
148 16 1
148 17 1
148 18 1
148 19 1
148 20 1
148 23 1
148 27 1
148 29 1
148 31 1
148 34 1
148 36 1
148 37 1
148 40 1
148 42 1
148 43 1
148 45 1
148 49 1
148 51 1
148 53 1
148 54 1
148 57 1
148 58 1
148 59 1
148 62 1
148 64 1
148 67 1
148 69 1
148 70 1
148 71 1
148 72 1
148 74 1
148 84 1
148 89 1
148 90 1
148 97 1
148 99 1
148 101 1
148 105 1
148 107 1
148 108 1
148 115 1
148 118 1
148 120 1
148 124 1
148 128 1
148 134 1
148 135 1
148 137 1
148 142 1
148 144 1
148 150 1
148 154 1
148 155 1
148 157 1
148 160 1
148 163 1
148 164 1
148 165 1
148 166 1
148 168 1
148 170 1
148 172 1
148 175 1
148 179 1
148 182 1
148 183 1
148 184 1
148 189 1
148 191 1
148 192 1
148 194 1
148 195 1
148 199 1
148 201 1
148 205 1
148 206 1
148 208 1
148 209 1
148 210 1
148 211 1
148 213 1
148 218 1
148 219 1
148 221 1
148 225 1
148 226 1
148 227 1
148 228 1
148 230 1
148 233 1
148 243 1
148 244 1
148 246 1
148 249 1
148 250 1
148 256 1
148 263 1
148 264 1
148 265 1
148 266 1
148 272 1
148 274 1
148 277 1
148 280 1
148 281 1
148 289 1
148 292 1
148 300 1
148 302 1
148 307 1
148 310 1
148 311 1
148 312 1
148 315 1
148 316 1
148 318 1
148 319 1
148 326 1
148 327 1
148 331 1
148 332 1
148 333 1
148 335 1
148 341 1
148 342 1
148 344 1
148 349 1
148 350 1
148 352 1
148 353 1
148 356 1
148 358 1
148 361 1
148 362 1
148 370 1
148 372 1
148 375 1
148 376 1
148 381 1
148 385 1
148 390 1
148 392 1
148 393 1
148 399 1
149 3 1
149 4 1
149 8 1
149 9 1
149 10 1
149 12 1
149 13 1
149 16 1
149 18 1
149 24 1
149 25 1
149 26 1
149 31 1
149 34 1
149 35 1
149 39 1
149 40 1
149 42 1
149 44 1
149 49 1
149 53 1
149 56 1
149 57 1
149 59 1
149 63 1
149 65 1
149 69 1
149 70 1
149 71 1
149 72 1
149 75 1
149 76 1
149 78 1
149 83 1
149 86 1
149 87 1
149 96 1
149 98 1
149 99 1
149 104 1
149 106 1
149 107 1
149 109 1
149 110 1
149 112 1
149 116 1
149 117 1
149 119 1
149 121 1
149 122 1
149 126 1
149 127 1
149 128 1
149 130 1
149 131 1
149 133 1
149 143 1
149 150 1
149 152 1
149 153 1
149 155 1
149 156 1
149 158 1
149 159 1
149 162 1
149 166 1
149 168 1
149 171 1
149 174 1
149 181 1
149 182 1
149 190 1
149 191 1
149 192 1
149 193 1
149 194 1
149 199 1
149 204 1
149 206 1
149 207 1
149 209 1
149 210 1
149 213 1
149 214 1
149 215 1
149 225 1
149 226 1
149 227 1
149 230 1
149 231 1
149 234 1
149 235 1
149 238 1
149 239 1
149 242 1
149 244 1
149 246 1
149 248 1
149 257 1
149 258 1
149 259 1
149 261 1
149 264 1
149 267 1
149 268 1
149 269 1
149 270 1
149 272 1
149 273 1
149 274 1
149 275 1
149 276 1
149 277 1
149 278 1
149 280 1
149 283 1
149 284 1
149 285 1
149 290 1
149 293 1
149 299 1
149 302 1
149 306 1
149 309 1
149 310 1
149 313 1
149 314 1
149 318 1
149 320 1
149 327 1
149 329 1
149 331 1
149 333 1
149 338 1
149 346 1
149 348 1
149 352 1
149 353 1
149 355 1
149 359 1
149 361 1
149 365 1
149 367 1
149 370 1
149 371 1
149 372 1
149 373 1
149 374 1
149 375 1
149 376 1
149 377 1
149 379 1
149 380 1
149 382 1
149 385 1
149 390 1
149 392 1
149 394 1
149 398 1
149 400 1
150 1 1
150 2 1
150 4 1
150 9 1
150 11 1
150 13 1
150 14 1
150 18 1
150 21 1
150 23 1
150 26 1
150 27 1
150 28 1
150 31 1
150 32 1
150 34 1
150 40 1
150 41 1
150 45 1
150 47 1
150 54 1
150 55 1
150 57 1
150 59 1
150 62 1
150 64 1
150 67 1
150 68 1
150 69 1
150 72 1
150 73 1
150 80 1
150 87 1
150 88 1
150 89 1
150 92 1
150 98 1
150 99 1
150 100 1
150 107 1
150 110 1
150 113 1
150 115 1
150 119 1
150 120 1
150 121 1
150 123 1
150 125 1
150 127 1
150 130 1
150 131 1
150 132 1
150 133 1
150 137 1
150 138 1
150 140 1
150 141 1
150 144 1
150 145 1
150 146 1
150 147 1
150 148 1
150 149 1
150 154 1
150 156 1
150 157 1
150 164 1
150 165 1
150 166 1
150 169 1
150 170 1
150 174 1
150 175 1
150 179 1
150 181 1
150 182 1
150 184 1
150 185 1
150 187 1
150 188 1
150 189 1
150 190 1
150 191 1
150 192 1
150 193 1
150 194 1
150 195 1
150 202 1
150 203 1
150 204 1
150 205 1
150 207 1
150 208 1
150 210 1
150 213 1
150 222 1
150 224 1
150 225 1
150 226 1
150 227 1
150 230 1
150 234 1
150 235 1
150 243 1
150 248 1
150 250 1
150 255 1
150 257 1
150 258 1
150 260 1
150 266 1
150 273 1
150 276 1
150 277 1
150 281 1
150 282 1
150 284 1
150 286 1
150 288 1
150 289 1
150 294 1
150 296 1
150 297 1
150 298 1
150 300 1
150 301 1
150 305 1
150 306 1
150 307 1
150 309 1
150 311 1
150 313 1
150 314 1
150 315 1
150 316 1
150 320 1
150 321 1
150 322 1
150 326 1
150 327 1
150 328 1
150 333 1
150 337 1
150 338 1
150 341 1
150 345 1
150 346 1
150 349 1
150 350 1
150 353 1
150 354 1
150 361 1
150 364 1
150 366 1
150 367 1
150 368 1
150 369 1
150 370 1
150 371 1
150 373 1
150 374 1
150 379 1
150 380 1
150 382 1
150 384 1
150 387 1
150 389 1
150 392 1
150 395 1
150 400 1
151 7 1
151 9 1
151 10 1
151 12 1
151 14 1
151 16 1
151 18 1
151 19 1
151 26 1
151 27 1
151 28 1
151 29 1
151 30 1
151 31 1
151 32 1
151 33 1
151 35 1
151 36 1
151 37 1
151 39 1
151 40 1
151 44 1
151 47 1
151 48 1
151 50 1
151 52 1
151 54 1
151 62 1
151 63 1
151 66 1
151 68 1
151 69 1
151 70 1
151 74 1
151 75 1
151 76 1
151 78 1
151 87 1
151 91 1
151 92 1
151 93 1
151 96 1
151 97 1
151 98 1
151 99 1
151 101 1
151 102 1
151 103 1
151 106 1
151 108 1
151 112 1
151 113 1
151 116 1
151 123 1
151 124 1
151 126 1
151 127 1
151 129 1
151 132 1
151 134 1
151 135 1
151 138 1
151 139 1
151 141 1
151 142 1
151 143 1
151 146 1
151 155 1
151 157 1
151 164 1
151 169 1
151 170 1
151 171 1
151 172 1
151 174 1
151 177 1
151 178 1
151 182 1
151 183 1
151 187 1
151 200 1
151 201 1
151 204 1
151 205 1
151 206 1
151 211 1
151 223 1
151 226 1
151 229 1
151 231 1
151 232 1
151 235 1
151 238 1
151 240 1
151 243 1
151 245 1
151 250 1
151 251 1
151 255 1
151 257 1
151 258 1
151 259 1
151 260 1
151 262 1
151 263 1
151 268 1
151 271 1
151 274 1
151 278 1
151 279 1
151 280 1
151 281 1
151 282 1
151 283 1
151 285 1
151 289 1
151 293 1
151 295 1
151 296 1
151 300 1
151 302 1
151 304 1
151 309 1
151 312 1
151 313 1
151 314 1
151 316 1
151 317 1
151 318 1
151 319 1
151 321 1
151 324 1
151 325 1
151 327 1
151 329 1
151 331 1
151 332 1
151 335 1
151 336 1
151 337 1
151 338 1
151 343 1
151 345 1
151 346 1
151 350 1
151 351 1
151 353 1
151 354 1
151 355 1
151 356 1
151 359 1
151 362 1
151 368 1
151 369 1
151 371 1
151 372 1
151 373 1
151 374 1
151 377 1
151 378 1
151 383 1
151 384 1
151 385 1
151 386 1
151 387 1
151 391 1
151 393 1
151 395 1
151 399 1
151 400 1
152 2 1
152 3 1
152 8 1
152 13 1
152 19 1
152 20 1
152 21 1
152 23 1
152 24 1
152 25 1
152 27 1
152 28 1
152 38 1
152 40 1
152 41 1
152 42 1
152 50 1
152 54 1
152 55 1
152 56 1
152 60 1
152 61 1
152 65 1
152 70 1
152 73 1
152 74 1
152 75 1
152 81 1
152 82 1
152 83 1
152 84 1
152 86 1
152 91 1
152 92 1
152 94 1
152 98 1
152 102 1
152 103 1
152 104 1
152 108 1
152 116 1
152 119 1
152 120 1
152 122 1
152 123 1
152 125 1
152 127 1
152 128 1
152 129 1
152 131 1
152 134 1
152 139 1
152 140 1
152 141 1
152 142 1
152 143 1
152 147 1
152 149 1
152 158 1
152 164 1
152 166 1
152 168 1
152 170 1
152 171 1
152 172 1
152 176 1
152 179 1
152 182 1
152 189 1
152 190 1
152 191 1
152 192 1
152 196 1
152 201 1
152 202 1
152 205 1
152 206 1
152 209 1
152 213 1
152 214 1
152 215 1
152 219 1
152 221 1
152 224 1
152 228 1
152 229 1
152 231 1
152 233 1
152 236 1
152 239 1
152 240 1
152 241 1
152 247 1
152 251 1
152 252 1
152 253 1
152 254 1
152 259 1
152 264 1
152 267 1
152 270 1
152 274 1
152 279 1
152 280 1
152 281 1
152 283 1
152 286 1
152 287 1
152 290 1
152 294 1
152 299 1
152 300 1
152 304 1
152 307 1
152 310 1
152 311 1
152 312 1
152 313 1
152 314 1
152 317 1
152 320 1
152 321 1
152 322 1
152 327 1
152 328 1
152 329 1
152 335 1
152 340 1
152 343 1
152 351 1
152 352 1
152 353 1
152 355 1
152 356 1
152 366 1
152 367 1
152 369 1
152 370 1
152 378 1
152 379 1
152 380 1
152 382 1
152 383 1
152 385 1
152 387 1
152 388 1
152 389 1
152 390 1
152 392 1
152 393 1
152 396 1
152 400 1
153 7 1
153 10 1
153 12 1
153 14 1
153 16 1
153 21 1
153 22 1
153 24 1
153 27 1
153 29 1
153 33 1
153 34 1
153 38 1
153 44 1
153 48 1
153 50 1
153 53 1
153 54 1
153 57 1
153 58 1
153 59 1
153 60 1
153 64 1
153 69 1
153 70 1
153 74 1
153 77 1
153 83 1
153 84 1
153 87 1
153 90 1
153 94 1
153 96 1
153 98 1
153 103 1
153 109 1
153 110 1
153 111 1
153 112 1
153 115 1
153 120 1
153 122 1
153 129 1
153 130 1
153 136 1
153 138 1
153 139 1
153 140 1
153 141 1
153 144 1
153 146 1
153 149 1
153 159 1
153 160 1
153 163 1
153 164 1
153 168 1
153 169 1
153 171 1
153 174 1
153 175 1
153 179 1
153 180 1
153 181 1
153 187 1
153 188 1
153 189 1
153 190 1
153 191 1
153 192 1
153 193 1
153 194 1
153 195 1
153 200 1
153 202 1
153 203 1
153 204 1
153 205 1
153 206 1
153 207 1
153 208 1
153 212 1
153 213 1
153 216 1
153 217 1
153 222 1
153 224 1
153 229 1
153 230 1
153 232 1
153 233 1
153 235 1
153 236 1
153 237 1
153 238 1
153 239 1
153 240 1
153 242 1
153 243 1
153 244 1
153 250 1
153 252 1
153 254 1
153 256 1
153 257 1
153 260 1
153 262 1
153 265 1
153 269 1
153 271 1
153 273 1
153 274 1
153 276 1
153 281 1
153 285 1
153 287 1
153 288 1
153 289 1
153 293 1
153 294 1
153 296 1
153 299 1
153 300 1
153 301 1
153 302 1
153 303 1
153 305 1
153 306 1
153 307 1
153 308 1
153 310 1
153 312 1
153 313 1
153 314 1
153 316 1
153 317 1
153 320 1
153 325 1
153 329 1
153 337 1
153 343 1
153 344 1
153 347 1
153 349 1
153 350 1
153 352 1
153 354 1
153 355 1
153 356 1
153 358 1
153 359 1
153 360 1
153 364 1
153 365 1
153 367 1
153 368 1
153 373 1
153 375 1
153 377 1
153 378 1
153 381 1
153 382 1
153 383 1
153 385 1
153 386 1
153 390 1
153 391 1
153 392 1
153 393 1
153 395 1
153 397 1
153 398 1
154 1 1
154 4 1
154 5 1
154 9 1
154 11 1
154 13 1
154 14 1
154 15 1
154 25 1
154 28 1
154 29 1
154 33 1
154 34 1
154 37 1
154 41 1
154 42 1
154 44 1
154 47 1
154 51 1
154 52 1
154 53 1
154 54 1
154 58 1
154 59 1
154 60 1
154 64 1
154 71 1
154 72 1
154 76 1
154 79 1
154 81 1
154 82 1
154 83 1
154 84 1
154 89 1
154 90 1
154 93 1
154 94 1
154 96 1
154 99 1
154 103 1
154 105 1
154 107 1
154 109 1
154 111 1
154 112 1
154 113 1
154 118 1
154 119 1
154 122 1
154 124 1
154 126 1
154 128 1
154 130 1
154 137 1
154 139 1
154 141 1
154 143 1
154 145 1
154 146 1
154 148 1
154 150 1
154 156 1
154 157 1
154 160 1
154 164 1
154 166 1
154 172 1
154 173 1
154 177 1
154 184 1
154 185 1
154 189 1
154 192 1
154 193 1
154 194 1
154 195 1
154 199 1
154 200 1
154 201 1
154 202 1
154 204 1
154 206 1
154 207 1
154 210 1
154 211 1
154 215 1
154 216 1
154 218 1
154 219 1
154 220 1
154 224 1
154 226 1
154 231 1
154 234 1
154 236 1
154 239 1
154 241 1
154 244 1
154 246 1
154 249 1
154 250 1
154 253 1
154 255 1
154 256 1
154 262 1
154 265 1
154 266 1
154 271 1
154 272 1
154 274 1
154 276 1
154 278 1
154 280 1
154 281 1
154 284 1
154 286 1
154 288 1
154 289 1
154 290 1
154 292 1
154 294 1
154 296 1
154 298 1
154 300 1
154 304 1
154 307 1
154 308 1
154 310 1
154 312 1
154 315 1
154 316 1
154 317 1
154 318 1
154 322 1
154 323 1
154 324 1
154 325 1
154 326 1
154 329 1
154 330 1
154 331 1
154 339 1
154 340 1
154 345 1
154 346 1
154 347 1
154 349 1
154 353 1
154 354 1
154 359 1
154 361 1
154 376 1
154 378 1
154 381 1
154 382 1
154 386 1
154 388 1
154 389 1
154 391 1
154 394 1
154 395 1
154 396 1
154 400 1
155 1 1
155 3 1
155 4 1
155 7 1
155 8 1
155 10 1
155 11 1
155 17 1
155 18 1
155 20 1
155 22 1
155 26 1
155 30 1
155 31 1
155 32 1
155 35 1
155 36 1
155 39 1
155 40 1
155 42 1
155 46 1
155 47 1
155 49 1
155 50 1
155 51 1
155 52 1
155 56 1
155 57 1
155 59 1
155 62 1
155 68 1
155 69 1
155 71 1
155 73 1
155 74 1
155 82 1
155 83 1
155 87 1
155 88 1
155 89 1
155 90 1
155 91 1
155 96 1
155 97 1
155 106 1
155 107 1
155 108 1
155 111 1
155 113 1
155 117 1
155 118 1
155 119 1
155 120 1
155 124 1
155 137 1
155 148 1
155 149 1
155 151 1
155 160 1
155 162 1
155 164 1
155 168 1
155 169 1
155 171 1
155 174 1
155 180 1
155 182 1
155 183 1
155 184 1
155 191 1
155 192 1
155 194 1
155 195 1
155 197 1
155 200 1
155 201 1
155 202 1
155 204 1
155 206 1
155 208 1
155 209 1
155 211 1
155 212 1
155 214 1
155 215 1
155 216 1
155 217 1
155 218 1
155 219 1
155 220 1
155 224 1
155 227 1
155 229 1
155 230 1
155 233 1
155 234 1
155 236 1
155 238 1
155 241 1
155 243 1
155 244 1
155 255 1
155 257 1
155 260 1
155 261 1
155 264 1
155 267 1
155 268 1
155 269 1
155 271 1
155 272 1
155 273 1
155 275 1
155 276 1
155 277 1
155 281 1
155 285 1
155 288 1
155 291 1
155 292 1
155 295 1
155 297 1
155 298 1
155 304 1
155 305 1
155 311 1
155 316 1
155 317 1
155 318 1
155 320 1
155 321 1
155 322 1
155 323 1
155 324 1
155 325 1
155 331 1
155 332 1
155 337 1
155 342 1
155 344 1
155 351 1
155 352 1
155 354 1
155 359 1
155 363 1
155 364 1
155 369 1
155 375 1
155 377 1
155 380 1
155 386 1
155 387 1
155 389 1
155 393 1
155 394 1
155 395 1
155 400 1
156 3 1
156 4 1
156 5 1
156 7 1
156 11 1
156 13 1
156 16 1
156 17 1
156 18 1
156 20 1
156 21 1
156 26 1
156 27 1
156 30 1
156 32 1
156 33 1
156 34 1
156 37 1
156 40 1
156 46 1
156 49 1
156 53 1
156 58 1
156 68 1
156 69 1
156 74 1
156 78 1
156 80 1
156 84 1
156 87 1
156 88 1
156 89 1
156 95 1
156 98 1
156 107 1
156 108 1
156 109 1
156 110 1
156 113 1
156 115 1
156 117 1
156 119 1
156 121 1
156 124 1
156 125 1
156 126 1
156 127 1
156 128 1
156 131 1
156 132 1
156 133 1
156 135 1
156 137 1
156 139 1
156 141 1
156 142 1
156 144 1
156 149 1
156 150 1
156 154 1
156 164 1
156 167 1
156 168 1
156 169 1
156 174 1
156 178 1
156 179 1
156 181 1
156 186 1
156 188 1
156 189 1
156 191 1
156 192 1
156 196 1
156 203 1
156 205 1
156 210 1
156 212 1
156 218 1
156 219 1
156 220 1
156 221 1
156 222 1
156 225 1
156 226 1
156 230 1
156 237 1
156 238 1
156 239 1
156 240 1
156 241 1
156 243 1
156 244 1
156 245 1
156 251 1
156 253 1
156 254 1
156 256 1
156 260 1
156 262 1
156 272 1
156 273 1
156 275 1
156 276 1
156 279 1
156 281 1
156 285 1
156 288 1
156 291 1
156 292 1
156 293 1
156 295 1
156 301 1
156 312 1
156 313 1
156 314 1
156 318 1
156 320 1
156 325 1
156 328 1
156 330 1
156 338 1
156 340 1
156 346 1
156 350 1
156 353 1
156 358 1
156 359 1
156 360 1
156 361 1
156 362 1
156 365 1
156 368 1
156 371 1
156 372 1
156 374 1
156 375 1
156 380 1
156 381 1
156 382 1
156 383 1
156 384 1
156 386 1
156 389 1
156 390 1
156 391 1
156 396 1
156 400 1
157 2 1
157 4 1
157 7 1
157 12 1
157 23 1
157 24 1
157 25 1
157 26 1
157 27 1
157 31 1
157 32 1
157 35 1
157 36 1
157 37 1
157 38 1
157 39 1
157 41 1
157 42 1
157 46 1
157 47 1
157 48 1
157 49 1
157 51 1
157 52 1
157 53 1
157 54 1
157 56 1
157 58 1
157 60 1
157 61 1
157 62 1
157 64 1
157 66 1
157 70 1
157 72 1
157 77 1
157 78 1
157 81 1
157 82 1
157 83 1
157 84 1
157 90 1
157 93 1
157 95 1
157 100 1
157 103 1
157 106 1
157 107 1
157 109 1
157 110 1
157 113 1
157 120 1
157 121 1
157 122 1
157 125 1
157 127 1
157 128 1
157 129 1
157 132 1
157 133 1
157 134 1
157 139 1
157 140 1
157 141 1
157 147 1
157 148 1
157 150 1
157 151 1
157 154 1
157 158 1
157 160 1
157 162 1
157 163 1
157 165 1
157 171 1
157 172 1
157 173 1
157 174 1
157 175 1
157 177 1
157 184 1
157 187 1
157 188 1
157 189 1
157 191 1
157 199 1
157 200 1
157 203 1
157 207 1
157 208 1
157 211 1
157 212 1
157 214 1
157 215 1
157 216 1
157 218 1
157 221 1
157 223 1
157 228 1
157 231 1
157 232 1
157 237 1
157 239 1
157 241 1
157 248 1
157 250 1
157 252 1
157 254 1
157 255 1
157 257 1
157 259 1
157 260 1
157 261 1
157 263 1
157 266 1
157 268 1
157 270 1
157 274 1
157 277 1
157 278 1
157 280 1
157 282 1
157 283 1
157 286 1
157 288 1
157 289 1
157 290 1
157 291 1
157 293 1
157 300 1
157 302 1
157 303 1
157 304 1
157 305 1
157 306 1
157 307 1
157 308 1
157 310 1
157 311 1
157 315 1
157 316 1
157 318 1
157 328 1
157 330 1
157 331 1
157 332 1
157 334 1
157 335 1
157 337 1
157 345 1
157 348 1
157 349 1
157 350 1
157 351 1
157 352 1
157 354 1
157 357 1
157 358 1
157 359 1
157 362 1
157 363 1
157 364 1
157 372 1
157 374 1
157 375 1
157 376 1
157 377 1
157 380 1
157 381 1
157 384 1
157 386 1
157 387 1
157 388 1
157 399 1
158 5 1
158 7 1
158 13 1
158 14 1
158 15 1
158 16 1
158 17 1
158 19 1
158 20 1
158 23 1
158 38 1
158 41 1
158 44 1
158 50 1
158 51 1
158 52 1
158 54 1
158 58 1
158 59 1
158 60 1
158 61 1
158 65 1
158 70 1
158 71 1
158 73 1
158 76 1
158 81 1
158 83 1
158 89 1
158 90 1
158 94 1
158 95 1
158 97 1
158 100 1
158 105 1
158 115 1
158 120 1
158 123 1
158 129 1
158 131 1
158 137 1
158 139 1
158 142 1
158 146 1
158 149 1
158 152 1
158 157 1
158 164 1
158 165 1
158 167 1
158 169 1
158 172 1
158 173 1
158 175 1
158 176 1
158 177 1
158 180 1
158 182 1
158 188 1
158 190 1
158 191 1
158 192 1
158 193 1
158 198 1
158 204 1
158 209 1
158 211 1
158 212 1
158 214 1
158 216 1
158 218 1
158 219 1
158 220 1
158 226 1
158 231 1
158 233 1
158 236 1
158 239 1
158 240 1
158 241 1
158 248 1
158 249 1
158 250 1
158 251 1
158 260 1
158 265 1
158 268 1
158 270 1
158 271 1
158 272 1
158 277 1
158 280 1
158 281 1
158 284 1
158 286 1
158 288 1
158 290 1
158 291 1
158 294 1
158 296 1
158 297 1
158 303 1
158 305 1
158 309 1
158 310 1
158 312 1
158 313 1
158 314 1
158 316 1
158 324 1
158 326 1
158 327 1
158 331 1
158 332 1
158 333 1
158 334 1
158 335 1
158 338 1
158 341 1
158 347 1
158 349 1
158 353 1
158 355 1
158 358 1
158 360 1
158 363 1
158 372 1
158 374 1
158 377 1
158 379 1
158 384 1
158 385 1
158 388 1
158 391 1
158 397 1
158 398 1
158 399 1
159 4 1
159 6 1
159 8 1
159 10 1
159 20 1
159 21 1
159 23 1
159 24 1
159 31 1
159 32 1
159 34 1
159 40 1
159 45 1
159 46 1
159 52 1
159 53 1
159 55 1
159 56 1
159 57 1
159 60 1
159 61 1
159 64 1
159 66 1
159 67 1
159 70 1
159 71 1
159 77 1
159 79 1
159 80 1
159 81 1
159 83 1
159 85 1
159 87 1
159 89 1
159 92 1
159 95 1
159 97 1
159 98 1
159 100 1
159 105 1
159 106 1
159 107 1
159 108 1
159 110 1
159 112 1
159 113 1
159 114 1
159 115 1
159 116 1
159 117 1
159 123 1
159 126 1
159 129 1
159 132 1
159 135 1
159 136 1
159 137 1
159 138 1
159 139 1
159 149 1
159 153 1
159 160 1
159 163 1
159 172 1
159 173 1
159 174 1
159 177 1
159 184 1
159 186 1
159 193 1
159 195 1
159 198 1
159 200 1
159 201 1
159 203 1
159 208 1
159 210 1
159 213 1
159 214 1
159 216 1
159 218 1
159 223 1
159 226 1
159 227 1
159 228 1
159 229 1
159 232 1
159 240 1
159 246 1
159 247 1
159 249 1
159 252 1
159 253 1
159 255 1
159 257 1
159 259 1
159 261 1
159 264 1
159 270 1
159 271 1
159 275 1
159 277 1
159 279 1
159 286 1
159 287 1
159 288 1
159 291 1
159 293 1
159 295 1
159 297 1
159 298 1
159 299 1
159 301 1
159 302 1
159 303 1
159 304 1
159 307 1
159 308 1
159 309 1
159 311 1
159 316 1
159 317 1
159 318 1
159 319 1
159 320 1
159 325 1
159 326 1
159 330 1
159 336 1
159 349 1
159 356 1
159 364 1
159 365 1
159 366 1
159 371 1
159 375 1
159 377 1
159 378 1
159 382 1
159 387 1
159 388 1
159 391 1
159 392 1
159 395 1
159 396 1
159 399 1
160 2 1
160 3 1
160 10 1
160 12 1
160 14 1
160 15 1
160 17 1
160 18 1
160 23 1
160 24 1
160 25 1
160 28 1
160 29 1
160 30 1
160 33 1
160 34 1
160 37 1
160 40 1
160 48 1
160 52 1
160 55 1
160 56 1
160 57 1
160 58 1
160 59 1
160 61 1
160 64 1
160 66 1
160 68 1
160 69 1
160 70 1
160 71 1
160 74 1
160 75 1
160 76 1
160 77 1
160 81 1
160 84 1
160 89 1
160 90 1
160 92 1
160 93 1
160 94 1
160 95 1
160 97 1
160 99 1
160 108 1
160 112 1
160 119 1
160 120 1
160 124 1
160 126 1
160 128 1
160 133 1
160 139 1
160 142 1
160 145 1
160 148 1
160 153 1
160 154 1
160 155 1
160 157 1
160 159 1
160 164 1
160 165 1
160 170 1
160 171 1
160 172 1
160 174 1
160 180 1
160 185 1
160 186 1
160 190 1
160 191 1
160 192 1
160 193 1
160 198 1
160 199 1
160 200 1
160 202 1
160 206 1
160 208 1
160 210 1
160 211 1
160 217 1
160 218 1
160 219 1
160 220 1
160 221 1
160 222 1
160 225 1
160 228 1
160 229 1
160 231 1
160 232 1
160 233 1
160 235 1
160 236 1
160 238 1
160 240 1
160 242 1
160 245 1
160 246 1
160 247 1
160 248 1
160 249 1
160 257 1
160 261 1
160 262 1
160 263 1
160 265 1
160 266 1
160 270 1
160 271 1
160 272 1
160 275 1
160 283 1
160 290 1
160 292 1
160 295 1
160 300 1
160 303 1
160 304 1
160 305 1
160 308 1
160 318 1
160 320 1
160 321 1
160 326 1
160 332 1
160 334 1
160 336 1
160 338 1
160 339 1
160 340 1
160 350 1
160 351 1
160 352 1
160 354 1
160 359 1
160 362 1
160 365 1
160 369 1
160 372 1
160 373 1
160 375 1
160 376 1
160 381 1
160 382 1
160 384 1
160 388 1
160 391 1
160 392 1
160 393 1
160 395 1
160 398 1
160 399 1
161 1 1
161 5 1
161 6 1
161 7 1
161 10 1
161 11 1
161 12 1
161 13 1
161 14 1
161 16 1
161 18 1
161 20 1
161 21 1
161 22 1
161 23 1
161 25 1
161 27 1
161 28 1
161 32 1
161 41 1
161 43 1
161 47 1
161 49 1
161 52 1
161 54 1
161 57 1
161 64 1
161 67 1
161 68 1
161 70 1
161 71 1
161 73 1
161 77 1
161 78 1
161 81 1
161 83 1
161 84 1
161 95 1
161 96 1
161 97 1
161 99 1
161 100 1
161 101 1
161 102 1
161 104 1
161 108 1
161 112 1
161 114 1
161 120 1
161 121 1
161 124 1
161 127 1
161 129 1
161 132 1
161 135 1
161 138 1
161 139 1
161 142 1
161 143 1
161 165 1
161 167 1
161 169 1
161 172 1
161 176 1
161 177 1
161 180 1
161 181 1
161 183 1
161 184 1
161 189 1
161 190 1
161 191 1
161 192 1
161 193 1
161 197 1
161 206 1
161 207 1
161 210 1
161 211 1
161 219 1
161 220 1
161 224 1
161 226 1
161 228 1
161 230 1
161 233 1
161 237 1
161 240 1
161 241 1
161 244 1
161 246 1
161 247 1
161 250 1
161 252 1
161 255 1
161 256 1
161 259 1
161 260 1
161 261 1
161 264 1
161 267 1
161 270 1
161 272 1
161 275 1
161 277 1
161 278 1
161 279 1
161 283 1
161 284 1
161 286 1
161 288 1
161 291 1
161 292 1
161 293 1
161 294 1
161 299 1
161 302 1
161 304 1
161 305 1
161 306 1
161 307 1
161 308 1
161 309 1
161 311 1
161 314 1
161 315 1
161 319 1
161 321 1
161 324 1
161 329 1
161 331 1
161 332 1
161 333 1
161 334 1
161 335 1
161 337 1
161 340 1
161 342 1
161 344 1
161 345 1
161 346 1
161 351 1
161 358 1
161 361 1
161 363 1
161 366 1
161 370 1
161 371 1
161 372 1
161 374 1
161 378 1
161 382 1
161 383 1
161 384 1
161 385 1
161 387 1
161 390 1
161 391 1
161 392 1
161 393 1
161 395 1
161 396 1
161 398 1
162 1 1
162 2 1
162 3 1
162 11 1
162 13 1
162 17 1
162 18 1
162 23 1
162 28 1
162 29 1
162 30 1
162 33 1
162 35 1
162 36 1
162 37 1
162 38 1
162 39 1
162 40 1
162 41 1
162 42 1
162 43 1
162 47 1
162 52 1
162 53 1
162 59 1
162 60 1
162 61 1
162 64 1
162 65 1
162 66 1
162 73 1
162 75 1
162 76 1
162 79 1
162 84 1
162 87 1
162 88 1
162 92 1
162 93 1
162 95 1
162 96 1
162 98 1
162 99 1
162 100 1
162 104 1
162 108 1
162 109 1
162 110 1
162 112 1
162 113 1
162 116 1
162 121 1
162 122 1
162 123 1
162 124 1
162 125 1
162 132 1
162 133 1
162 134 1
162 135 1
162 138 1
162 143 1
162 149 1
162 155 1
162 157 1
162 165 1
162 167 1
162 168 1
162 173 1
162 174 1
162 176 1
162 179 1
162 181 1
162 183 1
162 185 1
162 190 1
162 194 1
162 196 1
162 197 1
162 201 1
162 202 1
162 207 1
162 211 1
162 214 1
162 218 1
162 225 1
162 228 1
162 229 1
162 233 1
162 239 1
162 241 1
162 244 1
162 247 1
162 248 1
162 249 1
162 258 1
162 261 1
162 262 1
162 264 1
162 265 1
162 271 1
162 272 1
162 273 1
162 274 1
162 278 1
162 280 1
162 281 1
162 283 1
162 286 1
162 289 1
162 291 1
162 295 1
162 296 1
162 303 1
162 304 1
162 309 1
162 311 1
162 316 1
162 318 1
162 319 1
162 321 1
162 323 1
162 327 1
162 328 1
162 330 1
162 336 1
162 338 1
162 339 1
162 340 1
162 342 1
162 343 1
162 344 1
162 346 1
162 348 1
162 349 1
162 352 1
162 353 1
162 355 1
162 357 1
162 361 1
162 364 1
162 367 1
162 368 1
162 369 1
162 372 1
162 375 1
162 376 1
162 384 1
162 387 1
162 389 1
162 390 1
163 3 1
163 4 1
163 5 1
163 8 1
163 12 1
163 14 1
163 17 1
163 18 1
163 20 1
163 21 1
163 26 1
163 27 1
163 30 1
163 33 1
163 35 1
163 37 1
163 38 1
163 40 1
163 41 1
163 44 1
163 45 1
163 47 1
163 48 1
163 49 1
163 50 1
163 55 1
163 57 1
163 58 1
163 61 1
163 62 1
163 70 1
163 75 1
163 76 1
163 77 1
163 78 1
163 79 1
163 80 1
163 84 1
163 85 1
163 87 1
163 90 1
163 91 1
163 96 1
163 97 1
163 99 1
163 100 1
163 101 1
163 102 1
163 109 1
163 110 1
163 113 1
163 117 1
163 120 1
163 127 1
163 128 1
163 133 1
163 134 1
163 136 1
163 137 1
163 140 1
163 141 1
163 143 1
163 147 1
163 148 1
163 153 1
163 157 1
163 159 1
163 165 1
163 166 1
163 170 1
163 171 1
163 174 1
163 177 1
163 179 1
163 183 1
163 185 1
163 188 1
163 194 1
163 195 1
163 198 1
163 199 1
163 202 1
163 204 1
163 206 1
163 210 1
163 213 1
163 214 1
163 215 1
163 218 1
163 221 1
163 230 1
163 236 1
163 238 1
163 240 1
163 241 1
163 244 1
163 245 1
163 250 1
163 251 1
163 252 1
163 255 1
163 259 1
163 260 1
163 262 1
163 264 1
163 265 1
163 269 1
163 271 1
163 273 1
163 274 1
163 276 1
163 278 1
163 279 1
163 281 1
163 282 1
163 283 1
163 287 1
163 288 1
163 289 1
163 290 1
163 298 1
163 300 1
163 301 1
163 304 1
163 306 1
163 307 1
163 310 1
163 317 1
163 321 1
163 322 1
163 324 1
163 325 1
163 328 1
163 332 1
163 333 1
163 334 1
163 336 1
163 338 1
163 339 1
163 343 1
163 344 1
163 345 1
163 347 1
163 349 1
163 363 1
163 365 1
163 366 1
163 370 1
163 372 1
163 374 1
163 380 1
163 382 1
163 383 1
163 386 1
163 387 1
163 389 1
163 393 1
163 395 1
163 396 1
163 397 1
163 398 1
163 400 1
164 3 1
164 6 1
164 10 1
164 11 1
164 12 1
164 13 1
164 14 1
164 20 1
164 25 1
164 29 1
164 32 1
164 33 1
164 34 1
164 35 1
164 38 1
164 41 1
164 42 1
164 45 1
164 46 1
164 49 1
164 54 1
164 59 1
164 61 1
164 64 1
164 65 1
164 66 1
164 67 1
164 68 1
164 70 1
164 75 1
164 77 1
164 79 1
164 81 1
164 82 1
164 83 1
164 87 1
164 89 1
164 93 1
164 95 1
164 97 1
164 98 1
164 99 1
164 101 1
164 104 1
164 105 1
164 109 1
164 111 1
164 112 1
164 115 1
164 116 1
164 121 1
164 123 1
164 124 1
164 128 1
164 132 1
164 134 1
164 136 1
164 137 1
164 142 1
164 145 1
164 148 1
164 150 1
164 151 1
164 152 1
164 153 1
164 154 1
164 155 1
164 156 1
164 158 1
164 160 1
164 165 1
164 169 1
164 171 1
164 172 1
164 174 1
164 177 1
164 178 1
164 180 1
164 181 1
164 184 1
164 185 1
164 186 1
164 190 1
164 191 1
164 193 1
164 194 1
164 195 1
164 196 1
164 198 1
164 199 1
164 204 1
164 208 1
164 209 1
164 215 1
164 216 1
164 217 1
164 221 1
164 225 1
164 226 1
164 227 1
164 228 1
164 230 1
164 231 1
164 235 1
164 236 1
164 237 1
164 245 1
164 249 1
164 253 1
164 254 1
164 255 1
164 260 1
164 263 1
164 270 1
164 272 1
164 273 1
164 277 1
164 280 1
164 284 1
164 287 1
164 288 1
164 290 1
164 293 1
164 294 1
164 297 1
164 300 1
164 301 1
164 305 1
164 306 1
164 307 1
164 308 1
164 309 1
164 314 1
164 318 1
164 319 1
164 320 1
164 324 1
164 325 1
164 326 1
164 327 1
164 330 1
164 332 1
164 333 1
164 334 1
164 339 1
164 342 1
164 345 1
164 348 1
164 352 1
164 353 1
164 362 1
164 363 1
164 368 1
164 369 1
164 371 1
164 374 1
164 376 1
164 377 1
164 384 1
164 385 1
164 388 1
164 389 1
164 392 1
164 393 1
164 394 1
164 397 1
164 398 1
165 1 1
165 3 1
165 6 1
165 11 1
165 13 1
165 15 1
165 20 1
165 21 1
165 23 1
165 24 1
165 26 1
165 27 1
165 28 1
165 29 1
165 33 1
165 35 1
165 41 1
165 43 1
165 45 1
165 46 1
165 51 1
165 52 1
165 56 1
165 57 1
165 58 1
165 61 1
165 62 1
165 68 1
165 75 1
165 78 1
165 79 1
165 82 1
165 83 1
165 88 1
165 89 1
165 93 1
165 95 1
165 97 1
165 98 1
165 99 1
165 100 1
165 103 1
165 105 1
165 109 1
165 112 1
165 116 1
165 119 1
165 121 1
165 122 1
165 123 1
165 124 1
165 125 1
165 126 1
165 129 1
165 140 1
165 141 1
165 144 1
165 147 1
165 148 1
165 150 1
165 157 1
165 158 1
165 160 1
165 161 1
165 162 1
165 163 1
165 164 1
165 166 1
165 169 1
165 170 1
165 173 1
165 174 1
165 182 1
165 184 1
165 185 1
165 186 1
165 194 1
165 201 1
165 204 1
165 205 1
165 206 1
165 207 1
165 211 1
165 212 1
165 217 1
165 219 1
165 224 1
165 225 1
165 227 1
165 229 1
165 233 1
165 234 1
165 238 1
165 239 1
165 246 1
165 251 1
165 252 1
165 259 1
165 260 1
165 264 1
165 265 1
165 272 1
165 274 1
165 277 1
165 280 1
165 281 1
165 284 1
165 287 1
165 288 1
165 289 1
165 290 1
165 298 1
165 301 1
165 304 1
165 307 1
165 313 1
165 315 1
165 317 1
165 321 1
165 324 1
165 325 1
165 329 1
165 330 1
165 332 1
165 333 1
165 335 1
165 336 1
165 337 1
165 338 1
165 340 1
165 341 1
165 345 1
165 347 1
165 350 1
165 351 1
165 359 1
165 363 1
165 366 1
165 369 1
165 371 1
165 373 1
165 374 1
165 381 1
165 382 1
165 385 1
165 387 1
165 389 1
165 391 1
165 392 1
165 397 1
165 398 1
166 4 1
166 8 1
166 11 1
166 12 1
166 20 1
166 21 1
166 26 1
166 28 1
166 31 1
166 32 1
166 33 1
166 34 1
166 37 1
166 40 1
166 47 1
166 50 1
166 52 1
166 53 1
166 55 1
166 56 1
166 59 1
166 60 1
166 62 1
166 73 1
166 74 1
166 78 1
166 79 1
166 80 1
166 81 1
166 84 1
166 87 1
166 88 1
166 89 1
166 92 1
166 94 1
166 96 1
166 98 1
166 101 1
166 102 1
166 107 1
166 109 1
166 110 1
166 111 1
166 115 1
166 116 1
166 117 1
166 118 1
166 119 1
166 120 1
166 122 1
166 125 1
166 136 1
166 138 1
166 140 1
166 141 1
166 142 1
166 144 1
166 145 1
166 148 1
166 149 1
166 150 1
166 152 1
166 154 1
166 163 1
166 165 1
166 167 1
166 168 1
166 169 1
166 176 1
166 177 1
166 180 1
166 182 1
166 183 1
166 188 1
166 189 1
166 190 1
166 198 1
166 201 1
166 202 1
166 205 1
166 215 1
166 222 1
166 223 1
166 225 1
166 227 1
166 228 1
166 229 1
166 230 1
166 231 1
166 232 1
166 235 1
166 236 1
166 239 1
166 243 1
166 247 1
166 256 1
166 257 1
166 259 1
166 260 1
166 261 1
166 262 1
166 269 1
166 273 1
166 275 1
166 278 1
166 280 1
166 283 1
166 291 1
166 294 1
166 295 1
166 303 1
166 307 1
166 310 1
166 311 1
166 312 1
166 315 1
166 320 1
166 325 1
166 329 1
166 332 1
166 335 1
166 336 1
166 337 1
166 338 1
166 339 1
166 342 1
166 343 1
166 346 1
166 350 1
166 351 1
166 353 1
166 360 1
166 361 1
166 366 1
166 368 1
166 374 1
166 376 1
166 385 1
166 386 1
166 387 1
166 389 1
166 394 1
166 395 1
166 399 1
166 400 1
167 5 1
167 6 1
167 7 1
167 8 1
167 11 1
167 12 1
167 14 1
167 16 1
167 17 1
167 19 1
167 21 1
167 23 1
167 25 1
167 28 1
167 32 1
167 33 1
167 34 1
167 36 1
167 39 1
167 40 1
167 42 1
167 44 1
167 48 1
167 52 1
167 56 1
167 59 1
167 61 1
167 62 1
167 66 1
167 69 1
167 70 1
167 72 1
167 73 1
167 74 1
167 75 1
167 81 1
167 82 1
167 83 1
167 85 1
167 86 1
167 89 1
167 100 1
167 101 1
167 103 1
167 104 1
167 106 1
167 107 1
167 108 1
167 109 1
167 110 1
167 116 1
167 117 1
167 118 1
167 124 1
167 126 1
167 130 1
167 134 1
167 137 1
167 141 1
167 142 1
167 145 1
167 156 1
167 158 1
167 161 1
167 162 1
167 166 1
167 170 1
167 172 1
167 173 1
167 177 1
167 178 1
167 180 1
167 181 1
167 184 1
167 187 1
167 193 1
167 195 1
167 200 1
167 201 1
167 202 1
167 203 1
167 204 1
167 205 1
167 206 1
167 213 1
167 214 1
167 215 1
167 217 1
167 223 1
167 224 1
167 226 1
167 228 1
167 229 1
167 230 1
167 232 1
167 237 1
167 240 1
167 243 1
167 244 1
167 245 1
167 248 1
167 251 1
167 255 1
167 256 1
167 259 1
167 264 1
167 268 1
167 273 1
167 275 1
167 277 1
167 281 1
167 282 1
167 284 1
167 289 1
167 291 1
167 295 1
167 299 1
167 300 1
167 301 1
167 303 1
167 304 1
167 305 1
167 308 1
167 310 1
167 313 1
167 314 1
167 315 1
167 318 1
167 320 1
167 326 1
167 327 1
167 328 1
167 330 1
167 332 1
167 333 1
167 334 1
167 335 1
167 336 1
167 337 1
167 339 1
167 340 1
167 341 1
167 342 1
167 343 1
167 344 1
167 347 1
167 348 1
167 349 1
167 351 1
167 353 1
167 354 1
167 355 1
167 356 1
167 357 1
167 362 1
167 363 1
167 365 1
167 366 1
167 367 1
167 368 1
167 369 1
167 371 1
167 372 1
167 373 1
167 375 1
167 377 1
167 379 1
167 380 1
167 384 1
167 385 1
167 386 1
167 387 1
167 388 1
167 389 1
167 391 1
167 395 1
167 399 1
168 10 1
168 12 1
168 13 1
168 14 1
168 17 1
168 24 1
168 26 1
168 31 1
168 33 1
168 34 1
168 36 1
168 37 1
168 39 1
168 41 1
168 48 1
168 51 1
168 53 1
168 56 1
168 59 1
168 62 1
168 64 1
168 66 1
168 70 1
168 71 1
168 72 1
168 73 1
168 74 1
168 76 1
168 77 1
168 80 1
168 84 1
168 86 1
168 90 1
168 91 1
168 92 1
168 94 1
168 97 1
168 98 1
168 99 1
168 100 1
168 102 1
168 105 1
168 109 1
168 112 1
168 116 1
168 117 1
168 118 1
168 120 1
168 121 1
168 122 1
168 125 1
168 126 1
168 130 1
168 132 1
168 134 1
168 136 1
168 137 1
168 147 1
168 148 1
168 149 1
168 152 1
168 153 1
168 155 1
168 156 1
168 162 1
168 166 1
168 170 1
168 171 1
168 175 1
168 176 1
168 177 1
168 178 1
168 179 1
168 182 1
168 183 1
168 184 1
168 185 1
168 188 1
168 190 1
168 193 1
168 199 1
168 204 1
168 207 1
168 208 1
168 209 1
168 215 1
168 218 1
168 219 1
168 224 1
168 225 1
168 227 1
168 230 1
168 232 1
168 234 1
168 235 1
168 236 1
168 237 1
168 238 1
168 242 1
168 245 1
168 249 1
168 250 1
168 251 1
168 253 1
168 254 1
168 255 1
168 258 1
168 261 1
168 267 1
168 268 1
168 269 1
168 270 1
168 271 1
168 273 1
168 274 1
168 281 1
168 282 1
168 285 1
168 286 1
168 288 1
168 290 1
168 292 1
168 296 1
168 298 1
168 299 1
168 301 1
168 305 1
168 306 1
168 307 1
168 309 1
168 314 1
168 315 1
168 317 1
168 319 1
168 327 1
168 328 1
168 329 1
168 330 1
168 338 1
168 342 1
168 343 1
168 346 1
168 348 1
168 349 1
168 350 1
168 355 1
168 357 1
168 358 1
168 361 1
168 364 1
168 365 1
168 372 1
168 373 1
168 376 1
168 378 1
168 382 1
168 383 1
168 384 1
168 385 1
168 386 1
168 388 1
168 389 1
168 390 1
168 392 1
168 397 1
168 400 1
169 1 1
169 2 1
169 5 1
169 7 1
169 9 1
169 14 1
169 16 1
169 18 1
169 19 1
169 20 1
169 25 1
169 30 1
169 34 1
169 36 1
169 38 1
169 41 1
169 42 1
169 43 1
169 46 1
169 48 1
169 49 1
169 50 1
169 52 1
169 53 1
169 56 1
169 57 1
169 58 1
169 60 1
169 62 1
169 63 1
169 67 1
169 68 1
169 71 1
169 72 1
169 74 1
169 77 1
169 79 1
169 81 1
169 82 1
169 85 1
169 86 1
169 89 1
169 94 1
169 101 1
169 105 1
169 106 1
169 111 1
169 116 1
169 120 1
169 123 1
169 128 1
169 137 1
169 139 1
169 140 1
169 141 1
169 142 1
169 144 1
169 146 1
169 147 1
169 150 1
169 151 1
169 153 1
169 155 1
169 156 1
169 158 1
169 161 1
169 164 1
169 165 1
169 166 1
169 171 1
169 172 1
169 173 1
169 174 1
169 175 1
169 176 1
169 177 1
169 187 1
169 189 1
169 190 1
169 193 1
169 195 1
169 198 1
169 199 1
169 200 1
169 203 1
169 204 1
169 208 1
169 209 1
169 210 1
169 211 1
169 217 1
169 219 1
169 220 1
169 221 1
169 223 1
169 226 1
169 230 1
169 235 1
169 237 1
169 238 1
169 241 1
169 243 1
169 246 1
169 247 1
169 248 1
169 252 1
169 255 1
169 258 1
169 259 1
169 263 1
169 264 1
169 266 1
169 269 1
169 270 1
169 275 1
169 276 1
169 279 1
169 281 1
169 283 1
169 286 1
169 288 1
169 291 1
169 293 1
169 296 1
169 299 1
169 300 1
169 301 1
169 302 1
169 303 1
169 311 1
169 313 1
169 318 1
169 319 1
169 320 1
169 321 1
169 322 1
169 324 1
169 326 1
169 328 1
169 333 1
169 334 1
169 336 1
169 339 1
169 340 1
169 343 1
169 347 1
169 354 1
169 356 1
169 357 1
169 360 1
169 363 1
169 364 1
169 365 1
169 373 1
169 381 1
169 382 1
169 383 1
169 384 1
169 385 1
169 395 1
169 398 1
170 1 1
170 2 1
170 5 1
170 9 1
170 11 1
170 13 1
170 15 1
170 16 1
170 19 1
170 21 1
170 22 1
170 25 1
170 27 1
170 29 1
170 30 1
170 35 1
170 36 1
170 38 1
170 39 1
170 45 1
170 51 1
170 53 1
170 54 1
170 55 1
170 58 1
170 59 1
170 60 1
170 68 1
170 69 1
170 71 1
170 72 1
170 74 1
170 77 1
170 79 1
170 81 1
170 88 1
170 89 1
170 93 1
170 96 1
170 97 1
170 99 1
170 104 1
170 108 1
170 111 1
170 112 1
170 113 1
170 114 1
170 116 1
170 118 1
170 119 1
170 120 1
170 122 1
170 123 1
170 124 1
170 125 1
170 130 1
170 135 1
170 136 1
170 137 1
170 140 1
170 144 1
170 146 1
170 147 1
170 148 1
170 150 1
170 151 1
170 152 1
170 160 1
170 163 1
170 165 1
170 167 1
170 168 1
170 173 1
170 176 1
170 177 1
170 185 1
170 186 1
170 187 1
170 188 1
170 189 1
170 190 1
170 197 1
170 201 1
170 202 1
170 203 1
170 208 1
170 209 1
170 210 1
170 214 1
170 220 1
170 222 1
170 224 1
170 227 1
170 231 1
170 233 1
170 234 1
170 238 1
170 241 1
170 245 1
170 246 1
170 254 1
170 257 1
170 258 1
170 262 1
170 265 1
170 266 1
170 269 1
170 270 1
170 271 1
170 273 1
170 276 1
170 277 1
170 278 1
170 280 1
170 283 1
170 288 1
170 295 1
170 296 1
170 298 1
170 302 1
170 303 1
170 311 1
170 313 1
170 315 1
170 321 1
170 324 1
170 327 1
170 329 1
170 330 1
170 332 1
170 334 1
170 337 1
170 340 1
170 343 1
170 344 1
170 348 1
170 352 1
170 353 1
170 356 1
170 357 1
170 358 1
170 361 1
170 362 1
170 365 1
170 366 1
170 367 1
170 368 1
170 369 1
170 373 1
170 377 1
170 384 1
170 386 1
170 388 1
170 389 1
170 392 1
170 393 1
170 394 1
170 395 1
170 398 1
171 3 1
171 6 1
171 9 1
171 12 1
171 16 1
171 18 1
171 24 1
171 25 1
171 30 1
171 31 1
171 32 1
171 34 1
171 35 1
171 37 1
171 38 1
171 40 1
171 42 1
171 43 1
171 46 1
171 47 1
171 49 1
171 50 1
171 53 1
171 57 1
171 61 1
171 63 1
171 68 1
171 70 1
171 76 1
171 79 1
171 85 1
171 88 1
171 90 1
171 94 1
171 97 1
171 103 1
171 104 1
171 105 1
171 109 1
171 113 1
171 114 1
171 118 1
171 121 1
171 122 1
171 127 1
171 132 1
171 134 1
171 135 1
171 143 1
171 144 1
171 149 1
171 151 1
171 152 1
171 153 1
171 155 1
171 157 1
171 160 1
171 163 1
171 164 1
171 168 1
171 169 1
171 172 1
171 176 1
171 177 1
171 184 1
171 187 1
171 188 1
171 190 1
171 193 1
171 194 1
171 195 1
171 197 1
171 198 1
171 200 1
171 201 1
171 202 1
171 204 1
171 205 1
171 206 1
171 208 1
171 209 1
171 210 1
171 212 1
171 213 1
171 215 1
171 219 1
171 220 1
171 222 1
171 223 1
171 224 1
171 227 1
171 230 1
171 233 1
171 234 1
171 237 1
171 242 1
171 244 1
171 247 1
171 249 1
171 251 1
171 252 1
171 253 1
171 255 1
171 257 1
171 258 1
171 260 1
171 261 1
171 262 1
171 263 1
171 265 1
171 266 1
171 269 1
171 272 1
171 274 1
171 277 1
171 278 1
171 280 1
171 281 1
171 283 1
171 285 1
171 286 1
171 287 1
171 291 1
171 301 1
171 302 1
171 303 1
171 304 1
171 307 1
171 308 1
171 309 1
171 310 1
171 314 1
171 316 1
171 318 1
171 319 1
171 322 1
171 323 1
171 329 1
171 330 1
171 331 1
171 337 1
171 339 1
171 344 1
171 347 1
171 348 1
171 349 1
171 350 1
171 353 1
171 354 1
171 356 1
171 357 1
171 362 1
171 365 1
171 369 1
171 373 1
171 374 1
171 375 1
171 376 1
171 378 1
171 380 1
171 383 1
171 386 1
171 389 1
171 390 1
171 391 1
171 392 1
171 397 1
171 400 1
172 1 1
172 2 1
172 4 1
172 11 1
172 14 1
172 15 1
172 23 1
172 24 1
172 25 1
172 26 1
172 27 1
172 34 1
172 35 1
172 37 1
172 38 1
172 40 1
172 41 1
172 42 1
172 43 1
172 47 1
172 50 1
172 53 1
172 56 1
172 57 1
172 62 1
172 63 1
172 64 1
172 67 1
172 69 1
172 71 1
172 72 1
172 74 1
172 76 1
172 78 1
172 83 1
172 90 1
172 92 1
172 95 1
172 97 1
172 99 1
172 104 1
172 105 1
172 106 1
172 107 1
172 109 1
172 112 1
172 114 1
172 119 1
172 124 1
172 130 1
172 132 1
172 135 1
172 138 1
172 140 1
172 143 1
172 148 1
172 151 1
172 152 1
172 154 1
172 157 1
172 158 1
172 159 1
172 160 1
172 161 1
172 164 1
172 167 1
172 169 1
172 171 1
172 174 1
172 177 1
172 180 1
172 183 1
172 185 1
172 186 1
172 195 1
172 197 1
172 200 1
172 206 1
172 209 1
172 212 1
172 215 1
172 219 1
172 220 1
172 225 1
172 227 1
172 228 1
172 233 1
172 235 1
172 240 1
172 244 1
172 246 1
172 247 1
172 248 1
172 249 1
172 253 1
172 255 1
172 256 1
172 257 1
172 266 1
172 267 1
172 270 1
172 274 1
172 275 1
172 276 1
172 278 1
172 279 1
172 283 1
172 284 1
172 287 1
172 289 1
172 291 1
172 292 1
172 293 1
172 294 1
172 295 1
172 298 1
172 299 1
172 300 1
172 304 1
172 308 1
172 309 1
172 314 1
172 324 1
172 325 1
172 326 1
172 328 1
172 332 1
172 336 1
172 337 1
172 338 1
172 339 1
172 342 1
172 344 1
172 345 1
172 348 1
172 353 1
172 354 1
172 355 1
172 362 1
172 363 1
172 368 1
172 373 1
172 374 1
172 375 1
172 377 1
172 378 1
172 379 1
172 381 1
172 384 1
172 387 1
172 388 1
172 389 1
172 390 1
172 394 1
172 399 1
173 1 1
173 2 1
173 7 1
173 8 1
173 11 1
173 13 1
173 14 1
173 16 1
173 17 1
173 18 1
173 20 1
173 23 1
173 25 1
173 27 1
173 28 1
173 32 1
173 33 1
173 37 1
173 39 1
173 41 1
173 47 1
173 48 1
173 49 1
173 53 1
173 55 1
173 58 1
173 60 1
173 61 1
173 68 1
173 69 1
173 71 1
173 73 1
173 75 1
173 77 1
173 81 1
173 82 1
173 87 1
173 88 1
173 89 1
173 90 1
173 91 1
173 92 1
173 99 1
173 102 1
173 103 1
173 104 1
173 105 1
173 106 1
173 108 1
173 112 1
173 114 1
173 121 1
173 124 1
173 128 1
173 129 1
173 134 1
173 136 1
173 137 1
173 138 1
173 139 1
173 140 1
173 142 1
173 144 1
173 154 1
173 157 1
173 158 1
173 159 1
173 162 1
173 165 1
173 167 1
173 169 1
173 170 1
173 174 1
173 179 1
173 181 1
173 183 1
173 184 1
173 191 1
173 194 1
173 196 1
173 197 1
173 201 1
173 205 1
173 208 1
173 209 1
173 211 1
173 213 1
173 216 1
173 218 1
173 219 1
173 221 1
173 233 1
173 236 1
173 240 1
173 241 1
173 243 1
173 244 1
173 245 1
173 246 1
173 248 1
173 249 1
173 251 1
173 252 1
173 256 1
173 258 1
173 263 1
173 264 1
173 267 1
173 268 1
173 269 1
173 270 1
173 272 1
173 276 1
173 277 1
173 279 1
173 282 1
173 283 1
173 284 1
173 287 1
173 289 1
173 290 1
173 292 1
173 295 1
173 296 1
173 300 1
173 301 1
173 304 1
173 306 1
173 307 1
173 308 1
173 318 1
173 319 1
173 321 1
173 323 1
173 324 1
173 325 1
173 330 1
173 334 1
173 335 1
173 337 1
173 339 1
173 342 1
173 343 1
173 345 1
173 349 1
173 351 1
173 355 1
173 357 1
173 359 1
173 360 1
173 361 1
173 362 1
173 367 1
173 368 1
173 373 1
173 380 1
173 383 1
173 384 1
173 385 1
173 386 1
173 387 1
173 388 1
173 389 1
173 396 1
173 397 1
174 1 1
174 3 1
174 4 1
174 10 1
174 11 1
174 13 1
174 15 1
174 17 1
174 18 1
174 19 1
174 26 1
174 27 1
174 31 1
174 36 1
174 39 1
174 45 1
174 46 1
174 48 1
174 51 1
174 55 1
174 59 1
174 62 1
174 68 1
174 71 1
174 72 1
174 77 1
174 80 1
174 83 1
174 84 1
174 85 1
174 87 1
174 88 1
174 91 1
174 92 1
174 101 1
174 104 1
174 105 1
174 113 1
174 114 1
174 117 1
174 118 1
174 119 1
174 120 1
174 121 1
174 123 1
174 127 1
174 133 1
174 134 1
174 136 1
174 137 1
174 138 1
174 146 1
174 149 1
174 150 1
174 151 1
174 153 1
174 155 1
174 156 1
174 157 1
174 159 1
174 160 1
174 162 1
174 163 1
174 164 1
174 165 1
174 169 1
174 172 1
174 173 1
174 178 1
174 180 1
174 184 1
174 189 1
174 193 1
174 194 1
174 195 1
174 198 1
174 202 1
174 203 1
174 204 1
174 209 1
174 218 1
174 222 1
174 226 1
174 233 1
174 235 1
174 240 1
174 243 1
174 244 1
174 245 1
174 249 1
174 251 1
174 254 1
174 256 1
174 257 1
174 259 1
174 260 1
174 262 1
174 264 1
174 265 1
174 268 1
174 269 1
174 270 1
174 274 1
174 275 1
174 276 1
174 279 1
174 280 1
174 283 1
174 285 1
174 287 1
174 289 1
174 290 1
174 291 1
174 294 1
174 295 1
174 296 1
174 301 1
174 306 1
174 311 1
174 312 1
174 313 1
174 314 1
174 316 1
174 317 1
174 318 1
174 320 1
174 325 1
174 332 1
174 333 1
174 334 1
174 335 1
174 336 1
174 337 1
174 338 1
174 340 1
174 344 1
174 347 1
174 348 1
174 352 1
174 354 1
174 355 1
174 356 1
174 358 1
174 360 1
174 362 1
174 364 1
174 365 1
174 367 1
174 368 1
174 369 1
174 372 1
174 375 1
174 376 1
174 377 1
174 381 1
174 382 1
174 384 1
174 385 1
174 387 1
174 389 1
174 391 1
174 393 1
174 394 1
174 395 1
175 2 1
175 4 1
175 5 1
175 7 1
175 9 1
175 12 1
175 16 1
175 22 1
175 24 1
175 29 1
175 30 1
175 31 1
175 33 1
175 34 1
175 36 1
175 39 1
175 40 1
175 42 1
175 44 1
175 45 1
175 46 1
175 48 1
175 50 1
175 55 1
175 56 1
175 57 1
175 58 1
175 61 1
175 63 1
175 65 1
175 66 1
175 70 1
175 76 1
175 77 1
175 78 1
175 80 1
175 81 1
175 82 1
175 83 1
175 92 1
175 96 1
175 97 1
175 99 1
175 102 1
175 103 1
175 104 1
175 112 1
175 118 1
175 119 1
175 120 1
175 123 1
175 124 1
175 131 1
175 132 1
175 135 1
175 137 1
175 142 1
175 143 1
175 145 1
175 148 1
175 150 1
175 153 1
175 157 1
175 158 1
175 168 1
175 169 1
175 177 1
175 187 1
175 190 1
175 191 1
175 194 1
175 196 1
175 197 1
175 199 1
175 201 1
175 202 1
175 206 1
175 209 1
175 210 1
175 214 1
175 217 1
175 222 1
175 224 1
175 232 1
175 237 1
175 238 1
175 239 1
175 245 1
175 246 1
175 248 1
175 250 1
175 252 1
175 253 1
175 254 1
175 257 1
175 258 1
175 259 1
175 261 1
175 264 1
175 266 1
175 270 1
175 272 1
175 276 1
175 277 1
175 279 1
175 281 1
175 282 1
175 286 1
175 290 1
175 291 1
175 292 1
175 293 1
175 294 1
175 296 1
175 297 1
175 299 1
175 301 1
175 303 1
175 308 1
175 310 1
175 313 1
175 319 1
175 320 1
175 323 1
175 325 1
175 332 1
175 335 1
175 336 1
175 337 1
175 338 1
175 339 1
175 340 1
175 343 1
175 347 1
175 348 1
175 351 1
175 354 1
175 360 1
175 361 1
175 363 1
175 365 1
175 370 1
175 371 1
175 374 1
175 375 1
175 378 1
175 379 1
175 380 1
175 384 1
175 386 1
175 389 1
175 390 1
175 391 1
175 398 1
175 399 1
175 400 1
176 2 1
176 5 1
176 6 1
176 8 1
176 13 1
176 14 1
176 18 1
176 19 1
176 25 1
176 29 1
176 32 1
176 34 1
176 36 1
176 46 1
176 47 1
176 55 1
176 57 1
176 58 1
176 61 1
176 67 1
176 72 1
176 73 1
176 77 1
176 78 1
176 80 1
176 82 1
176 86 1
176 87 1
176 91 1
176 93 1
176 96 1
176 97 1
176 99 1
176 101 1
176 104 1
176 108 1
176 109 1
176 111 1
176 112 1
176 114 1
176 115 1
176 117 1
176 118 1
176 120 1
176 121 1
176 122 1
176 123 1
176 126 1
176 128 1
176 129 1
176 130 1
176 131 1
176 132 1
176 137 1
176 138 1
176 141 1
176 143 1
176 152 1
176 158 1
176 161 1
176 162 1
176 166 1
176 168 1
176 169 1
176 170 1
176 171 1
176 178 1
176 181 1
176 184 1
176 185 1
176 186 1
176 191 1
176 193 1
176 195 1
176 199 1
176 206 1
176 208 1
176 215 1
176 218 1
176 219 1
176 221 1
176 223 1
176 226 1
176 229 1
176 231 1
176 235 1
176 237 1
176 239 1
176 240 1
176 241 1
176 243 1
176 246 1
176 247 1
176 248 1
176 252 1
176 265 1
176 266 1
176 270 1
176 272 1
176 274 1
176 275 1
176 283 1
176 284 1
176 288 1
176 294 1
176 296 1
176 297 1
176 298 1
176 299 1
176 300 1
176 301 1
176 302 1
176 306 1
176 309 1
176 310 1
176 313 1
176 315 1
176 316 1
176 318 1
176 319 1
176 321 1
176 325 1
176 326 1
176 327 1
176 328 1
176 331 1
176 332 1
176 334 1
176 337 1
176 340 1
176 343 1
176 344 1
176 345 1
176 346 1
176 351 1
176 353 1
176 356 1
176 357 1
176 358 1
176 363 1
176 365 1
176 367 1
176 374 1
176 376 1
176 377 1
176 378 1
176 381 1
176 389 1
176 390 1
176 392 1
176 393 1
176 394 1
176 397 1
177 2 1
177 4 1
177 5 1
177 6 1
177 12 1
177 18 1
177 21 1
177 22 1
177 26 1
177 27 1
177 28 1
177 30 1
177 31 1
177 35 1
177 36 1
177 37 1
177 39 1
177 43 1
177 44 1
177 48 1
177 49 1
177 51 1
177 52 1
177 54 1
177 57 1
177 63 1
177 66 1
177 69 1
177 70 1
177 72 1
177 73 1
177 74 1
177 75 1
177 79 1
177 81 1
177 82 1
177 85 1
177 86 1
177 87 1
177 89 1
177 90 1
177 91 1
177 92 1
177 94 1
177 97 1
177 102 1
177 103 1
177 106 1
177 107 1
177 112 1
177 114 1
177 119 1
177 123 1
177 124 1
177 126 1
177 127 1
177 129 1
177 132 1
177 135 1
177 139 1
177 141 1
177 144 1
177 145 1
177 146 1
177 147 1
177 151 1
177 154 1
177 157 1
177 158 1
177 159 1
177 161 1
177 163 1
177 164 1
177 166 1
177 167 1
177 168 1
177 169 1
177 170 1
177 171 1
177 172 1
177 175 1
177 181 1
177 184 1
177 185 1
177 192 1
177 194 1
177 197 1
177 200 1
177 203 1
177 206 1
177 207 1
177 208 1
177 209 1
177 210 1
177 211 1
177 213 1
177 215 1
177 216 1
177 217 1
177 222 1
177 224 1
177 226 1
177 227 1
177 228 1
177 234 1
177 238 1
177 239 1
177 241 1
177 242 1
177 247 1
177 248 1
177 251 1
177 265 1
177 268 1
177 269 1
177 270 1
177 273 1
177 274 1
177 275 1
177 277 1
177 279 1
177 280 1
177 281 1
177 283 1
177 287 1
177 290 1
177 299 1
177 302 1
177 308 1
177 311 1
177 312 1
177 316 1
177 317 1
177 320 1
177 321 1
177 323 1
177 324 1
177 325 1
177 326 1
177 328 1
177 329 1
177 332 1
177 333 1
177 334 1
177 335 1
177 337 1
177 339 1
177 351 1
177 353 1
177 354 1
177 358 1
177 359 1
177 361 1
177 363 1
177 365 1
177 366 1
177 367 1
177 369 1
177 371 1
177 373 1
177 374 1
177 376 1
177 377 1
177 379 1
177 380 1
177 383 1
177 392 1
177 395 1
177 396 1
177 397 1
177 398 1
177 400 1
178 1 1
178 2 1
178 3 1
178 8 1
178 11 1
178 12 1
178 14 1
178 16 1
178 36 1
178 37 1
178 38 1
178 41 1
178 42 1
178 43 1
178 49 1
178 52 1
178 53 1
178 54 1
178 55 1
178 56 1
178 59 1
178 62 1
178 66 1
178 68 1
178 69 1
178 74 1
178 76 1
178 79 1
178 80 1
178 81 1
178 84 1
178 85 1
178 86 1
178 87 1
178 88 1
178 93 1
178 95 1
178 97 1
178 99 1
178 100 1
178 102 1
178 108 1
178 110 1
178 111 1
178 113 1
178 115 1
178 117 1
178 118 1
178 120 1
178 131 1
178 132 1
178 133 1
178 137 1
178 139 1
178 140 1
178 141 1
178 142 1
178 144 1
178 145 1
178 146 1
178 151 1
178 156 1
178 164 1
178 167 1
178 168 1
178 174 1
178 176 1
178 181 1
178 184 1
178 186 1
178 188 1
178 190 1
178 194 1
178 196 1
178 197 1
178 198 1
178 199 1
178 200 1
178 201 1
178 203 1
178 204 1
178 209 1
178 210 1
178 212 1
178 217 1
178 221 1
178 224 1
178 229 1
178 230 1
178 235 1
178 240 1
178 241 1
178 244 1
178 246 1
178 249 1
178 256 1
178 257 1
178 258 1
178 259 1
178 262 1
178 265 1
178 268 1
178 269 1
178 273 1
178 274 1
178 279 1
178 280 1
178 281 1
178 283 1
178 286 1
178 290 1
178 292 1
178 294 1
178 295 1
178 296 1
178 299 1
178 303 1
178 305 1
178 306 1
178 308 1
178 309 1
178 310 1
178 314 1
178 316 1
178 318 1
178 322 1
178 323 1
178 324 1
178 325 1
178 327 1
178 328 1
178 331 1
178 333 1
178 337 1
178 338 1
178 342 1
178 343 1
178 344 1
178 345 1
178 346 1
178 347 1
178 353 1
178 354 1
178 355 1
178 356 1
178 357 1
178 358 1
178 359 1
178 370 1
178 372 1
178 374 1
178 377 1
178 378 1
178 379 1
178 380 1
178 381 1
178 382 1
178 386 1
178 387 1
178 389 1
178 391 1
178 393 1
178 395 1
179 2 1
179 3 1
179 5 1
179 8 1
179 15 1
179 16 1
179 18 1
179 20 1
179 21 1
179 27 1
179 28 1
179 29 1
179 32 1
179 38 1
179 41 1
179 43 1
179 45 1
179 49 1
179 50 1
179 57 1
179 59 1
179 66 1
179 70 1
179 75 1
179 79 1
179 80 1
179 84 1
179 87 1
179 91 1
179 93 1
179 96 1
179 98 1
179 99 1
179 101 1
179 104 1
179 107 1
179 109 1
179 112 1
179 113 1
179 117 1
179 118 1
179 121 1
179 122 1
179 125 1
179 126 1
179 128 1
179 131 1
179 132 1
179 133 1
179 134 1
179 136 1
179 137 1
179 142 1
179 144 1
179 145 1
179 146 1
179 148 1
179 150 1
179 152 1
179 153 1
179 156 1
179 162 1
179 163 1
179 168 1
179 173 1
179 180 1
179 181 1
179 186 1
179 187 1
179 189 1
179 194 1
179 197 1
179 200 1
179 202 1
179 206 1
179 209 1
179 210 1
179 212 1
179 214 1
179 216 1
179 217 1
179 218 1
179 219 1
179 221 1
179 223 1
179 226 1
179 227 1
179 233 1
179 235 1
179 236 1
179 237 1
179 244 1
179 245 1
179 247 1
179 252 1
179 253 1
179 254 1
179 258 1
179 259 1
179 264 1
179 266 1
179 268 1
179 270 1
179 274 1
179 277 1
179 278 1
179 280 1
179 281 1
179 285 1
179 287 1
179 289 1
179 290 1
179 292 1
179 293 1
179 297 1
179 299 1
179 302 1
179 303 1
179 304 1
179 308 1
179 313 1
179 314 1
179 317 1
179 318 1
179 319 1
179 320 1
179 322 1
179 324 1
179 326 1
179 328 1
179 330 1
179 331 1
179 334 1
179 335 1
179 336 1
179 340 1
179 341 1
179 343 1
179 344 1
179 348 1
179 350 1
179 357 1
179 359 1
179 363 1
179 364 1
179 366 1
179 368 1
179 370 1
179 376 1
179 377 1
179 378 1
179 380 1
179 386 1
179 388 1
179 393 1
179 394 1
179 400 1
180 4 1
180 5 1
180 6 1
180 7 1
180 8 1
180 9 1
180 12 1
180 13 1
180 14 1
180 25 1
180 26 1
180 32 1
180 34 1
180 36 1
180 40 1
180 42 1
180 44 1
180 45 1
180 46 1
180 47 1
180 48 1
180 49 1
180 50 1
180 53 1
180 56 1
180 57 1
180 59 1
180 61 1
180 63 1
180 66 1
180 67 1
180 68 1
180 71 1
180 76 1
180 77 1
180 78 1
180 81 1
180 85 1
180 86 1
180 91 1
180 93 1
180 95 1
180 98 1
180 101 1
180 103 1
180 104 1
180 109 1
180 113 1
180 114 1
180 116 1
180 117 1
180 119 1
180 121 1
180 125 1
180 127 1
180 130 1
180 131 1
180 132 1
180 137 1
180 138 1
180 144 1
180 145 1
180 153 1
180 155 1
180 158 1
180 160 1
180 161 1
180 164 1
180 166 1
180 167 1
180 172 1
180 174 1
180 179 1
180 183 1
180 186 1
180 188 1
180 190 1
180 193 1
180 197 1
180 198 1
180 200 1
180 202 1
180 205 1
180 207 1
180 210 1
180 214 1
180 216 1
180 218 1
180 220 1
180 221 1
180 223 1
180 226 1
180 227 1
180 228 1
180 230 1
180 232 1
180 234 1
180 236 1
180 237 1
180 238 1
180 240 1
180 242 1
180 245 1
180 251 1
180 252 1
180 256 1
180 258 1
180 259 1
180 261 1
180 262 1
180 263 1
180 266 1
180 268 1
180 273 1
180 274 1
180 276 1
180 277 1
180 278 1
180 280 1
180 281 1
180 284 1
180 286 1
180 287 1
180 289 1
180 290 1
180 295 1
180 298 1
180 299 1
180 302 1
180 303 1
180 305 1
180 307 1
180 311 1
180 318 1
180 322 1
180 324 1
180 325 1
180 326 1
180 328 1
180 329 1
180 330 1
180 331 1
180 333 1
180 335 1
180 336 1
180 345 1
180 349 1
180 351 1
180 352 1
180 355 1
180 358 1
180 359 1
180 360 1
180 369 1
180 370 1
180 371 1
180 376 1
180 377 1
180 378 1
180 381 1
180 383 1
180 385 1
180 387 1
180 390 1
180 393 1
180 396 1
180 397 1
181 1 1
181 2 1
181 3 1
181 4 1
181 5 1
181 6 1
181 11 1
181 15 1
181 20 1
181 24 1
181 25 1
181 26 1
181 28 1
181 32 1
181 36 1
181 39 1
181 40 1
181 44 1
181 48 1
181 51 1
181 52 1
181 53 1
181 54 1
181 59 1
181 61 1
181 62 1
181 64 1
181 67 1
181 70 1
181 81 1
181 86 1
181 88 1
181 89 1
181 90 1
181 96 1
181 103 1
181 105 1
181 112 1
181 117 1
181 121 1
181 126 1
181 129 1
181 130 1
181 131 1
181 133 1
181 135 1
181 136 1
181 139 1
181 142 1
181 143 1
181 149 1
181 150 1
181 153 1
181 156 1
181 161 1
181 162 1
181 164 1
181 167 1
181 173 1
181 176 1
181 177 1
181 178 1
181 179 1
181 183 1
181 184 1
181 186 1
181 187 1
181 188 1
181 189 1
181 191 1
181 192 1
181 193 1
181 197 1
181 198 1
181 206 1
181 209 1
181 212 1
181 214 1
181 216 1
181 220 1
181 223 1
181 227 1
181 229 1
181 230 1
181 231 1
181 233 1
181 236 1
181 237 1
181 239 1
181 241 1
181 247 1
181 251 1
181 253 1
181 255 1
181 258 1
181 259 1
181 264 1
181 265 1
181 266 1
181 268 1
181 272 1
181 274 1
181 275 1
181 276 1
181 277 1
181 280 1
181 286 1
181 288 1
181 291 1
181 292 1
181 295 1
181 297 1
181 299 1
181 300 1
181 301 1
181 305 1
181 306 1
181 307 1
181 311 1
181 312 1
181 318 1
181 322 1
181 323 1
181 338 1
181 339 1
181 342 1
181 343 1
181 346 1
181 347 1
181 357 1
181 359 1
181 362 1
181 364 1
181 369 1
181 370 1
181 373 1
181 376 1
181 378 1
181 381 1
181 383 1
181 387 1
181 388 1
181 390 1
181 394 1
181 395 1
181 398 1
182 1 1
182 2 1
182 3 1
182 5 1
182 8 1
182 13 1
182 14 1
182 22 1
182 25 1
182 26 1
182 27 1
182 29 1
182 30 1
182 33 1
182 37 1
182 38 1
182 40 1
182 42 1
182 44 1
182 49 1
182 50 1
182 54 1
182 55 1
182 56 1
182 60 1
182 61 1
182 62 1
182 64 1
182 67 1
182 68 1
182 71 1
182 76 1
182 77 1
182 83 1
182 84 1
182 85 1
182 87 1
182 89 1
182 90 1
182 93 1
182 94 1
182 97 1
182 101 1
182 102 1
182 112 1
182 114 1
182 122 1
182 124 1
182 129 1
182 130 1
182 132 1
182 133 1
182 135 1
182 137 1
182 138 1
182 143 1
182 146 1
182 147 1
182 148 1
182 149 1
182 150 1
182 151 1
182 152 1
182 155 1
182 158 1
182 165 1
182 166 1
182 168 1
182 185 1
182 188 1
182 191 1
182 196 1
182 203 1
182 206 1
182 208 1
182 213 1
182 216 1
182 218 1
182 219 1
182 222 1
182 226 1
182 227 1
182 228 1
182 229 1
182 236 1
182 237 1
182 238 1
182 240 1
182 243 1
182 250 1
182 251 1
182 257 1
182 264 1
182 267 1
182 272 1
182 275 1
182 276 1
182 278 1
182 279 1
182 282 1
182 283 1
182 285 1
182 286 1
182 288 1
182 292 1
182 294 1
182 297 1
182 298 1
182 300 1
182 301 1
182 303 1
182 309 1
182 311 1
182 315 1
182 316 1
182 317 1
182 319 1
182 320 1
182 321 1
182 325 1
182 326 1
182 327 1
182 328 1
182 330 1
182 331 1
182 334 1
182 336 1
182 338 1
182 339 1
182 341 1
182 342 1
182 343 1
182 346 1
182 349 1
182 351 1
182 353 1
182 355 1
182 358 1
182 359 1
182 361 1
182 362 1
182 364 1
182 370 1
182 371 1
182 372 1
182 381 1
182 382 1
182 383 1
182 385 1
182 390 1
182 392 1
182 393 1
182 398 1
183 2 1
183 3 1
183 5 1
183 6 1
183 9 1
183 10 1
183 15 1
183 18 1
183 21 1
183 23 1
183 25 1
183 26 1
183 28 1
183 29 1
183 30 1
183 31 1
183 33 1
183 35 1
183 37 1
183 39 1
183 41 1
183 42 1
183 43 1
183 45 1
183 49 1
183 50 1
183 54 1
183 56 1
183 58 1
183 61 1
183 64 1
183 66 1
183 70 1
183 71 1
183 72 1
183 73 1
183 75 1
183 76 1
183 79 1
183 88 1
183 91 1
183 96 1
183 97 1
183 101 1
183 105 1
183 107 1
183 108 1
183 109 1
183 113 1
183 114 1
183 115 1
183 117 1
183 121 1
183 122 1
183 123 1
183 124 1
183 126 1
183 129 1
183 130 1
183 131 1
183 132 1
183 135 1
183 136 1
183 141 1
183 143 1
183 144 1
183 145 1
183 146 1
183 148 1
183 151 1
183 155 1
183 161 1
183 162 1
183 163 1
183 166 1
183 168 1
183 172 1
183 173 1
183 180 1
183 181 1
183 187 1
183 190 1
183 192 1
183 197 1
183 201 1
183 207 1
183 210 1
183 212 1
183 217 1
183 234 1
183 236 1
183 237 1
183 238 1
183 239 1
183 242 1
183 243 1
183 247 1
183 249 1
183 250 1
183 253 1
183 254 1
183 255 1
183 258 1
183 260 1
183 262 1
183 266 1
183 267 1
183 268 1
183 272 1
183 274 1
183 281 1
183 286 1
183 288 1
183 289 1
183 290 1
183 293 1
183 295 1
183 298 1
183 299 1
183 300 1
183 302 1
183 305 1
183 307 1
183 313 1
183 315 1
183 318 1
183 319 1
183 323 1
183 325 1
183 329 1
183 332 1
183 338 1
183 339 1
183 342 1
183 346 1
183 350 1
183 355 1
183 364 1
183 366 1
183 367 1
183 368 1
183 369 1
183 370 1
183 373 1
183 374 1
183 377 1
183 380 1
183 384 1
183 388 1
183 389 1
183 390 1
183 392 1
183 393 1
183 395 1
184 4 1
184 6 1
184 7 1
184 12 1
184 13 1
184 21 1
184 22 1
184 23 1
184 27 1
184 28 1
184 39 1
184 40 1
184 53 1
184 54 1
184 56 1
184 63 1
184 64 1
184 68 1
184 74 1
184 75 1
184 76 1
184 77 1
184 78 1
184 79 1
184 80 1
184 81 1
184 82 1
184 83 1
184 84 1
184 87 1
184 90 1
184 91 1
184 92 1
184 93 1
184 94 1
184 95 1
184 96 1
184 99 1
184 100 1
184 102 1
184 103 1
184 105 1
184 106 1
184 107 1
184 111 1
184 112 1
184 115 1
184 116 1
184 120 1
184 121 1
184 129 1
184 131 1
184 132 1
184 133 1
184 134 1
184 138 1
184 142 1
184 143 1
184 146 1
184 148 1
184 150 1
184 154 1
184 155 1
184 157 1
184 159 1
184 161 1
184 164 1
184 165 1
184 167 1
184 168 1
184 171 1
184 173 1
184 174 1
184 176 1
184 177 1
184 178 1
184 181 1
184 190 1
184 194 1
184 195 1
184 196 1
184 198 1
184 200 1
184 205 1
184 206 1
184 207 1
184 208 1
184 209 1
184 211 1
184 212 1
184 218 1
184 224 1
184 225 1
184 227 1
184 229 1
184 230 1
184 233 1
184 234 1
184 236 1
184 239 1
184 240 1
184 241 1
184 243 1
184 244 1
184 246 1
184 250 1
184 251 1
184 253 1
184 255 1
184 259 1
184 260 1
184 263 1
184 264 1
184 266 1
184 270 1
184 271 1
184 272 1
184 275 1
184 281 1
184 286 1
184 287 1
184 288 1
184 289 1
184 297 1
184 298 1
184 301 1
184 303 1
184 305 1
184 306 1
184 312 1
184 313 1
184 317 1
184 324 1
184 328 1
184 332 1
184 334 1
184 339 1
184 341 1
184 346 1
184 347 1
184 348 1
184 350 1
184 354 1
184 356 1
184 358 1
184 360 1
184 361 1
184 362 1
184 368 1
184 371 1
184 372 1
184 373 1
184 374 1
184 375 1
184 377 1
184 378 1
184 379 1
184 380 1
184 381 1
184 383 1
184 384 1
184 386 1
184 390 1
184 393 1
184 395 1
184 397 1
185 1 1
185 4 1
185 5 1
185 6 1
185 11 1
185 12 1
185 14 1
185 15 1
185 17 1
185 18 1
185 19 1
185 21 1
185 22 1
185 26 1
185 27 1
185 28 1
185 30 1
185 36 1
185 39 1
185 40 1
185 41 1
185 42 1
185 43 1
185 48 1
185 52 1
185 56 1
185 59 1
185 60 1
185 61 1
185 66 1
185 67 1
185 72 1
185 73 1
185 75 1
185 76 1
185 77 1
185 79 1
185 80 1
185 83 1
185 85 1
185 86 1
185 87 1
185 88 1
185 90 1
185 91 1
185 92 1
185 95 1
185 97 1
185 99 1
185 100 1
185 103 1
185 107 1
185 111 1
185 113 1
185 116 1
185 118 1
185 120 1
185 122 1
185 123 1
185 126 1
185 129 1
185 131 1
185 135 1
185 137 1
185 138 1
185 139 1
185 141 1
185 142 1
185 143 1
185 144 1
185 145 1
185 146 1
185 147 1
185 150 1
185 154 1
185 160 1
185 162 1
185 163 1
185 164 1
185 165 1
185 168 1
185 170 1
185 172 1
185 176 1
185 177 1
185 182 1
185 186 1
185 188 1
185 189 1
185 191 1
185 193 1
185 194 1
185 196 1
185 198 1
185 203 1
185 204 1
185 209 1
185 211 1
185 213 1
185 214 1
185 215 1
185 216 1
185 219 1
185 220 1
185 222 1
185 227 1
185 230 1
185 231 1
185 236 1
185 237 1
185 238 1
185 240 1
185 243 1
185 246 1
185 259 1
185 261 1
185 263 1
185 268 1
185 269 1
185 274 1
185 277 1
185 278 1
185 280 1
185 286 1
185 290 1
185 292 1
185 294 1
185 296 1
185 300 1
185 303 1
185 304 1
185 306 1
185 307 1
185 308 1
185 310 1
185 311 1
185 313 1
185 314 1
185 316 1
185 317 1
185 318 1
185 320 1
185 323 1
185 324 1
185 325 1
185 326 1
185 328 1
185 338 1
185 339 1
185 342 1
185 343 1
185 347 1
185 348 1
185 349 1
185 356 1
185 357 1
185 358 1
185 362 1
185 364 1
185 368 1
185 369 1
185 371 1
185 375 1
185 376 1
185 378 1
185 379 1
185 380 1
185 381 1
185 383 1
185 385 1
185 387 1
185 390 1
185 391 1
185 392 1
185 393 1
185 395 1
185 397 1
186 1 1
186 3 1
186 9 1
186 14 1
186 15 1
186 17 1
186 20 1
186 21 1
186 22 1
186 24 1
186 30 1
186 31 1
186 33 1
186 34 1
186 35 1
186 39 1
186 40 1
186 42 1
186 43 1
186 49 1
186 51 1
186 53 1
186 54 1
186 55 1
186 56 1
186 57 1
186 58 1
186 60 1
186 61 1
186 63 1
186 64 1
186 65 1
186 68 1
186 71 1
186 72 1
186 77 1
186 80 1
186 81 1
186 83 1
186 84 1
186 86 1
186 87 1
186 88 1
186 89 1
186 90 1
186 91 1
186 95 1
186 98 1
186 100 1
186 104 1
186 108 1
186 110 1
186 112 1
186 113 1
186 114 1
186 115 1
186 116 1
186 117 1
186 118 1
186 121 1
186 122 1
186 123 1
186 130 1
186 133 1
186 135 1
186 140 1
186 142 1
186 143 1
186 156 1
186 159 1
186 160 1
186 164 1
186 165 1
186 170 1
186 172 1
186 176 1
186 178 1
186 179 1
186 180 1
186 181 1
186 185 1
186 187 1
186 189 1
186 191 1
186 195 1
186 197 1
186 204 1
186 207 1
186 213 1
186 215 1
186 221 1
186 223 1
186 228 1
186 232 1
186 235 1
186 236 1
186 237 1
186 238 1
186 239 1
186 241 1
186 243 1
186 246 1
186 248 1
186 251 1
186 252 1
186 253 1
186 256 1
186 259 1
186 260 1
186 261 1
186 262 1
186 265 1
186 266 1
186 268 1
186 269 1
186 278 1
186 279 1
186 281 1
186 283 1
186 285 1
186 288 1
186 290 1
186 291 1
186 293 1
186 297 1
186 301 1
186 302 1
186 307 1
186 308 1
186 310 1
186 311 1
186 313 1
186 316 1
186 318 1
186 319 1
186 323 1
186 329 1
186 330 1
186 332 1
186 335 1
186 338 1
186 339 1
186 341 1
186 343 1
186 344 1
186 347 1
186 349 1
186 350 1
186 351 1
186 353 1
186 355 1
186 356 1
186 357 1
186 359 1
186 360 1
186 363 1
186 364 1
186 365 1
186 370 1
186 377 1
186 380 1
186 382 1
186 385 1
186 386 1
186 392 1
186 394 1
186 399 1
186 400 1
187 2 1
187 4 1
187 6 1
187 7 1
187 10 1
187 11 1
187 12 1
187 13 1
187 15 1
187 16 1
187 20 1
187 23 1
187 24 1
187 26 1
187 27 1
187 28 1
187 31 1
187 33 1
187 35 1
187 37 1
187 39 1
187 40 1
187 43 1
187 44 1
187 49 1
187 56 1
187 57 1
187 58 1
187 59 1
187 62 1
187 63 1
187 64 1
187 69 1
187 70 1
187 74 1
187 76 1
187 80 1
187 81 1
187 88 1
187 96 1
187 99 1
187 101 1
187 102 1
187 103 1
187 105 1
187 109 1
187 114 1
187 117 1
187 118 1
187 119 1
187 120 1
187 122 1
187 123 1
187 124 1
187 125 1
187 135 1
187 136 1
187 137 1
187 140 1
187 142 1
187 146 1
187 150 1
187 151 1
187 153 1
187 157 1
187 167 1
187 169 1
187 170 1
187 171 1
187 175 1
187 179 1
187 181 1
187 183 1
187 186 1
187 190 1
187 191 1
187 192 1
187 207 1
187 211 1
187 213 1
187 214 1
187 216 1
187 217 1
187 218 1
187 222 1
187 223 1
187 227 1
187 231 1
187 235 1
187 239 1
187 244 1
187 246 1
187 247 1
187 248 1
187 254 1
187 257 1
187 260 1
187 261 1
187 262 1
187 266 1
187 268 1
187 271 1
187 272 1
187 273 1
187 274 1
187 282 1
187 284 1
187 285 1
187 286 1
187 287 1
187 288 1
187 290 1
187 294 1
187 296 1
187 299 1
187 300 1
187 301 1
187 303 1
187 304 1
187 305 1
187 312 1
187 313 1
187 316 1
187 317 1
187 318 1
187 322 1
187 329 1
187 331 1
187 332 1
187 333 1
187 334 1
187 335 1
187 336 1
187 338 1
187 339 1
187 340 1
187 343 1
187 348 1
187 350 1
187 351 1
187 352 1
187 353 1
187 357 1
187 358 1
187 362 1
187 363 1
187 366 1
187 381 1
187 387 1
187 388 1
187 390 1
187 391 1
187 393 1
188 4 1
188 12 1
188 13 1
188 19 1
188 20 1
188 21 1
188 24 1
188 26 1
188 28 1
188 35 1
188 36 1
188 39 1
188 48 1
188 49 1
188 51 1
188 52 1
188 56 1
188 57 1
188 59 1
188 62 1
188 65 1
188 71 1
188 72 1
188 76 1
188 77 1
188 81 1
188 83 1
188 85 1
188 86 1
188 87 1
188 88 1
188 91 1
188 93 1
188 94 1
188 98 1
188 100 1
188 102 1
188 104 1
188 105 1
188 106 1
188 107 1
188 108 1
188 117 1
188 121 1
188 130 1
188 132 1
188 135 1
188 137 1
188 143 1
188 145 1
188 146 1
188 147 1
188 150 1
188 153 1
188 156 1
188 157 1
188 158 1
188 163 1
188 166 1
188 168 1
188 170 1
188 171 1
188 178 1
188 180 1
188 181 1
188 182 1
188 185 1
188 190 1
188 191 1
188 192 1
188 194 1
188 195 1
188 196 1
188 200 1
188 201 1
188 202 1
188 203 1
188 205 1
188 206 1
188 212 1
188 213 1
188 214 1
188 217 1
188 220 1
188 222 1
188 224 1
188 225 1
188 227 1
188 236 1
188 241 1
188 242 1
188 243 1
188 244 1
188 245 1
188 246 1
188 247 1
188 248 1
188 249 1
188 256 1
188 262 1
188 263 1
188 265 1
188 266 1
188 268 1
188 270 1
188 272 1
188 275 1
188 277 1
188 278 1
188 282 1
188 288 1
188 295 1
188 299 1
188 300 1
188 304 1
188 305 1
188 307 1
188 308 1
188 313 1
188 315 1
188 316 1
188 317 1
188 322 1
188 324 1
188 326 1
188 330 1
188 332 1
188 333 1
188 334 1
188 340 1
188 345 1
188 349 1
188 350 1
188 351 1
188 353 1
188 355 1
188 356 1
188 362 1
188 365 1
188 366 1
188 367 1
188 368 1
188 372 1
188 377 1
188 380 1
188 385 1
188 387 1
188 390 1
188 391 1
188 393 1
188 396 1
188 397 1
188 398 1
189 1 1
189 11 1
189 13 1
189 15 1
189 19 1
189 20 1
189 21 1
189 28 1
189 29 1
189 36 1
189 37 1
189 38 1
189 40 1
189 41 1
189 43 1
189 46 1
189 49 1
189 50 1
189 58 1
189 64 1
189 66 1
189 67 1
189 70 1
189 72 1
189 75 1
189 76 1
189 79 1
189 80 1
189 84 1
189 88 1
189 91 1
189 96 1
189 97 1
189 98 1
189 100 1
189 103 1
189 105 1
189 106 1
189 107 1
189 111 1
189 115 1
189 117 1
189 120 1
189 121 1
189 122 1
189 123 1
189 125 1
189 126 1
189 128 1
189 129 1
189 130 1
189 132 1
189 133 1
189 134 1
189 135 1
189 136 1
189 147 1
189 148 1
189 150 1
189 152 1
189 153 1
189 154 1
189 156 1
189 157 1
189 161 1
189 166 1
189 169 1
189 170 1
189 174 1
189 179 1
189 181 1
189 185 1
189 186 1
189 192 1
189 194 1
189 199 1
189 200 1
189 203 1
189 205 1
189 207 1
189 208 1
189 210 1
189 212 1
189 216 1
189 217 1
189 218 1
189 219 1
189 222 1
189 223 1
189 225 1
189 230 1
189 231 1
189 232 1
189 234 1
189 236 1
189 238 1
189 239 1
189 242 1
189 243 1
189 247 1
189 249 1
189 250 1
189 256 1
189 258 1
189 261 1
189 262 1
189 264 1
189 266 1
189 267 1
189 269 1
189 270 1
189 276 1
189 277 1
189 281 1
189 284 1
189 288 1
189 290 1
189 292 1
189 294 1
189 297 1
189 300 1
189 302 1
189 305 1
189 306 1
189 307 1
189 313 1
189 315 1
189 317 1
189 320 1
189 323 1
189 324 1
189 325 1
189 330 1
189 331 1
189 332 1
189 333 1
189 336 1
189 341 1
189 343 1
189 348 1
189 350 1
189 355 1
189 358 1
189 359 1
189 361 1
189 363 1
189 364 1
189 366 1
189 367 1
189 368 1
189 372 1
189 375 1
189 376 1
189 379 1
189 383 1
189 386 1
189 389 1
189 391 1
189 398 1
189 400 1
190 3 1
190 4 1
190 12 1
190 16 1
190 17 1
190 18 1
190 22 1
190 23 1
190 25 1
190 27 1
190 30 1
190 34 1
190 37 1
190 39 1
190 41 1
190 43 1
190 44 1
190 49 1
190 55 1
190 59 1
190 60 1
190 63 1
190 64 1
190 65 1
190 67 1
190 69 1
190 71 1
190 75 1
190 78 1
190 80 1
190 82 1
190 83 1
190 84 1
190 86 1
190 87 1
190 90 1
190 92 1
190 93 1
190 95 1
190 97 1
190 101 1
190 103 1
190 104 1
190 105 1
190 107 1
190 108 1
190 113 1
190 114 1
190 116 1
190 118 1
190 121 1
190 122 1
190 123 1
190 129 1
190 134 1
190 135 1
190 136 1
190 138 1
190 140 1
190 146 1
190 147 1
190 149 1
190 150 1
190 152 1
190 153 1
190 158 1
190 160 1
190 161 1
190 162 1
190 164 1
190 166 1
190 168 1
190 169 1
190 170 1
190 171 1
190 175 1
190 178 1
190 180 1
190 183 1
190 184 1
190 187 1
190 188 1
190 192 1
190 194 1
190 195 1
190 198 1
190 199 1
190 202 1
190 203 1
190 206 1
190 207 1
190 210 1
190 211 1
190 213 1
190 215 1
190 216 1
190 218 1
190 219 1
190 222 1
190 224 1
190 230 1
190 231 1
190 232 1
190 234 1
190 237 1
190 240 1
190 242 1
190 244 1
190 248 1
190 249 1
190 251 1
190 254 1
190 259 1
190 262 1
190 268 1
190 270 1
190 271 1
190 273 1
190 276 1
190 277 1
190 282 1
190 286 1
190 287 1
190 288 1
190 289 1
190 290 1
190 291 1
190 294 1
190 297 1
190 301 1
190 303 1
190 306 1
190 307 1
190 309 1
190 310 1
190 312 1
190 313 1
190 322 1
190 323 1
190 326 1
190 327 1
190 335 1
190 339 1
190 341 1
190 342 1
190 343 1
190 346 1
190 347 1
190 348 1
190 350 1
190 354 1
190 358 1
190 361 1
190 362 1
190 364 1
190 365 1
190 367 1
190 374 1
190 376 1
190 377 1
190 387 1
190 392 1
190 395 1
190 400 1
191 1 1
191 3 1
191 6 1
191 9 1
191 13 1
191 16 1
191 18 1
191 21 1
191 23 1
191 24 1
191 28 1
191 32 1
191 33 1
191 35 1
191 36 1
191 39 1
191 46 1
191 48 1
191 50 1
191 59 1
191 60 1
191 66 1
191 70 1
191 71 1
191 72 1
191 73 1
191 74 1
191 79 1
191 80 1
191 85 1
191 87 1
191 88 1
191 89 1
191 93 1
191 95 1
191 98 1
191 100 1
191 103 1
191 104 1
191 109 1
191 110 1
191 111 1
191 115 1
191 117 1
191 118 1
191 119 1
191 120 1
191 124 1
191 129 1
191 131 1
191 132 1
191 135 1
191 137 1
191 139 1
191 140 1
191 142 1
191 144 1
191 148 1
191 149 1
191 150 1
191 152 1
191 153 1
191 155 1
191 156 1
191 157 1
191 158 1
191 160 1
191 161 1
191 164 1
191 173 1
191 175 1
191 176 1
191 181 1
191 182 1
191 185 1
191 186 1
191 187 1
191 188 1
191 197 1
191 202 1
191 203 1
191 205 1
191 207 1
191 208 1
191 210 1
191 214 1
191 215 1
191 216 1
191 217 1
191 218 1
191 220 1
191 224 1
191 225 1
191 226 1
191 236 1
191 239 1
191 240 1
191 243 1
191 247 1
191 248 1
191 249 1
191 250 1
191 253 1
191 254 1
191 255 1
191 256 1
191 258 1
191 260 1
191 261 1
191 264 1
191 268 1
191 273 1
191 274 1
191 279 1
191 282 1
191 285 1
191 287 1
191 288 1
191 290 1
191 293 1
191 297 1
191 300 1
191 301 1
191 302 1
191 303 1
191 304 1
191 309 1
191 310 1
191 312 1
191 313 1
191 319 1
191 321 1
191 323 1
191 332 1
191 333 1
191 334 1
191 336 1
191 338 1
191 342 1
191 344 1
191 346 1
191 348 1
191 350 1
191 352 1
191 353 1
191 355 1
191 357 1
191 359 1
191 364 1
191 365 1
191 368 1
191 370 1
191 377 1
191 378 1
191 380 1
191 383 1
191 385 1
191 389 1
191 390 1
191 393 1
191 395 1
191 396 1
191 398 1
191 399 1
192 1 1
192 3 1
192 8 1
192 9 1
192 10 1
192 14 1
192 16 1
192 19 1
192 21 1
192 24 1
192 25 1
192 27 1
192 33 1
192 35 1
192 36 1
192 38 1
192 39 1
192 40 1
192 46 1
192 47 1
192 48 1
192 49 1
192 51 1
192 52 1
192 53 1
192 55 1
192 60 1
192 67 1
192 72 1
192 74 1
192 75 1
192 78 1
192 79 1
192 80 1
192 81 1
192 82 1
192 83 1
192 84 1
192 86 1
192 87 1
192 92 1
192 93 1
192 96 1
192 98 1
192 100 1
192 106 1
192 109 1
192 110 1
192 113 1
192 115 1
192 117 1
192 119 1
192 123 1
192 125 1
192 126 1
192 127 1
192 129 1
192 130 1
192 134 1
192 140 1
192 141 1
192 142 1
192 144 1
192 145 1
192 148 1
192 149 1
192 150 1
192 152 1
192 153 1
192 154 1
192 155 1
192 156 1
192 158 1
192 160 1
192 161 1
192 177 1
192 181 1
192 183 1
192 187 1
192 188 1
192 189 1
192 190 1
192 195 1
192 197 1
192 198 1
192 203 1
192 206 1
192 211 1
192 221 1
192 225 1
192 226 1
192 227 1
192 229 1
192 231 1
192 233 1
192 234 1
192 236 1
192 238 1
192 239 1
192 243 1
192 244 1
192 250 1
192 258 1
192 259 1
192 263 1
192 267 1
192 270 1
192 271 1
192 274 1
192 275 1
192 278 1
192 279 1
192 281 1
192 283 1
192 284 1
192 288 1
192 289 1
192 290 1
192 297 1
192 298 1
192 300 1
192 302 1
192 306 1
192 308 1
192 309 1
192 315 1
192 321 1
192 324 1
192 325 1
192 327 1
192 331 1
192 334 1
192 338 1
192 343 1
192 348 1
192 349 1
192 350 1
192 351 1
192 358 1
192 359 1
192 360 1
192 363 1
192 364 1
192 366 1
192 368 1
192 371 1
192 372 1
192 374 1
192 377 1
192 379 1
192 381 1
192 386 1
192 387 1
192 390 1
192 392 1
192 396 1
192 397 1
192 398 1
192 399 1
193 3 1
193 7 1
193 8 1
193 10 1
193 14 1
193 24 1
193 25 1
193 26 1
193 27 1
193 29 1
193 30 1
193 33 1
193 35 1
193 36 1
193 37 1
193 39 1
193 40 1
193 44 1
193 46 1
193 49 1
193 50 1
193 53 1
193 55 1
193 58 1
193 60 1
193 61 1
193 62 1
193 66 1
193 67 1
193 69 1
193 71 1
193 73 1
193 74 1
193 75 1
193 76 1
193 77 1
193 79 1
193 80 1
193 81 1
193 82 1
193 83 1
193 84 1
193 89 1
193 90 1
193 95 1
193 99 1
193 100 1
193 102 1
193 105 1
193 109 1
193 110 1
193 111 1
193 112 1
193 115 1
193 119 1
193 121 1
193 123 1
193 124 1
193 125 1
193 126 1
193 127 1
193 128 1
193 129 1
193 130 1
193 132 1
193 134 1
193 135 1
193 137 1
193 139 1
193 141 1
193 142 1
193 144 1
193 149 1
193 150 1
193 153 1
193 154 1
193 158 1
193 159 1
193 160 1
193 161 1
193 164 1
193 167 1
193 168 1
193 169 1
193 171 1
193 174 1
193 176 1
193 180 1
193 181 1
193 185 1
193 197 1
193 200 1
193 201 1
193 203 1
193 208 1
193 209 1
193 212 1
193 214 1
193 219 1
193 220 1
193 221 1
193 222 1
193 223 1
193 226 1
193 231 1
193 232 1
193 235 1
193 236 1
193 241 1
193 243 1
193 245 1
193 247 1
193 248 1
193 260 1
193 262 1
193 268 1
193 271 1
193 277 1
193 281 1
193 282 1
193 284 1
193 285 1
193 290 1
193 291 1
193 293 1
193 298 1
193 299 1
193 301 1
193 305 1
193 306 1
193 307 1
193 308 1
193 309 1
193 311 1
193 320 1
193 322 1
193 323 1
193 324 1
193 327 1
193 329 1
193 332 1
193 334 1
193 336 1
193 337 1
193 338 1
193 339 1
193 345 1
193 346 1
193 347 1
193 350 1
193 355 1
193 357 1
193 359 1
193 361 1
193 370 1
193 374 1
193 376 1
193 377 1
193 378 1
193 380 1
193 382 1
193 386 1
193 394 1
193 397 1
193 400 1
194 1 1
194 2 1
194 3 1
194 10 1
194 11 1
194 12 1
194 14 1
194 18 1
194 19 1
194 23 1
194 27 1
194 28 1
194 29 1
194 30 1
194 32 1
194 34 1
194 41 1
194 42 1
194 44 1
194 46 1
194 48 1
194 49 1
194 55 1
194 56 1
194 57 1
194 58 1
194 66 1
194 72 1
194 75 1
194 78 1
194 80 1
194 81 1
194 82 1
194 83 1
194 84 1
194 91 1
194 94 1
194 96 1
194 97 1
194 103 1
194 104 1
194 113 1
194 121 1
194 122 1
194 123 1
194 127 1
194 130 1
194 131 1
194 138 1
194 141 1
194 142 1
194 143 1
194 144 1
194 145 1
194 146 1
194 148 1
194 149 1
194 150 1
194 153 1
194 154 1
194 155 1
194 162 1
194 163 1
194 164 1
194 165 1
194 171 1
194 173 1
194 174 1
194 175 1
194 177 1
194 178 1
194 179 1
194 184 1
194 185 1
194 188 1
194 189 1
194 190 1
194 200 1
194 204 1
194 209 1
194 212 1
194 214 1
194 215 1
194 220 1
194 221 1
194 222 1
194 226 1
194 229 1
194 230 1
194 232 1
194 235 1
194 237 1
194 239 1
194 241 1
194 242 1
194 243 1
194 244 1
194 248 1
194 249 1
194 250 1
194 253 1
194 255 1
194 256 1
194 258 1
194 261 1
194 263 1
194 264 1
194 266 1
194 269 1
194 276 1
194 278 1
194 281 1
194 282 1
194 286 1
194 288 1
194 290 1
194 293 1
194 295 1
194 296 1
194 302 1
194 305 1
194 306 1
194 308 1
194 309 1
194 311 1
194 316 1
194 319 1
194 323 1
194 324 1
194 327 1
194 331 1
194 332 1
194 336 1
194 337 1
194 339 1
194 347 1
194 350 1
194 352 1
194 353 1
194 354 1
194 360 1
194 366 1
194 367 1
194 369 1
194 374 1
194 376 1
194 377 1
194 379 1
194 381 1
194 383 1
194 386 1
194 388 1
194 391 1
194 396 1
194 397 1
194 399 1
194 400 1
195 1 1
195 3 1
195 4 1
195 6 1
195 9 1
195 10 1
195 16 1
195 18 1
195 20 1
195 24 1
195 28 1
195 35 1
195 36 1
195 38 1
195 40 1
195 41 1
195 42 1
195 46 1
195 49 1
195 50 1
195 51 1
195 53 1
195 58 1
195 60 1
195 61 1
195 64 1
195 65 1
195 67 1
195 70 1
195 72 1
195 75 1
195 83 1
195 85 1
195 89 1
195 90 1
195 92 1
195 95 1
195 97 1
195 98 1
195 100 1
195 102 1
195 103 1
195 105 1
195 106 1
195 108 1
195 115 1
195 125 1
195 128 1
195 133 1
195 138 1
195 143 1
195 147 1
195 148 1
195 150 1
195 153 1
195 154 1
195 155 1
195 159 1
195 163 1
195 164 1
195 167 1
195 169 1
195 171 1
195 172 1
195 174 1
195 176 1
195 184 1
195 186 1
195 188 1
195 190 1
195 192 1
195 198 1
195 200 1
195 201 1
195 203 1
195 207 1
195 208 1
195 210 1
195 212 1
195 213 1
195 216 1
195 218 1
195 220 1
195 222 1
195 223 1
195 224 1
195 225 1
195 226 1
195 230 1
195 231 1
195 232 1
195 235 1
195 242 1
195 243 1
195 245 1
195 246 1
195 248 1
195 249 1
195 250 1
195 251 1
195 253 1
195 254 1
195 255 1
195 258 1
195 263 1
195 270 1
195 273 1
195 274 1
195 278 1
195 281 1
195 283 1
195 284 1
195 285 1
195 286 1
195 288 1
195 291 1
195 292 1
195 294 1
195 295 1
195 299 1
195 302 1
195 304 1
195 305 1
195 306 1
195 308 1
195 313 1
195 315 1
195 316 1
195 317 1
195 321 1
195 327 1
195 334 1
195 335 1
195 336 1
195 337 1
195 345 1
195 346 1
195 348 1
195 349 1
195 351 1
195 352 1
195 353 1
195 356 1
195 358 1
195 361 1
195 363 1
195 364 1
195 365 1
195 368 1
195 369 1
195 371 1
195 374 1
195 376 1
195 379 1
195 384 1
195 385 1
195 387 1
195 388 1
195 392 1
195 395 1
195 397 1
196 2 1
196 6 1
196 9 1
196 12 1
196 16 1
196 19 1
196 22 1
196 23 1
196 25 1
196 28 1
196 29 1
196 31 1
196 32 1
196 37 1
196 38 1
196 40 1
196 43 1
196 44 1
196 45 1
196 46 1
196 47 1
196 48 1
196 49 1
196 51 1
196 52 1
196 54 1
196 58 1
196 63 1
196 65 1
196 70 1
196 71 1
196 72 1
196 74 1
196 75 1
196 77 1
196 79 1
196 81 1
196 82 1
196 90 1
196 92 1
196 93 1
196 94 1
196 101 1
196 102 1
196 103 1
196 109 1
196 112 1
196 114 1
196 116 1
196 120 1
196 128 1
196 131 1
196 134 1
196 137 1
196 140 1
196 143 1
196 147 1
196 152 1
196 156 1
196 162 1
196 164 1
196 173 1
196 175 1
196 178 1
196 182 1
196 184 1
196 185 1
196 188 1
196 197 1
196 202 1
196 205 1
196 206 1
196 209 1
196 211 1
196 212 1
196 213 1
196 216 1
196 218 1
196 219 1
196 222 1
196 223 1
196 226 1
196 227 1
196 228 1
196 229 1
196 232 1
196 233 1
196 235 1
196 236 1
196 237 1
196 239 1
196 241 1
196 242 1
196 243 1
196 244 1
196 250 1
196 254 1
196 255 1
196 256 1
196 263 1
196 265 1
196 266 1
196 269 1
196 277 1
196 278 1
196 282 1
196 283 1
196 299 1
196 301 1
196 302 1
196 303 1
196 305 1
196 308 1
196 309 1
196 310 1
196 312 1
196 316 1
196 319 1
196 327 1
196 329 1
196 333 1
196 334 1
196 335 1
196 336 1
196 338 1
196 340 1
196 342 1
196 345 1
196 352 1
196 354 1
196 357 1
196 367 1
196 368 1
196 370 1
196 371 1
196 375 1
196 377 1
196 380 1
196 381 1
196 392 1
196 393 1
196 394 1
196 396 1
196 397 1
197 2 1
197 3 1
197 5 1
197 6 1
197 7 1
197 8 1
197 9 1
197 15 1
197 16 1
197 19 1
197 20 1
197 27 1
197 29 1
197 32 1
197 33 1
197 34 1
197 35 1
197 36 1
197 42 1
197 43 1
197 45 1
197 54 1
197 55 1
197 60 1
197 61 1
197 62 1
197 64 1
197 65 1
197 68 1
197 71 1
197 78 1
197 79 1
197 80 1
197 81 1
197 82 1
197 86 1
197 88 1
197 94 1
197 105 1
197 108 1
197 109 1
197 113 1
197 116 1
197 117 1
197 118 1
197 126 1
197 128 1
197 129 1
197 131 1
197 132 1
197 135 1
197 137 1
197 139 1
197 141 1
197 142 1
197 145 1
197 146 1
197 155 1
197 161 1
197 162 1
197 170 1
197 171 1
197 172 1
197 173 1
197 175 1
197 177 1
197 178 1
197 179 1
197 180 1
197 181 1
197 183 1
197 186 1
197 191 1
197 192 1
197 193 1
197 196 1
197 198 1
197 202 1
197 209 1
197 211 1
197 216 1
197 218 1
197 220 1
197 224 1
197 232 1
197 237 1
197 238 1
197 240 1
197 242 1
197 244 1
197 248 1
197 250 1
197 256 1
197 257 1
197 258 1
197 261 1
197 265 1
197 275 1
197 282 1
197 288 1
197 289 1
197 290 1
197 291 1
197 295 1
197 298 1
197 302 1
197 305 1
197 307 1
197 317 1
197 319 1
197 322 1
197 323 1
197 327 1
197 329 1
197 335 1
197 337 1
197 341 1
197 342 1
197 343 1
197 344 1
197 345 1
197 346 1
197 348 1
197 358 1
197 360 1
197 361 1
197 370 1
197 373 1
197 374 1
197 379 1
197 382 1
197 384 1
197 385 1
197 387 1
197 389 1
197 390 1
197 391 1
197 392 1
197 393 1
198 7 1
198 11 1
198 12 1
198 15 1
198 23 1
198 24 1
198 25 1
198 26 1
198 27 1
198 30 1
198 31 1
198 33 1
198 34 1
198 35 1
198 39 1
198 46 1
198 47 1
198 48 1
198 50 1
198 53 1
198 57 1
198 59 1
198 61 1
198 62 1
198 69 1
198 70 1
198 72 1
198 75 1
198 80 1
198 81 1
198 82 1
198 86 1
198 90 1
198 94 1
198 95 1
198 96 1
198 97 1
198 102 1
198 110 1
198 112 1
198 117 1
198 118 1
198 119 1
198 120 1
198 121 1
198 123 1
198 124 1
198 126 1
198 129 1
198 131 1
198 133 1
198 134 1
198 136 1
198 137 1
198 139 1
198 141 1
198 142 1
198 145 1
198 146 1
198 147 1
198 158 1
198 159 1
198 160 1
198 163 1
198 164 1
198 166 1
198 169 1
198 171 1
198 174 1
198 178 1
198 180 1
198 181 1
198 184 1
198 185 1
198 190 1
198 192 1
198 195 1
198 197 1
198 202 1
198 212 1
198 213 1
198 214 1
198 215 1
198 216 1
198 217 1
198 218 1
198 220 1
198 221 1
198 226 1
198 229 1
198 233 1
198 240 1
198 241 1
198 242 1
198 244 1
198 245 1
198 249 1
198 252 1
198 253 1
198 254 1
198 258 1
198 259 1
198 265 1
198 269 1
198 270 1
198 271 1
198 272 1
198 276 1
198 282 1
198 283 1
198 284 1
198 285 1
198 287 1
198 288 1
198 289 1
198 291 1
198 294 1
198 298 1
198 299 1
198 304 1
198 312 1
198 314 1
198 315 1
198 316 1
198 320 1
198 321 1
198 322 1
198 325 1
198 326 1
198 327 1
198 328 1
198 329 1
198 333 1
198 341 1
198 344 1
198 345 1
198 347 1
198 353 1
198 355 1
198 357 1
198 358 1
198 359 1
198 360 1
198 363 1
198 364 1
198 366 1
198 369 1
198 372 1
198 376 1
198 377 1
198 379 1
198 380 1
198 381 1
198 383 1
198 385 1
198 389 1
198 390 1
198 400 1
199 1 1
199 3 1
199 5 1
199 8 1
199 9 1
199 11 1
199 13 1
199 15 1
199 18 1
199 20 1
199 22 1
199 23 1
199 25 1
199 27 1
199 32 1
199 33 1
199 36 1
199 38 1
199 39 1
199 41 1
199 44 1
199 45 1
199 50 1
199 51 1
199 53 1
199 55 1
199 57 1
199 58 1
199 62 1
199 65 1
199 72 1
199 73 1
199 74 1
199 75 1
199 76 1
199 80 1
199 82 1
199 85 1
199 88 1
199 92 1
199 94 1
199 95 1
199 96 1
199 102 1
199 103 1
199 104 1
199 106 1
199 108 1
199 109 1
199 112 1
199 118 1
199 120 1
199 126 1
199 129 1
199 130 1
199 132 1
199 139 1
199 141 1
199 142 1
199 143 1
199 145 1
199 146 1
199 148 1
199 149 1
199 154 1
199 157 1
199 160 1
199 163 1
199 164 1
199 168 1
199 169 1
199 175 1
199 176 1
199 178 1
199 189 1
199 190 1
199 205 1
199 207 1
199 208 1
199 214 1
199 216 1
199 220 1
199 225 1
199 231 1
199 232 1
199 239 1
199 244 1
199 245 1
199 246 1
199 247 1
199 248 1
199 251 1
199 256 1
199 257 1
199 264 1
199 265 1
199 267 1
199 270 1
199 271 1
199 273 1
199 283 1
199 285 1
199 287 1
199 291 1
199 292 1
199 293 1
199 294 1
199 301 1
199 302 1
199 305 1
199 307 1
199 308 1
199 309 1
199 313 1
199 314 1
199 318 1
199 323 1
199 334 1
199 340 1
199 342 1
199 343 1
199 344 1
199 346 1
199 347 1
199 351 1
199 358 1
199 359 1
199 363 1
199 364 1
199 367 1
199 370 1
199 372 1
199 373 1
199 375 1
199 379 1
199 381 1
199 386 1
199 390 1
199 392 1
199 393 1
199 399 1
200 1 1
200 3 1
200 4 1
200 6 1
200 7 1
200 12 1
200 15 1
200 19 1
200 21 1
200 23 1
200 24 1
200 26 1
200 29 1
200 30 1
200 31 1
200 35 1
200 37 1
200 39 1
200 40 1
200 42 1
200 45 1
200 48 1
200 49 1
200 51 1
200 52 1
200 54 1
200 55 1
200 63 1
200 70 1
200 77 1
200 78 1
200 80 1
200 81 1
200 86 1
200 88 1
200 89 1
200 90 1
200 93 1
200 96 1
200 99 1
200 101 1
200 102 1
200 103 1
200 107 1
200 110 1
200 114 1
200 116 1
200 119 1
200 120 1
200 121 1
200 122 1
200 123 1
200 126 1
200 128 1
200 129 1
200 133 1
200 135 1
200 136 1
200 139 1
200 140 1
200 145 1
200 147 1
200 151 1
200 153 1
200 154 1
200 155 1
200 157 1
200 159 1
200 160 1
200 167 1
200 169 1
200 171 1
200 172 1
200 177 1
200 178 1
200 179 1
200 180 1
200 184 1
200 188 1
200 189 1
200 193 1
200 194 1
200 195 1
200 203 1
200 204 1
200 205 1
200 210 1
200 213 1
200 214 1
200 217 1
200 218 1
200 219 1
200 223 1
200 224 1
200 229 1
200 232 1
200 233 1
200 234 1
200 238 1
200 242 1
200 243 1
200 245 1
200 249 1
200 252 1
200 256 1
200 257 1
200 260 1
200 261 1
200 271 1
200 272 1
200 273 1
200 274 1
200 275 1
200 278 1
200 282 1
200 283 1
200 284 1
200 287 1
200 288 1
200 292 1
200 295 1
200 299 1
200 300 1
200 311 1
200 313 1
200 314 1
200 322 1
200 323 1
200 326 1
200 327 1
200 329 1
200 330 1
200 333 1
200 334 1
200 336 1
200 340 1
200 342 1
200 343 1
200 344 1
200 345 1
200 347 1
200 352 1
200 354 1
200 355 1
200 356 1
200 359 1
200 361 1
200 363 1
200 365 1
200 369 1
200 372 1
200 383 1
200 386 1
200 388 1
200 390 1
200 391 1
200 392 1
200 396 1
200 398 1
200 400 1
201 3 1
201 6 1
201 7 1
201 9 1
201 13 1
201 16 1
201 18 1
201 20 1
201 22 1
201 24 1
201 28 1
201 29 1
201 32 1
201 34 1
201 35 1
201 36 1
201 37 1
201 39 1
201 41 1
201 42 1
201 46 1
201 52 1
201 54 1
201 55 1
201 57 1
201 60 1
201 61 1
201 62 1
201 64 1
201 66 1
201 69 1
201 70 1
201 72 1
201 73 1
201 75 1
201 76 1
201 80 1
201 82 1
201 84 1
201 86 1
201 87 1
201 93 1
201 96 1
201 98 1
201 100 1
201 101 1
201 103 1
201 104 1
201 106 1
201 108 1
201 111 1
201 116 1
201 117 1
201 118 1
201 119 1
201 120 1
201 121 1
201 122 1
201 126 1
201 127 1
201 130 1
201 137 1
201 140 1
201 143 1
201 148 1
201 151 1
201 152 1
201 154 1
201 155 1
201 159 1
201 162 1
201 165 1
201 166 1
201 167 1
201 170 1
201 171 1
201 173 1
201 175 1
201 178 1
201 183 1
201 188 1
201 193 1
201 195 1
201 202 1
201 205 1
201 209 1
201 211 1
201 213 1
201 217 1
201 220 1
201 222 1
201 223 1
201 224 1
201 225 1
201 229 1
201 231 1
201 233 1
201 235 1
201 237 1
201 239 1
201 240 1
201 243 1
201 244 1
201 247 1
201 257 1
201 258 1
201 262 1
201 263 1
201 265 1
201 268 1
201 271 1
201 273 1
201 275 1
201 276 1
201 278 1
201 279 1
201 280 1
201 281 1
201 283 1
201 284 1
201 286 1
201 289 1
201 290 1
201 293 1
201 294 1
201 295 1
201 296 1
201 307 1
201 308 1
201 311 1
201 313 1
201 314 1
201 315 1
201 316 1
201 318 1
201 319 1
201 320 1
201 321 1
201 323 1
201 326 1
201 332 1
201 333 1
201 338 1
201 339 1
201 342 1
201 343 1
201 346 1
201 347 1
201 348 1
201 350 1
201 353 1
201 354 1
201 355 1
201 356 1
201 359 1
201 360 1
201 362 1
201 363 1
201 364 1
201 365 1
201 367 1
201 370 1
201 372 1
201 380 1
201 382 1
201 383 1
201 389 1
201 390 1
201 392 1
201 395 1
202 2 1
202 3 1
202 4 1
202 10 1
202 11 1
202 13 1
202 14 1
202 15 1
202 17 1
202 19 1
202 20 1
202 26 1
202 27 1
202 29 1
202 30 1
202 33 1
202 39 1
202 41 1
202 43 1
202 52 1
202 53 1
202 54 1
202 57 1
202 58 1
202 60 1
202 65 1
202 66 1
202 68 1
202 71 1
202 74 1
202 75 1
202 77 1
202 79 1
202 80 1
202 82 1
202 83 1
202 86 1
202 87 1
202 92 1
202 95 1
202 97 1
202 99 1
202 100 1
202 101 1
202 103 1
202 104 1
202 106 1
202 110 1
202 111 1
202 116 1
202 120 1
202 122 1
202 127 1
202 128 1
202 129 1
202 130 1
202 131 1
202 135 1
202 139 1
202 141 1
202 142 1
202 143 1
202 144 1
202 146 1
202 150 1
202 152 1
202 153 1
202 154 1
202 155 1
202 160 1
202 162 1
202 163 1
202 166 1
202 167 1
202 170 1
202 171 1
202 174 1
202 175 1
202 179 1
202 180 1
202 188 1
202 190 1
202 191 1
202 196 1
202 197 1
202 198 1
202 201 1
202 204 1
202 206 1
202 207 1
202 208 1
202 209 1
202 210 1
202 213 1
202 221 1
202 222 1
202 227 1
202 230 1
202 231 1
202 233 1
202 234 1
202 235 1
202 239 1
202 240 1
202 243 1
202 244 1
202 245 1
202 246 1
202 249 1
202 252 1
202 253 1
202 254 1
202 255 1
202 256 1
202 258 1
202 259 1
202 260 1
202 264 1
202 269 1
202 271 1
202 274 1
202 276 1
202 277 1
202 283 1
202 284 1
202 296 1
202 297 1
202 304 1
202 307 1
202 308 1
202 311 1
202 312 1
202 313 1
202 317 1
202 318 1
202 319 1
202 321 1
202 325 1
202 327 1
202 328 1
202 330 1
202 334 1
202 335 1
202 343 1
202 346 1
202 348 1
202 355 1
202 356 1
202 358 1
202 359 1
202 360 1
202 362 1
202 364 1
202 365 1
202 366 1
202 367 1
202 373 1
202 375 1
202 378 1
202 379 1
202 382 1
202 383 1
202 386 1
202 389 1
202 391 1
202 392 1
202 394 1
202 395 1
202 398 1
202 399 1
202 400 1
203 3 1
203 7 1
203 9 1
203 16 1
203 18 1
203 22 1
203 24 1
203 25 1
203 26 1
203 27 1
203 30 1
203 33 1
203 36 1
203 43 1
203 44 1
203 49 1
203 50 1
203 51 1
203 53 1
203 58 1
203 62 1
203 63 1
203 64 1
203 66 1
203 67 1
203 71 1
203 72 1
203 73 1
203 74 1
203 75 1
203 77 1
203 79 1
203 84 1
203 88 1
203 90 1
203 92 1
203 97 1
203 98 1
203 103 1
203 104 1
203 107 1
203 109 1
203 110 1
203 114 1
203 115 1
203 118 1
203 121 1
203 122 1
203 124 1
203 125 1
203 136 1
203 138 1
203 140 1
203 144 1
203 147 1
203 150 1
203 153 1
203 156 1
203 157 1
203 159 1
203 167 1
203 169 1
203 170 1
203 174 1
203 177 1
203 178 1
203 182 1
203 185 1
203 188 1
203 189 1
203 190 1
203 191 1
203 192 1
203 193 1
203 195 1
203 200 1
203 209 1
203 211 1
203 212 1
203 214 1
203 218 1
203 220 1
203 221 1
203 224 1
203 226 1
203 228 1
203 232 1
203 237 1
203 242 1
203 243 1
203 247 1
203 248 1
203 252 1
203 255 1
203 258 1
203 260 1
203 262 1
203 263 1
203 269 1
203 270 1
203 275 1
203 276 1
203 284 1
203 286 1
203 289 1
203 290 1
203 291 1
203 295 1
203 305 1
203 307 1
203 313 1
203 314 1
203 318 1
203 319 1
203 323 1
203 325 1
203 327 1
203 328 1
203 333 1
203 334 1
203 337 1
203 338 1
203 345 1
203 348 1
203 350 1
203 352 1
203 355 1
203 359 1
203 362 1
203 363 1
203 364 1
203 365 1
203 366 1
203 367 1
203 370 1
203 371 1
203 372 1
203 377 1
203 378 1
203 380 1
203 387 1
203 388 1
203 389 1
203 390 1
203 393 1
203 396 1
203 398 1
203 400 1
204 1 1
204 3 1
204 5 1
204 10 1
204 13 1
204 15 1
204 16 1
204 20 1
204 24 1
204 25 1
204 27 1
204 29 1
204 31 1
204 32 1
204 34 1
204 37 1
204 38 1
204 39 1
204 41 1
204 43 1
204 44 1
204 47 1
204 49 1
204 51 1
204 54 1
204 56 1
204 61 1
204 63 1
204 71 1
204 72 1
204 78 1
204 80 1
204 82 1
204 84 1
204 87 1
204 88 1
204 91 1
204 98 1
204 101 1
204 103 1
204 111 1
204 113 1
204 114 1
204 116 1
204 118 1
204 120 1
204 122 1
204 123 1
204 127 1
204 129 1
204 131 1
204 133 1
204 135 1
204 137 1
204 138 1
204 141 1
204 142 1
204 149 1
204 150 1
204 151 1
204 153 1
204 154 1
204 155 1
204 158 1
204 163 1
204 164 1
204 165 1
204 167 1
204 168 1
204 169 1
204 171 1
204 174 1
204 178 1
204 185 1
204 186 1
204 194 1
204 200 1
204 202 1
204 210 1
204 211 1
204 213 1
204 214 1
204 215 1
204 216 1
204 223 1
204 224 1
204 225 1
204 226 1
204 230 1
204 231 1
204 234 1
204 235 1
204 246 1
204 247 1
204 248 1
204 251 1
204 254 1
204 255 1
204 256 1
204 257 1
204 258 1
204 260 1
204 262 1
204 269 1
204 272 1
204 276 1
204 277 1
204 283 1
204 288 1
204 290 1
204 291 1
204 292 1
204 295 1
204 296 1
204 300 1
204 301 1
204 302 1
204 304 1
204 305 1
204 306 1
204 307 1
204 313 1
204 315 1
204 317 1
204 318 1
204 320 1
204 323 1
204 324 1
204 326 1
204 327 1
204 328 1
204 329 1
204 331 1
204 332 1
204 335 1
204 339 1
204 342 1
204 343 1
204 344 1
204 346 1
204 347 1
204 348 1
204 350 1
204 353 1
204 354 1
204 355 1
204 356 1
204 357 1
204 358 1
204 363 1
204 365 1
204 367 1
204 369 1
204 370 1
204 371 1
204 373 1
204 376 1
204 382 1
204 386 1
204 388 1
204 389 1
204 392 1
204 393 1
204 394 1
204 400 1
205 1 1
205 2 1
205 3 1
205 7 1
205 10 1
205 11 1
205 16 1
205 18 1
205 19 1
205 23 1
205 32 1
205 34 1
205 35 1
205 37 1
205 38 1
205 39 1
205 42 1
205 44 1
205 45 1
205 46 1
205 47 1
205 50 1
205 53 1
205 55 1
205 56 1
205 63 1
205 66 1
205 73 1
205 75 1
205 76 1
205 78 1
205 79 1
205 81 1
205 83 1
205 85 1
205 87 1
205 93 1
205 95 1
205 96 1
205 97 1
205 105 1
205 107 1
205 108 1
205 109 1
205 116 1
205 121 1
205 123 1
205 125 1
205 126 1
205 128 1
205 130 1
205 134 1
205 138 1
205 141 1
205 148 1
205 150 1
205 151 1
205 152 1
205 153 1
205 156 1
205 165 1
205 166 1
205 167 1
205 171 1
205 173 1
205 180 1
205 184 1
205 188 1
205 189 1
205 191 1
205 196 1
205 199 1
205 200 1
205 201 1
205 206 1
205 207 1
205 208 1
205 217 1
205 219 1
205 223 1
205 229 1
205 231 1
205 233 1
205 234 1
205 235 1
205 239 1
205 240 1
205 242 1
205 243 1
205 246 1
205 251 1
205 254 1
205 256 1
205 257 1
205 264 1
205 265 1
205 266 1
205 270 1
205 273 1
205 274 1
205 277 1
205 279 1
205 281 1
205 282 1
205 283 1
205 284 1
205 286 1
205 290 1
205 292 1
205 294 1
205 298 1
205 300 1
205 301 1
205 303 1
205 304 1
205 306 1
205 308 1
205 312 1
205 314 1
205 319 1
205 321 1
205 324 1
205 325 1
205 327 1
205 330 1
205 331 1
205 333 1
205 337 1
205 339 1
205 341 1
205 343 1
205 345 1
205 347 1
205 348 1
205 350 1
205 351 1
205 355 1
205 359 1
205 361 1
205 362 1
205 365 1
205 366 1
205 373 1
205 374 1
205 375 1
205 376 1
205 377 1
205 378 1
205 381 1
205 384 1
205 386 1
205 389 1
205 391 1
205 392 1
205 396 1
205 398 1
205 400 1
206 1 1
206 3 1
206 4 1
206 8 1
206 9 1
206 10 1
206 13 1
206 15 1
206 17 1
206 19 1
206 20 1
206 22 1
206 24 1
206 28 1
206 29 1
206 30 1
206 33 1
206 36 1
206 39 1
206 41 1
206 44 1
206 47 1
206 48 1
206 49 1
206 50 1
206 51 1
206 54 1
206 55 1
206 57 1
206 58 1
206 63 1
206 64 1
206 65 1
206 68 1
206 70 1
206 75 1
206 76 1
206 77 1
206 79 1
206 81 1
206 82 1
206 90 1
206 93 1
206 96 1
206 98 1
206 101 1
206 102 1
206 104 1
206 109 1
206 111 1
206 114 1
206 115 1
206 116 1
206 119 1
206 121 1
206 125 1
206 126 1
206 127 1
206 129 1
206 130 1
206 133 1
206 134 1
206 138 1
206 143 1
206 148 1
206 149 1
206 151 1
206 152 1
206 153 1
206 154 1
206 155 1
206 160 1
206 161 1
206 163 1
206 165 1
206 167 1
206 171 1
206 172 1
206 175 1
206 176 1
206 177 1
206 179 1
206 181 1
206 182 1
206 184 1
206 188 1
206 190 1
206 192 1
206 196 1
206 202 1
206 205 1
206 208 1
206 214 1
206 215 1
206 216 1
206 218 1
206 219 1
206 220 1
206 222 1
206 224 1
206 226 1
206 232 1
206 234 1
206 235 1
206 236 1
206 239 1
206 241 1
206 242 1
206 243 1
206 245 1
206 246 1
206 249 1
206 253 1
206 256 1
206 257 1
206 258 1
206 259 1
206 260 1
206 261 1
206 263 1
206 267 1
206 269 1
206 272 1
206 278 1
206 279 1
206 283 1
206 286 1
206 287 1
206 288 1
206 289 1
206 290 1
206 291 1
206 292 1
206 293 1
206 294 1
206 295 1
206 298 1
206 300 1
206 302 1
206 305 1
206 306 1
206 310 1
206 313 1
206 319 1
206 320 1
206 322 1
206 323 1
206 325 1
206 326 1
206 330 1
206 331 1
206 332 1
206 334 1
206 335 1
206 336 1
206 337 1
206 341 1
206 344 1
206 345 1
206 346 1
206 347 1
206 348 1
206 350 1
206 351 1
206 352 1
206 353 1
206 356 1
206 357 1
206 360 1
206 365 1
206 368 1
206 376 1
206 379 1
206 380 1
206 383 1
206 384 1
206 385 1
206 387 1
206 388 1
206 391 1
206 396 1
207 1 1
207 9 1
207 12 1
207 14 1
207 15 1
207 21 1
207 22 1
207 28 1
207 29 1
207 31 1
207 37 1
207 38 1
207 42 1
207 43 1
207 46 1
207 48 1
207 50 1
207 58 1
207 63 1
207 66 1
207 67 1
207 70 1
207 71 1
207 72 1
207 73 1
207 75 1
207 79 1
207 81 1
207 83 1
207 84 1
207 85 1
207 86 1
207 88 1
207 91 1
207 92 1
207 93 1
207 101 1
207 104 1
207 108 1
207 113 1
207 119 1
207 120 1
207 122 1
207 124 1
207 125 1
207 131 1
207 135 1
207 136 1
207 138 1
207 139 1
207 140 1
207 149 1
207 150 1
207 153 1
207 154 1
207 157 1
207 161 1
207 162 1
207 165 1
207 168 1
207 177 1
207 180 1
207 183 1
207 184 1
207 186 1
207 187 1
207 189 1
207 190 1
207 191 1
207 195 1
207 199 1
207 202 1
207 205 1
207 209 1
207 210 1
207 211 1
207 214 1
207 215 1
207 221 1
207 227 1
207 230 1
207 231 1
207 234 1
207 236 1
207 239 1
207 243 1
207 244 1
207 250 1
207 255 1
207 256 1
207 258 1
207 259 1
207 261 1
207 263 1
207 264 1
207 265 1
207 266 1
207 270 1
207 271 1
207 275 1
207 277 1
207 281 1
207 282 1
207 286 1
207 288 1
207 291 1
207 295 1
207 297 1
207 298 1
207 301 1
207 303 1
207 304 1
207 305 1
207 307 1
207 308 1
207 311 1
207 312 1
207 314 1
207 315 1
207 320 1
207 322 1
207 325 1
207 326 1
207 327 1
207 328 1
207 329 1
207 330 1
207 332 1
207 334 1
207 338 1
207 339 1
207 341 1
207 346 1
207 354 1
207 355 1
207 358 1
207 361 1
207 363 1
207 364 1
207 366 1
207 368 1
207 370 1
207 373 1
207 376 1
207 379 1
207 381 1
207 382 1
207 385 1
207 386 1
207 387 1
207 391 1
207 394 1
207 398 1
207 399 1
207 400 1
208 1 1
208 3 1
208 5 1
208 6 1
208 13 1
208 15 1
208 19 1
208 21 1
208 22 1
208 24 1
208 26 1
208 30 1
208 31 1
208 32 1
208 36 1
208 37 1
208 38 1
208 39 1
208 40 1
208 42 1
208 45 1
208 47 1
208 49 1
208 50 1
208 54 1
208 58 1
208 61 1
208 63 1
208 70 1
208 71 1
208 73 1
208 75 1
208 76 1
208 79 1
208 83 1
208 85 1
208 86 1
208 90 1
208 91 1
208 94 1
208 95 1
208 99 1
208 100 1
208 104 1
208 105 1
208 108 1
208 119 1
208 122 1
208 128 1
208 130 1
208 133 1
208 134 1
208 135 1
208 136 1
208 137 1
208 138 1
208 140 1
208 143 1
208 145 1
208 146 1
208 148 1
208 150 1
208 153 1
208 155 1
208 157 1
208 159 1
208 160 1
208 164 1
208 168 1
208 169 1
208 170 1
208 171 1
208 173 1
208 176 1
208 177 1
208 182 1
208 184 1
208 189 1
208 191 1
208 193 1
208 195 1
208 199 1
208 202 1
208 205 1
208 206 1
208 212 1
208 213 1
208 215 1
208 217 1
208 218 1
208 219 1
208 222 1
208 224 1
208 234 1
208 235 1
208 236 1
208 238 1
208 239 1
208 241 1
208 243 1
208 245 1
208 248 1
208 251 1
208 252 1
208 253 1
208 256 1
208 260 1
208 264 1
208 268 1
208 270 1
208 271 1
208 276 1
208 277 1
208 279 1
208 289 1
208 291 1
208 293 1
208 294 1
208 299 1
208 300 1
208 303 1
208 309 1
208 312 1
208 316 1
208 320 1
208 331 1
208 333 1
208 336 1
208 340 1
208 343 1
208 346 1
208 350 1
208 352 1
208 357 1
208 360 1
208 362 1
208 364 1
208 365 1
208 368 1
208 371 1
208 372 1
208 374 1
208 379 1
208 382 1
208 383 1
208 388 1
208 389 1
208 390 1
208 393 1
208 394 1
208 395 1
208 396 1
208 400 1
209 2 1
209 4 1
209 10 1
209 11 1
209 15 1
209 19 1
209 20 1
209 24 1
209 26 1
209 28 1
209 33 1
209 34 1
209 35 1
209 43 1
209 45 1
209 46 1
209 47 1
209 51 1
209 53 1
209 56 1
209 58 1
209 60 1
209 61 1
209 62 1
209 67 1
209 72 1
209 74 1
209 76 1
209 77 1
209 80 1
209 81 1
209 82 1
209 83 1
209 84 1
209 86 1
209 92 1
209 93 1
209 94 1
209 101 1
209 102 1
209 106 1
209 107 1
209 113 1
209 116 1
209 117 1
209 118 1
209 126 1
209 127 1
209 129 1
209 132 1
209 134 1
209 136 1
209 138 1
209 141 1
209 143 1
209 144 1
209 145 1
209 147 1
209 148 1
209 149 1
209 152 1
209 155 1
209 158 1
209 164 1
209 168 1
209 169 1
209 170 1
209 171 1
209 172 1
209 173 1
209 174 1
209 175 1
209 177 1
209 178 1
209 179 1
209 181 1
209 184 1
209 185 1
209 193 1
209 194 1
209 196 1
209 197 1
209 201 1
209 202 1
209 203 1
209 207 1
209 210 1
209 215 1
209 216 1
209 217 1
209 218 1
209 219 1
209 222 1
209 225 1
209 226 1
209 227 1
209 231 1
209 234 1
209 241 1
209 243 1
209 244 1
209 247 1
209 249 1
209 253 1
209 254 1
209 255 1
209 258 1
209 262 1
209 263 1
209 264 1
209 265 1
209 267 1
209 268 1
209 270 1
209 271 1
209 274 1
209 277 1
209 279 1
209 280 1
209 281 1
209 282 1
209 284 1
209 285 1
209 293 1
209 297 1
209 307 1
209 308 1
209 309 1
209 310 1
209 314 1
209 318 1
209 320 1
209 321 1
209 322 1
209 324 1
209 326 1
209 331 1
209 332 1
209 340 1
209 344 1
209 345 1
209 348 1
209 349 1
209 351 1
209 354 1
209 356 1
209 358 1
209 360 1
209 361 1
209 364 1
209 366 1
209 368 1
209 374 1
209 383 1
209 386 1
209 391 1
209 393 1
209 396 1
209 399 1
210 1 1
210 6 1
210 9 1
210 10 1
210 13 1
210 14 1
210 15 1
210 16 1
210 19 1
210 24 1
210 27 1
210 29 1
210 35 1
210 38 1
210 39 1
210 44 1
210 49 1
210 50 1
210 51 1
210 52 1
210 55 1
210 59 1
210 61 1
210 63 1
210 66 1
210 67 1
210 69 1
210 76 1
210 77 1
210 81 1
210 83 1
210 86 1
210 97 1
210 98 1
210 105 1
210 107 1
210 109 1
210 111 1
210 112 1
210 114 1
210 115 1
210 118 1
210 120 1
210 123 1
210 126 1
210 130 1
210 137 1
210 138 1
210 144 1
210 148 1
210 149 1
210 150 1
210 154 1
210 156 1
210 159 1
210 160 1
210 161 1
210 163 1
210 169 1
210 170 1
210 171 1
210 175 1
210 177 1
210 178 1
210 179 1
210 180 1
210 183 1
210 189 1
210 190 1
210 191 1
210 195 1
210 200 1
210 202 1
210 204 1
210 207 1
210 209 1
210 216 1
210 217 1
210 220 1
210 230 1
210 231 1
210 232 1
210 233 1
210 234 1
210 236 1
210 244 1
210 245 1
210 246 1
210 247 1
210 249 1
210 250 1
210 252 1
210 254 1
210 255 1
210 256 1
210 258 1
210 262 1
210 264 1
210 275 1
210 279 1
210 281 1
210 283 1
210 285 1
210 286 1
210 288 1
210 291 1
210 294 1
210 296 1
210 299 1
210 302 1
210 304 1
210 305 1
210 307 1
210 309 1
210 310 1
210 311 1
210 312 1
210 315 1
210 316 1
210 319 1
210 320 1
210 326 1
210 333 1
210 335 1
210 337 1
210 338 1
210 341 1
210 342 1
210 345 1
210 346 1
210 347 1
210 348 1
210 349 1
210 350 1
210 356 1
210 357 1
210 358 1
210 361 1
210 362 1
210 364 1
210 370 1
210 375 1
210 380 1
210 382 1
210 383 1
210 384 1
210 386 1
210 387 1
210 388 1
210 390 1
210 395 1
210 397 1
210 399 1
211 1 1
211 2 1
211 3 1
211 12 1
211 18 1
211 19 1
211 20 1
211 22 1
211 24 1
211 27 1
211 33 1
211 34 1
211 35 1
211 36 1
211 38 1
211 41 1
211 45 1
211 46 1
211 48 1
211 51 1
211 52 1
211 54 1
211 57 1
211 58 1
211 61 1
211 62 1
211 68 1
211 71 1
211 75 1
211 76 1
211 79 1
211 80 1
211 84 1
211 86 1
211 88 1
211 92 1
211 93 1
211 96 1
211 101 1
211 102 1
211 103 1
211 104 1
211 109 1
211 112 1
211 113 1
211 117 1
211 120 1
211 121 1
211 122 1
211 123 1
211 124 1
211 125 1
211 129 1
211 133 1
211 134 1
211 135 1
211 138 1
211 139 1
211 142 1
211 147 1
211 148 1
211 151 1
211 154 1
211 155 1
211 157 1
211 158 1
211 160 1
211 161 1
211 162 1
211 165 1
211 169 1
211 173 1
211 177 1
211 184 1
211 185 1
211 187 1
211 190 1
211 192 1
211 196 1
211 197 1
211 201 1
211 203 1
211 204 1
211 207 1
211 213 1
211 218 1
211 219 1
211 220 1
211 221 1
211 225 1
211 226 1
211 227 1
211 228 1
211 230 1
211 231 1
211 234 1
211 235 1
211 238 1
211 239 1
211 243 1
211 244 1
211 246 1
211 252 1
211 255 1
211 259 1
211 262 1
211 266 1
211 268 1
211 270 1
211 271 1
211 275 1
211 277 1
211 279 1
211 282 1
211 283 1
211 288 1
211 291 1
211 295 1
211 298 1
211 299 1
211 303 1
211 306 1
211 307 1
211 308 1
211 309 1
211 310 1
211 311 1
211 314 1
211 316 1
211 320 1
211 321 1
211 322 1
211 327 1
211 328 1
211 329 1
211 332 1
211 334 1
211 335 1
211 338 1
211 343 1
211 345 1
211 346 1
211 347 1
211 349 1
211 352 1
211 356 1
211 357 1
211 359 1
211 361 1
211 362 1
211 368 1
211 369 1
211 373 1
211 376 1
211 377 1
211 378 1
211 380 1
211 381 1
211 382 1
211 384 1
211 388 1
211 390 1
211 391 1
211 395 1
211 396 1
211 398 1
211 399 1
212 5 1
212 9 1
212 10 1
212 11 1
212 13 1
212 17 1
212 18 1
212 21 1
212 23 1
212 24 1
212 27 1
212 28 1
212 31 1
212 38 1
212 39 1
212 44 1
212 45 1
212 47 1
212 48 1
212 49 1
212 50 1
212 51 1
212 52 1
212 53 1
212 55 1
212 56 1
212 58 1
212 61 1
212 65 1
212 67 1
212 68 1
212 73 1
212 75 1
212 88 1
212 93 1
212 94 1
212 97 1
212 100 1
212 103 1
212 104 1
212 111 1
212 113 1
212 114 1
212 118 1
212 119 1
212 120 1
212 121 1
212 122 1
212 123 1
212 128 1
212 130 1
212 132 1
212 133 1
212 135 1
212 136 1
212 137 1
212 141 1
212 144 1
212 145 1
212 147 1
212 153 1
212 155 1
212 156 1
212 157 1
212 158 1
212 165 1
212 171 1
212 172 1
212 178 1
212 179 1
212 181 1
212 183 1
212 184 1
212 188 1
212 189 1
212 193 1
212 194 1
212 195 1
212 196 1
212 198 1
212 203 1
212 208 1
212 215 1
212 218 1
212 225 1
212 228 1
212 229 1
212 233 1
212 234 1
212 236 1
212 239 1
212 241 1
212 243 1
212 246 1
212 247 1
212 255 1
212 257 1
212 261 1
212 265 1
212 268 1
212 273 1
212 275 1
212 278 1
212 280 1
212 286 1
212 290 1
212 296 1
212 300 1
212 301 1
212 303 1
212 309 1
212 310 1
212 311 1
212 313 1
212 314 1
212 316 1
212 319 1
212 322 1
212 325 1
212 327 1
212 331 1
212 332 1
212 337 1
212 345 1
212 350 1
212 352 1
212 355 1
212 360 1
212 361 1
212 363 1
212 364 1
212 367 1
212 369 1
212 371 1
212 372 1
212 374 1
212 376 1
212 379 1
212 382 1
212 383 1
212 384 1
212 386 1
212 392 1
212 395 1
212 396 1
212 397 1
213 2 1
213 3 1
213 9 1
213 11 1
213 17 1
213 18 1
213 21 1
213 23 1
213 24 1
213 25 1
213 26 1
213 29 1
213 32 1
213 33 1
213 38 1
213 39 1
213 42 1
213 45 1
213 47 1
213 48 1
213 49 1
213 52 1
213 53 1
213 54 1
213 58 1
213 63 1
213 64 1
213 67 1
213 68 1
213 71 1
213 73 1
213 75 1
213 78 1
213 81 1
213 82 1
213 85 1
213 87 1
213 88 1
213 89 1
213 92 1
213 93 1
213 95 1
213 99 1
213 101 1
213 103 1
213 106 1
213 108 1
213 111 1
213 112 1
213 117 1
213 121 1
213 122 1
213 124 1
213 125 1
213 129 1
213 130 1
213 132 1
213 137 1
213 142 1
213 145 1
213 148 1
213 149 1
213 150 1
213 152 1
213 153 1
213 159 1
213 163 1
213 167 1
213 171 1
213 173 1
213 177 1
213 182 1
213 185 1
213 186 1
213 187 1
213 188 1
213 190 1
213 195 1
213 196 1
213 198 1
213 200 1
213 201 1
213 202 1
213 204 1
213 208 1
213 211 1
213 217 1
213 219 1
213 220 1
213 223 1
213 229 1
213 230 1
213 231 1
213 236 1
213 238 1
213 239 1
213 241 1
213 242 1
213 244 1
213 245 1
213 247 1
213 248 1
213 259 1
213 262 1
213 266 1
213 269 1
213 278 1
213 280 1
213 281 1
213 283 1
213 289 1
213 290 1
213 291 1
213 298 1
213 301 1
213 302 1
213 306 1
213 308 1
213 310 1
213 311 1
213 313 1
213 314 1
213 317 1
213 331 1
213 332 1
213 333 1
213 340 1
213 343 1
213 344 1
213 345 1
213 346 1
213 347 1
213 348 1
213 349 1
213 351 1
213 352 1
213 355 1
213 357 1
213 359 1
213 360 1
213 361 1
213 367 1
213 371 1
213 372 1
213 378 1
213 382 1
213 385 1
213 389 1
213 390 1
213 392 1
213 395 1
213 399 1
213 400 1
214 2 1
214 3 1
214 6 1
214 7 1
214 8 1
214 11 1
214 12 1
214 15 1
214 19 1
214 22 1
214 24 1
214 27 1
214 28 1
214 29 1
214 34 1
214 36 1
214 38 1
214 39 1
214 41 1
214 43 1
214 48 1
214 49 1
214 51 1
214 53 1
214 54 1
214 58 1
214 60 1
214 64 1
214 65 1
214 70 1
214 71 1
214 74 1
214 77 1
214 78 1
214 79 1
214 82 1
214 83 1
214 86 1
214 88 1
214 89 1
214 90 1
214 91 1
214 92 1
214 94 1
214 98 1
214 99 1
214 101 1
214 102 1
214 112 1
214 113 1
214 115 1
214 117 1
214 119 1
214 123 1
214 124 1
214 128 1
214 130 1
214 131 1
214 139 1
214 143 1
214 145 1
214 147 1
214 149 1
214 152 1
214 155 1
214 157 1
214 158 1
214 159 1
214 162 1
214 163 1
214 167 1
214 170 1
214 175 1
214 179 1
214 180 1
214 181 1
214 185 1
214 187 1
214 188 1
214 191 1
214 193 1
214 194 1
214 198 1
214 199 1
214 200 1
214 203 1
214 204 1
214 206 1
214 207 1
214 215 1
214 216 1
214 220 1
214 221 1
214 224 1
214 227 1
214 233 1
214 234 1
214 244 1
214 247 1
214 248 1
214 249 1
214 250 1
214 252 1
214 254 1
214 255 1
214 257 1
214 258 1
214 260 1
214 262 1
214 263 1
214 265 1
214 266 1
214 267 1
214 269 1
214 271 1
214 272 1
214 274 1
214 279 1
214 285 1
214 288 1
214 290 1
214 294 1
214 295 1
214 296 1
214 299 1
214 311 1
214 317 1
214 319 1
214 321 1
214 322 1
214 331 1
214 332 1
214 333 1
214 334 1
214 335 1
214 345 1
214 348 1
214 350 1
214 351 1
214 352 1
214 356 1
214 357 1
214 362 1
214 363 1
214 364 1
214 367 1
214 374 1
214 375 1
214 376 1
214 377 1
214 378 1
214 381 1
214 384 1
214 387 1
214 389 1
214 391 1
214 393 1
214 394 1
214 396 1
214 398 1
215 10 1
215 11 1
215 14 1
215 15 1
215 16 1
215 17 1
215 20 1
215 24 1
215 26 1
215 31 1
215 32 1
215 33 1
215 35 1
215 36 1
215 37 1
215 42 1
215 43 1
215 45 1
215 47 1
215 51 1
215 52 1
215 56 1
215 58 1
215 59 1
215 60 1
215 63 1
215 67 1
215 68 1
215 69 1
215 71 1
215 77 1
215 78 1
215 86 1
215 87 1
215 88 1
215 89 1
215 90 1
215 91 1
215 93 1
215 95 1
215 102 1
215 104 1
215 105 1
215 106 1
215 107 1
215 110 1
215 114 1
215 115 1
215 116 1
215 121 1
215 122 1
215 125 1
215 130 1
215 136 1
215 137 1
215 141 1
215 147 1
215 149 1
215 152 1
215 154 1
215 155 1
215 157 1
215 163 1
215 164 1
215 166 1
215 167 1
215 168 1
215 171 1
215 172 1
215 176 1
215 177 1
215 185 1
215 186 1
215 190 1
215 191 1
215 194 1
215 198 1
215 204 1
215 206 1
215 207 1
215 208 1
215 209 1
215 212 1
215 214 1
215 217 1
215 220 1
215 222 1
215 223 1
215 226 1
215 229 1
215 230 1
215 233 1
215 241 1
215 242 1
215 244 1
215 252 1
215 256 1
215 262 1
215 266 1
215 267 1
215 269 1
215 272 1
215 274 1
215 278 1
215 284 1
215 285 1
215 287 1
215 288 1
215 289 1
215 290 1
215 291 1
215 299 1
215 303 1
215 305 1
215 308 1
215 311 1
215 314 1
215 316 1
215 319 1
215 320 1
215 321 1
215 322 1
215 323 1
215 327 1
215 328 1
215 329 1
215 331 1
215 335 1
215 337 1
215 338 1
215 340 1
215 343 1
215 345 1
215 346 1
215 347 1
215 348 1
215 349 1
215 351 1
215 354 1
215 355 1
215 356 1
215 360 1
215 361 1
215 362 1
215 364 1
215 366 1
215 368 1
215 374 1
215 375 1
215 379 1
215 380 1
215 382 1
215 383 1
215 384 1
215 388 1
215 389 1
215 390 1
215 391 1
215 395 1
216 1 1
216 3 1
216 5 1
216 7 1
216 11 1
216 17 1
216 20 1
216 23 1
216 27 1
216 28 1
216 33 1
216 36 1
216 40 1
216 43 1
216 46 1
216 47 1
216 48 1
216 49 1
216 51 1
216 52 1
216 53 1
216 55 1
216 57 1
216 58 1
216 60 1
216 61 1
216 63 1
216 64 1
216 65 1
216 66 1
216 67 1
216 68 1
216 69 1
216 70 1
216 73 1
216 76 1
216 79 1
216 82 1
216 84 1
216 86 1
216 88 1
216 92 1
216 94 1
216 98 1
216 99 1
216 100 1
216 102 1
216 107 1
216 108 1
216 112 1
216 116 1
216 117 1
216 118 1
216 120 1
216 122 1
216 123 1
216 126 1
216 127 1
216 128 1
216 130 1
216 131 1
216 134 1
216 137 1
216 142 1
216 144 1
216 145 1
216 147 1
216 153 1
216 154 1
216 155 1
216 157 1
216 158 1
216 159 1
216 164 1
216 173 1
216 177 1
216 179 1
216 180 1
216 181 1
216 182 1
216 185 1
216 187 1
216 189 1
216 190 1
216 191 1
216 195 1
216 196 1
216 197 1
216 198 1
216 199 1
216 204 1
216 206 1
216 209 1
216 210 1
216 214 1
216 220 1
216 225 1
216 226 1
216 229 1
216 230 1
216 231 1
216 233 1
216 242 1
216 247 1
216 249 1
216 252 1
216 253 1
216 254 1
216 256 1
216 258 1
216 260 1
216 263 1
216 268 1
216 271 1
216 272 1
216 276 1
216 277 1
216 278 1
216 279 1
216 280 1
216 281 1
216 285 1
216 286 1
216 288 1
216 291 1
216 293 1
216 294 1
216 295 1
216 297 1
216 298 1
216 299 1
216 308 1
216 315 1
216 319 1
216 320 1
216 322 1
216 324 1
216 325 1
216 326 1
216 327 1
216 332 1
216 333 1
216 335 1
216 336 1
216 340 1
216 341 1
216 344 1
216 346 1
216 352 1
216 353 1
216 355 1
216 358 1
216 359 1
216 361 1
216 362 1
216 367 1
216 369 1
216 373 1
216 376 1
216 378 1
216 379 1
216 381 1
216 386 1
216 387 1
216 390 1
216 392 1
216 394 1
216 395 1
216 397 1
216 399 1
217 3 1
217 5 1
217 7 1
217 9 1
217 12 1
217 15 1
217 19 1
217 20 1
217 23 1
217 27 1
217 30 1
217 33 1
217 39 1
217 41 1
217 42 1
217 43 1
217 45 1
217 47 1
217 50 1
217 52 1
217 53 1
217 56 1
217 57 1
217 60 1
217 61 1
217 62 1
217 63 1
217 64 1
217 72 1
217 75 1
217 77 1
217 78 1
217 79 1
217 80 1
217 84 1
217 85 1
217 88 1
217 89 1
217 98 1
217 99 1
217 108 1
217 109 1
217 110 1
217 113 1
217 115 1
217 116 1
217 119 1
217 120 1
217 121 1
217 122 1
217 128 1
217 133 1
217 136 1
217 139 1
217 143 1
217 145 1
217 153 1
217 155 1
217 160 1
217 164 1
217 165 1
217 167 1
217 169 1
217 175 1
217 177 1
217 178 1
217 179 1
217 183 1
217 187 1
217 188 1
217 189 1
217 191 1
217 198 1
217 200 1
217 201 1
217 205 1
217 208 1
217 209 1
217 210 1
217 213 1
217 215 1
217 223 1
217 227 1
217 232 1
217 234 1
217 237 1
217 238 1
217 239 1
217 241 1
217 242 1
217 244 1
217 256 1
217 261 1
217 262 1
217 269 1
217 271 1
217 275 1
217 278 1
217 279 1
217 280 1
217 281 1
217 285 1
217 286 1
217 290 1
217 292 1
217 294 1
217 297 1
217 299 1
217 300 1
217 302 1
217 304 1
217 305 1
217 307 1
217 308 1
217 309 1
217 310 1
217 315 1
217 318 1
217 319 1
217 320 1
217 321 1
217 322 1
217 323 1
217 324 1
217 325 1
217 332 1
217 334 1
217 335 1
217 336 1
217 338 1
217 339 1
217 340 1
217 342 1
217 343 1
217 347 1
217 352 1
217 353 1
217 354 1
217 357 1
217 360 1
217 361 1
217 365 1
217 367 1
217 368 1
217 372 1
217 374 1
217 375 1
217 377 1
217 384 1
217 385 1
217 388 1
217 390 1
217 392 1
217 394 1
217 397 1
217 398 1
217 400 1
218 2 1
218 7 1
218 10 1
218 12 1
218 13 1
218 14 1
218 17 1
218 19 1
218 23 1
218 31 1
218 34 1
218 36 1
218 40 1
218 42 1
218 44 1
218 45 1
218 48 1
218 51 1
218 54 1
218 55 1
218 56 1
218 64 1
218 67 1
218 68 1
218 70 1
218 71 1
218 74 1
218 77 1
218 85 1
218 88 1
218 89 1
218 93 1
218 98 1
218 102 1
218 104 1
218 106 1
218 107 1
218 108 1
218 110 1
218 112 1
218 115 1
218 119 1
218 120 1
218 123 1
218 124 1
218 126 1
218 129 1
218 130 1
218 131 1
218 132 1
218 136 1
218 145 1
218 146 1
218 148 1
218 154 1
218 155 1
218 156 1
218 157 1
218 158 1
218 159 1
218 160 1
218 162 1
218 163 1
218 168 1
218 173 1
218 174 1
218 176 1
218 179 1
218 180 1
218 182 1
218 184 1
218 187 1
218 189 1
218 190 1
218 191 1
218 195 1
218 196 1
218 197 1
218 198 1
218 200 1
218 203 1
218 206 1
218 208 1
218 209 1
218 211 1
218 212 1
218 220 1
218 222 1
218 225 1
218 229 1
218 231 1
218 232 1
218 234 1
218 236 1
218 238 1
218 239 1
218 242 1
218 244 1
218 247 1
218 252 1
218 256 1
218 260 1
218 264 1
218 266 1
218 270 1
218 272 1
218 273 1
218 275 1
218 277 1
218 280 1
218 283 1
218 286 1
218 290 1
218 292 1
218 298 1
218 299 1
218 300 1
218 303 1
218 306 1
218 308 1
218 311 1
218 313 1
218 315 1
218 319 1
218 320 1
218 322 1
218 325 1
218 326 1
218 327 1
218 328 1
218 334 1
218 339 1
218 341 1
218 342 1
218 343 1
218 349 1
218 356 1
218 359 1
218 361 1
218 362 1
218 366 1
218 369 1
218 370 1
218 371 1
218 376 1
218 377 1
218 378 1
218 380 1
218 382 1
218 384 1
218 386 1
218 388 1
218 390 1
218 391 1
218 392 1
218 397 1
219 5 1
219 6 1
219 17 1
219 19 1
219 20 1
219 25 1
219 27 1
219 29 1
219 33 1
219 34 1
219 36 1
219 39 1
219 41 1
219 46 1
219 48 1
219 49 1
219 51 1
219 54 1
219 57 1
219 58 1
219 59 1
219 63 1
219 64 1
219 70 1
219 72 1
219 74 1
219 77 1
219 78 1
219 81 1
219 85 1
219 87 1
219 88 1
219 89 1
219 91 1
219 92 1
219 94 1
219 95 1
219 96 1
219 98 1
219 99 1
219 100 1
219 101 1
219 107 1
219 112 1
219 115 1
219 117 1
219 120 1
219 122 1
219 131 1
219 132 1
219 135 1
219 136 1
219 137 1
219 140 1
219 145 1
219 146 1
219 147 1
219 148 1
219 152 1
219 154 1
219 155 1
219 156 1
219 158 1
219 160 1
219 161 1
219 165 1
219 168 1
219 169 1
219 171 1
219 172 1
219 173 1
219 176 1
219 179 1
219 182 1
219 185 1
219 189 1
219 190 1
219 193 1
219 196 1
219 200 1
219 205 1
219 206 1
219 208 1
219 209 1
219 211 1
219 213 1
219 222 1
219 230 1
219 231 1
219 232 1
219 233 1
219 235 1
219 236 1
219 238 1
219 239 1
219 241 1
219 244 1
219 245 1
219 252 1
219 253 1
219 254 1
219 255 1
219 256 1
219 257 1
219 259 1
219 264 1
219 267 1
219 270 1
219 271 1
219 272 1
219 273 1
219 274 1
219 276 1
219 277 1
219 281 1
219 286 1
219 289 1
219 292 1
219 293 1
219 294 1
219 303 1
219 304 1
219 305 1
219 306 1
219 310 1
219 311 1
219 313 1
219 314 1
219 315 1
219 320 1
219 322 1
219 324 1
219 327 1
219 331 1
219 334 1
219 336 1
219 337 1
219 339 1
219 346 1
219 349 1
219 350 1
219 355 1
219 359 1
219 361 1
219 362 1
219 364 1
219 366 1
219 369 1
219 372 1
219 374 1
219 381 1
219 383 1
219 384 1
220 2 1
220 4 1
220 12 1
220 19 1
220 21 1
220 28 1
220 31 1
220 32 1
220 36 1
220 41 1
220 44 1
220 46 1
220 47 1
220 49 1
220 50 1
220 52 1
220 53 1
220 55 1
220 56 1
220 58 1
220 60 1
220 63 1
220 68 1
220 69 1
220 70 1
220 71 1
220 72 1
220 73 1
220 75 1
220 81 1
220 87 1
220 90 1
220 94 1
220 100 1
220 101 1
220 103 1
220 105 1
220 108 1
220 110 1
220 112 1
220 116 1
220 118 1
220 123 1
220 127 1
220 130 1
220 136 1
220 142 1
220 146 1
220 147 1
220 154 1
220 155 1
220 156 1
220 158 1
220 160 1
220 161 1
220 169 1
220 170 1
220 171 1
220 172 1
220 180 1
220 181 1
220 185 1
220 188 1
220 191 1
220 193 1
220 194 1
220 195 1
220 197 1
220 198 1
220 199 1
220 201 1
220 203 1
220 206 1
220 210 1
220 211 1
220 213 1
220 214 1
220 215 1
220 216 1
220 218 1
220 222 1
220 223 1
220 231 1
220 232 1
220 233 1
220 235 1
220 236 1
220 237 1
220 238 1
220 239 1
220 241 1
220 246 1
220 247 1
220 248 1
220 250 1
220 252 1
220 254 1
220 258 1
220 259 1
220 266 1
220 267 1
220 269 1
220 272 1
220 274 1
220 276 1
220 277 1
220 278 1
220 280 1
220 281 1
220 282 1
220 290 1
220 291 1
220 292 1
220 296 1
220 298 1
220 301 1
220 302 1
220 304 1
220 305 1
220 306 1
220 307 1
220 310 1
220 315 1
220 316 1
220 319 1
220 320 1
220 321 1
220 322 1
220 323 1
220 324 1
220 325 1
220 328 1
220 332 1
220 336 1
220 337 1
220 340 1
220 341 1
220 343 1
220 345 1
220 346 1
220 347 1
220 348 1
220 353 1
220 354 1
220 360 1
220 362 1
220 364 1
220 365 1
220 369 1
220 370 1
220 371 1
220 375 1
220 379 1
220 380 1
220 387 1
220 388 1
220 394 1
220 396 1
220 397 1
220 398 1
221 1 1
221 4 1
221 7 1
221 9 1
221 10 1
221 11 1
221 13 1
221 15 1
221 17 1
221 23 1
221 25 1
221 26 1
221 27 1
221 30 1
221 39 1
221 40 1
221 44 1
221 45 1
221 47 1
221 48 1
221 51 1
221 53 1
221 54 1
221 58 1
221 59 1
221 61 1
221 63 1
221 67 1
221 69 1
221 70 1
221 71 1
221 73 1
221 75 1
221 76 1
221 80 1
221 84 1
221 86 1
221 88 1
221 94 1
221 95 1
221 96 1
221 98 1
221 102 1
221 103 1
221 104 1
221 106 1
221 112 1
221 114 1
221 115 1
221 118 1
221 120 1
221 125 1
221 129 1
221 133 1
221 135 1
221 139 1
221 141 1
221 142 1
221 143 1
221 148 1
221 152 1
221 156 1
221 157 1
221 160 1
221 163 1
221 164 1
221 169 1
221 173 1
221 176 1
221 178 1
221 179 1
221 180 1
221 186 1
221 192 1
221 193 1
221 194 1
221 198 1
221 202 1
221 203 1
221 207 1
221 211 1
221 214 1
221 226 1
221 228 1
221 229 1
221 231 1
221 232 1
221 233 1
221 235 1
221 237 1
221 245 1
221 247 1
221 249 1
221 251 1
221 254 1
221 256 1
221 259 1
221 260 1
221 261 1
221 264 1
221 267 1
221 268 1
221 270 1
221 271 1
221 273 1
221 274 1
221 278 1
221 283 1
221 284 1
221 286 1
221 288 1
221 290 1
221 292 1
221 297 1
221 298 1
221 299 1
221 302 1
221 304 1
221 307 1
221 313 1
221 318 1
221 320 1
221 322 1
221 323 1
221 326 1
221 329 1
221 330 1
221 331 1
221 332 1
221 335 1
221 338 1
221 340 1
221 341 1
221 342 1
221 344 1
221 347 1
221 348 1
221 353 1
221 354 1
221 360 1
221 361 1
221 362 1
221 363 1
221 367 1
221 369 1
221 371 1
221 372 1
221 373 1
221 374 1
221 375 1
221 376 1
221 381 1
221 382 1
221 384 1
221 387 1
221 390 1
221 395 1
221 396 1
222 2 1
222 4 1
222 6 1
222 9 1
222 13 1
222 16 1
222 20 1
222 26 1
222 27 1
222 28 1
222 29 1
222 33 1
222 41 1
222 42 1
222 43 1
222 47 1
222 50 1
222 52 1
222 58 1
222 67 1
222 79 1
222 80 1
222 81 1
222 86 1
222 87 1
222 88 1
222 91 1
222 93 1
222 99 1
222 100 1
222 101 1
222 107 1
222 109 1
222 114 1
222 117 1
222 119 1
222 120 1
222 122 1
222 124 1
222 130 1
222 132 1
222 135 1
222 136 1
222 138 1
222 139 1
222 141 1
222 142 1
222 144 1
222 150 1
222 153 1
222 156 1
222 160 1
222 166 1
222 170 1
222 171 1
222 174 1
222 175 1
222 177 1
222 182 1
222 185 1
222 187 1
222 188 1
222 189 1
222 190 1
222 193 1
222 194 1
222 195 1
222 196 1
222 201 1
222 202 1
222 206 1
222 208 1
222 209 1
222 215 1
222 218 1
222 219 1
222 220 1
222 223 1
222 225 1
222 227 1
222 228 1
222 234 1
222 236 1
222 237 1
222 241 1
222 243 1
222 245 1
222 250 1
222 253 1
222 255 1
222 256 1
222 259 1
222 261 1
222 263 1
222 264 1
222 268 1
222 274 1
222 276 1
222 278 1
222 279 1
222 280 1
222 285 1
222 289 1
222 294 1
222 295 1
222 297 1
222 298 1
222 299 1
222 300 1
222 301 1
222 305 1
222 309 1
222 310 1
222 315 1
222 318 1
222 320 1
222 321 1
222 322 1
222 323 1
222 326 1
222 329 1
222 330 1
222 332 1
222 335 1
222 340 1
222 341 1
222 342 1
222 350 1
222 352 1
222 353 1
222 355 1
222 358 1
222 359 1
222 362 1
222 365 1
222 367 1
222 370 1
222 372 1
222 375 1
222 376 1
222 377 1
222 378 1
222 379 1
222 381 1
222 385 1
222 386 1
222 388 1
222 390 1
222 393 1
222 394 1
222 396 1
222 397 1
223 3 1
223 4 1
223 7 1
223 8 1
223 10 1
223 13 1
223 14 1
223 17 1
223 18 1
223 25 1
223 26 1
223 29 1
223 31 1
223 34 1
223 38 1
223 39 1
223 41 1
223 47 1
223 48 1
223 50 1
223 52 1
223 55 1
223 61 1
223 63 1
223 69 1
223 70 1
223 81 1
223 82 1
223 84 1
223 85 1
223 86 1
223 90 1
223 94 1
223 95 1
223 98 1
223 103 1
223 107 1
223 108 1
223 110 1
223 111 1
223 113 1
223 114 1
223 115 1
223 116 1
223 118 1
223 120 1
223 121 1
223 122 1
223 125 1
223 127 1
223 128 1
223 129 1
223 132 1
223 133 1
223 134 1
223 135 1
223 137 1
223 138 1
223 141 1
223 142 1
223 145 1
223 151 1
223 157 1
223 159 1
223 166 1
223 167 1
223 169 1
223 171 1
223 176 1
223 179 1
223 180 1
223 181 1
223 186 1
223 187 1
223 189 1
223 193 1
223 195 1
223 196 1
223 200 1
223 201 1
223 204 1
223 205 1
223 213 1
223 215 1
223 217 1
223 220 1
223 222 1
223 224 1
223 225 1
223 227 1
223 229 1
223 233 1
223 235 1
223 237 1
223 238 1
223 241 1
223 242 1
223 243 1
223 245 1
223 247 1
223 248 1
223 251 1
223 257 1
223 258 1
223 261 1
223 265 1
223 271 1
223 274 1
223 276 1
223 288 1
223 294 1
223 297 1
223 298 1
223 301 1
223 302 1
223 303 1
223 306 1
223 312 1
223 316 1
223 317 1
223 319 1
223 320 1
223 321 1
223 323 1
223 327 1
223 332 1
223 335 1
223 343 1
223 344 1
223 345 1
223 347 1
223 351 1
223 355 1
223 359 1
223 360 1
223 361 1
223 362 1
223 372 1
223 374 1
223 376 1
223 380 1
223 381 1
223 382 1
223 383 1
223 384 1
223 387 1
223 390 1
223 395 1
223 396 1
224 3 1
224 7 1
224 12 1
224 13 1
224 15 1
224 16 1
224 19 1
224 20 1
224 25 1
224 26 1
224 27 1
224 30 1
224 31 1
224 34 1
224 36 1
224 37 1
224 38 1
224 42 1
224 43 1
224 45 1
224 47 1
224 48 1
224 50 1
224 52 1
224 54 1
224 55 1
224 56 1
224 59 1
224 60 1
224 61 1
224 63 1
224 64 1
224 65 1
224 70 1
224 71 1
224 73 1
224 74 1
224 77 1
224 78 1
224 79 1
224 81 1
224 82 1
224 84 1
224 87 1
224 88 1
224 89 1
224 90 1
224 91 1
224 92 1
224 94 1
224 101 1
224 105 1
224 107 1
224 108 1
224 112 1
224 113 1
224 115 1
224 116 1
224 117 1
224 119 1
224 121 1
224 124 1
224 131 1
224 132 1
224 134 1
224 136 1
224 137 1
224 140 1
224 141 1
224 145 1
224 146 1
224 150 1
224 152 1
224 153 1
224 154 1
224 155 1
224 161 1
224 165 1
224 167 1
224 168 1
224 170 1
224 171 1
224 175 1
224 177 1
224 178 1
224 184 1
224 188 1
224 190 1
224 191 1
224 195 1
224 197 1
224 200 1
224 201 1
224 203 1
224 204 1
224 206 1
224 208 1
224 214 1
224 223 1
224 228 1
224 229 1
224 230 1
224 232 1
224 233 1
224 235 1
224 236 1
224 240 1
224 241 1
224 245 1
224 247 1
224 248 1
224 249 1
224 251 1
224 253 1
224 257 1
224 260 1
224 262 1
224 263 1
224 274 1
224 275 1
224 277 1
224 280 1
224 284 1
224 285 1
224 286 1
224 287 1
224 289 1
224 295 1
224 298 1
224 303 1
224 307 1
224 309 1
224 310 1
224 312 1
224 314 1
224 316 1
224 317 1
224 323 1
224 326 1
224 329 1
224 330 1
224 331 1
224 335 1
224 341 1
224 342 1
224 343 1
224 345 1
224 346 1
224 348 1
224 349 1
224 351 1
224 352 1
224 353 1
224 354 1
224 356 1
224 358 1
224 361 1
224 364 1
224 368 1
224 369 1
224 375 1
224 377 1
224 378 1
224 381 1
224 383 1
224 387 1
224 389 1
224 391 1
224 392 1
224 394 1
224 397 1
224 400 1
225 1 1
225 3 1
225 4 1
225 5 1
225 10 1
225 14 1
225 15 1
225 17 1
225 22 1
225 24 1
225 25 1
225 30 1
225 34 1
225 35 1
225 36 1
225 39 1
225 40 1
225 47 1
225 50 1
225 54 1
225 64 1
225 65 1
225 67 1
225 69 1
225 71 1
225 72 1
225 77 1
225 78 1
225 83 1
225 86 1
225 87 1
225 90 1
225 94 1
225 97 1
225 100 1
225 102 1
225 103 1
225 104 1
225 107 1
225 110 1
225 111 1
225 114 1
225 115 1
225 116 1
225 119 1
225 121 1
225 122 1
225 125 1
225 127 1
225 129 1
225 130 1
225 133 1
225 134 1
225 135 1
225 136 1
225 137 1
225 138 1
225 140 1
225 141 1
225 145 1
225 146 1
225 148 1
225 149 1
225 150 1
225 156 1
225 160 1
225 162 1
225 164 1
225 165 1
225 166 1
225 168 1
225 172 1
225 184 1
225 188 1
225 189 1
225 191 1
225 192 1
225 195 1
225 199 1
225 201 1
225 204 1
225 209 1
225 211 1
225 212 1
225 216 1
225 218 1
225 222 1
225 223 1
225 229 1
225 231 1
225 233 1
225 236 1
225 237 1
225 238 1
225 239 1
225 241 1
225 242 1
225 246 1
225 247 1
225 248 1
225 252 1
225 258 1
225 259 1
225 260 1
225 263 1
225 266 1
225 267 1
225 269 1
225 273 1
225 274 1
225 275 1
225 278 1
225 281 1
225 284 1
225 287 1
225 289 1
225 291 1
225 292 1
225 295 1
225 296 1
225 300 1
225 301 1
225 303 1
225 307 1
225 311 1
225 312 1
225 313 1
225 320 1
225 324 1
225 326 1
225 327 1
225 330 1
225 331 1
225 333 1
225 344 1
225 346 1
225 347 1
225 349 1
225 354 1
225 361 1
225 362 1
225 364 1
225 365 1
225 367 1
225 372 1
225 373 1
225 375 1
225 377 1
225 380 1
225 381 1
225 382 1
225 385 1
225 388 1
225 390 1
225 391 1
225 393 1
225 395 1
225 396 1
225 397 1
225 399 1
226 3 1
226 5 1
226 8 1
226 9 1
226 13 1
226 16 1
226 18 1
226 19 1
226 20 1
226 29 1
226 31 1
226 33 1
226 34 1
226 37 1
226 39 1
226 41 1
226 43 1
226 44 1
226 47 1
226 51 1
226 55 1
226 59 1
226 60 1
226 63 1
226 66 1
226 67 1
226 69 1
226 70 1
226 72 1
226 73 1
226 75 1
226 76 1
226 81 1
226 84 1
226 85 1
226 88 1
226 92 1
226 93 1
226 94 1
226 100 1
226 101 1
226 116 1
226 117 1
226 118 1
226 119 1
226 122 1
226 123 1
226 129 1
226 131 1
226 135 1
226 137 1
226 139 1
226 141 1
226 143 1
226 145 1
226 148 1
226 149 1
226 150 1
226 151 1
226 154 1
226 156 1
226 158 1
226 159 1
226 161 1
226 164 1
226 167 1
226 169 1
226 174 1
226 176 1
226 177 1
226 179 1
226 180 1
226 182 1
226 191 1
226 192 1
226 193 1
226 194 1
226 195 1
226 196 1
226 198 1
226 203 1
226 204 1
226 206 1
226 209 1
226 211 1
226 215 1
226 216 1
226 221 1
226 229 1
226 230 1
226 232 1
226 235 1
226 237 1
226 239 1
226 242 1
226 252 1
226 254 1
226 257 1
226 260 1
226 266 1
226 268 1
226 269 1
226 271 1
226 277 1
226 278 1
226 279 1
226 282 1
226 288 1
226 289 1
226 298 1
226 302 1
226 307 1
226 311 1
226 316 1
226 321 1
226 322 1
226 325 1
226 326 1
226 327 1
226 330 1
226 331 1
226 333 1
226 335 1
226 338 1
226 341 1
226 345 1
226 347 1
226 350 1
226 352 1
226 355 1
226 359 1
226 360 1
226 362 1
226 363 1
226 364 1
226 367 1
226 371 1
226 372 1
226 374 1
226 375 1
226 376 1
226 377 1
226 379 1
226 380 1
226 381 1
226 385 1
226 388 1
226 390 1
226 391 1
226 392 1
226 395 1
226 396 1
227 2 1
227 7 1
227 9 1
227 10 1
227 22 1
227 23 1
227 27 1
227 28 1
227 29 1
227 31 1
227 32 1
227 39 1
227 40 1
227 42 1
227 43 1
227 46 1
227 47 1
227 51 1
227 53 1
227 55 1
227 57 1
227 59 1
227 61 1
227 63 1
227 64 1
227 70 1
227 73 1
227 76 1
227 77 1
227 78 1
227 79 1
227 80 1
227 83 1
227 84 1
227 86 1
227 91 1
227 92 1
227 93 1
227 94 1
227 95 1
227 96 1
227 98 1
227 99 1
227 102 1
227 106 1
227 110 1
227 112 1
227 116 1
227 117 1
227 120 1
227 126 1
227 131 1
227 138 1
227 141 1
227 144 1
227 148 1
227 149 1
227 150 1
227 155 1
227 159 1
227 164 1
227 165 1
227 166 1
227 168 1
227 170 1
227 171 1
227 172 1
227 177 1
227 179 1
227 180 1
227 181 1
227 182 1
227 184 1
227 185 1
227 187 1
227 188 1
227 192 1
227 196 1
227 202 1
227 207 1
227 209 1
227 211 1
227 214 1
227 217 1
227 222 1
227 223 1
227 228 1
227 230 1
227 232 1
227 233 1
227 234 1
227 236 1
227 240 1
227 241 1
227 247 1
227 250 1
227 254 1
227 255 1
227 258 1
227 261 1
227 263 1
227 269 1
227 272 1
227 274 1
227 275 1
227 280 1
227 282 1
227 284 1
227 285 1
227 286 1
227 287 1
227 290 1
227 292 1
227 293 1
227 294 1
227 296 1
227 297 1
227 298 1
227 299 1
227 307 1
227 309 1
227 310 1
227 311 1
227 318 1
227 321 1
227 324 1
227 327 1
227 329 1
227 333 1
227 336 1
227 338 1
227 339 1
227 342 1
227 343 1
227 346 1
227 349 1
227 353 1
227 369 1
227 374 1
227 375 1
227 376 1
227 378 1
227 379 1
227 382 1
227 383 1
227 388 1
227 391 1
227 398 1
228 6 1
228 7 1
228 9 1
228 10 1
228 14 1
228 15 1
228 18 1
228 22 1
228 23 1
228 25 1
228 26 1
228 27 1
228 28 1
228 30 1
228 31 1
228 33 1
228 35 1
228 36 1
228 42 1
228 45 1
228 49 1
228 51 1
228 52 1
228 57 1
228 59 1
228 60 1
228 67 1
228 74 1
228 77 1
228 78 1
228 80 1
228 81 1
228 82 1
228 84 1
228 85 1
228 90 1
228 93 1
228 106 1
228 107 1
228 112 1
228 113 1
228 119 1
228 120 1
228 127 1
228 128 1
228 131 1
228 133 1
228 134 1
228 139 1
228 141 1
228 144 1
228 147 1
228 148 1
228 152 1
228 157 1
228 159 1
228 160 1
228 161 1
228 162 1
228 164 1
228 166 1
228 167 1
228 172 1
228 177 1
228 180 1
228 182 1
228 186 1
228 196 1
228 203 1
228 211 1
228 212 1
228 221 1
228 222 1
228 224 1
228 227 1
228 229 1
228 235 1
228 236 1
228 237 1
228 239 1
228 241 1
228 242 1
228 244 1
228 246 1
228 249 1
228 251 1
228 252 1
228 253 1
228 255 1
228 256 1
228 259 1
228 260 1
228 263 1
228 267 1
228 271 1
228 275 1
228 277 1
228 278 1
228 280 1
228 281 1
228 282 1
228 284 1
228 286 1
228 289 1
228 292 1
228 294 1
228 299 1
228 300 1
228 301 1
228 305 1
228 306 1
228 307 1
228 308 1
228 313 1
228 316 1
228 318 1
228 319 1
228 321 1
228 324 1
228 326 1
228 327 1
228 328 1
228 329 1
228 333 1
228 335 1
228 338 1
228 341 1
228 343 1
228 345 1
228 347 1
228 348 1
228 354 1
228 359 1
228 360 1
228 361 1
228 362 1
228 363 1
228 371 1
228 379 1
228 381 1
228 389 1
228 394 1
228 396 1
228 397 1
229 3 1
229 4 1
229 5 1
229 9 1
229 10 1
229 13 1
229 14 1
229 16 1
229 17 1
229 20 1
229 21 1
229 23 1
229 25 1
229 27 1
229 33 1
229 35 1
229 36 1
229 38 1
229 52 1
229 53 1
229 54 1
229 55 1
229 56 1
229 57 1
229 60 1
229 62 1
229 63 1
229 64 1
229 68 1
229 70 1
229 71 1
229 72 1
229 73 1
229 76 1
229 78 1
229 79 1
229 81 1
229 83 1
229 85 1
229 86 1
229 87 1
229 92 1
229 97 1
229 99 1
229 100 1
229 106 1
229 108 1
229 110 1
229 111 1
229 112 1
229 115 1
229 118 1
229 121 1
229 125 1
229 126 1
229 129 1
229 131 1
229 132 1
229 140 1
229 143 1
229 146 1
229 147 1
229 151 1
229 152 1
229 153 1
229 155 1
229 159 1
229 160 1
229 162 1
229 165 1
229 166 1
229 167 1
229 176 1
229 178 1
229 181 1
229 182 1
229 184 1
229 192 1
229 194 1
229 196 1
229 198 1
229 200 1
229 201 1
229 205 1
229 212 1
229 213 1
229 215 1
229 216 1
229 218 1
229 221 1
229 223 1
229 224 1
229 225 1
229 226 1
229 228 1
229 230 1
229 231 1
229 232 1
229 235 1
229 240 1
229 243 1
229 245 1
229 246 1
229 247 1
229 248 1
229 254 1
229 256 1
229 257 1
229 263 1
229 264 1
229 265 1
229 267 1
229 270 1
229 271 1
229 275 1
229 276 1
229 278 1
229 279 1
229 280 1
229 281 1
229 282 1
229 283 1
229 286 1
229 289 1
229 290 1
229 296 1
229 297 1
229 301 1
229 302 1
229 303 1
229 306 1
229 309 1
229 311 1
229 319 1
229 323 1
229 324 1
229 327 1
229 331 1
229 337 1
229 339 1
229 343 1
229 344 1
229 345 1
229 346 1
229 348 1
229 350 1
229 352 1
229 353 1
229 358 1
229 359 1
229 360 1
229 361 1
229 362 1
229 364 1
229 365 1
229 366 1
229 368 1
229 369 1
229 372 1
229 373 1
229 384 1
229 385 1
229 389 1
229 391 1
229 395 1
230 1 1
230 2 1
230 3 1
230 6 1
230 7 1
230 8 1
230 20 1
230 21 1
230 24 1
230 27 1
230 29 1
230 31 1
230 32 1
230 33 1
230 34 1
230 38 1
230 39 1
230 41 1
230 45 1
230 47 1
230 49 1
230 51 1
230 54 1
230 57 1
230 58 1
230 60 1
230 67 1
230 71 1
230 72 1
230 75 1
230 76 1
230 77 1
230 78 1
230 80 1
230 82 1
230 85 1
230 89 1
230 90 1
230 93 1
230 94 1
230 98 1
230 99 1
230 100 1
230 103 1
230 105 1
230 106 1
230 110 1
230 111 1
230 114 1
230 116 1
230 117 1
230 118 1
230 121 1
230 123 1
230 124 1
230 125 1
230 129 1
230 130 1
230 134 1
230 136 1
230 140 1
230 141 1
230 143 1
230 147 1
230 148 1
230 149 1
230 150 1
230 153 1
230 155 1
230 156 1
230 161 1
230 163 1
230 164 1
230 166 1
230 167 1
230 168 1
230 169 1
230 171 1
230 178 1
230 180 1
230 181 1
230 184 1
230 185 1
230 189 1
230 190 1
230 194 1
230 195 1
230 202 1
230 204 1
230 207 1
230 210 1
230 211 1
230 213 1
230 215 1
230 216 1
230 219 1
230 224 1
230 226 1
230 227 1
230 229 1
230 231 1
230 232 1
230 233 1
230 234 1
230 239 1
230 241 1
230 242 1
230 252 1
230 253 1
230 255 1
230 256 1
230 259 1
230 260 1
230 262 1
230 269 1
230 271 1
230 272 1
230 273 1
230 274 1
230 275 1
230 276 1
230 279 1
230 282 1
230 283 1
230 285 1
230 287 1
230 297 1
230 300 1
230 303 1
230 304 1
230 305 1
230 307 1
230 311 1
230 313 1
230 315 1
230 317 1
230 318 1
230 320 1
230 322 1
230 323 1
230 326 1
230 328 1
230 329 1
230 335 1
230 338 1
230 340 1
230 343 1
230 344 1
230 351 1
230 352 1
230 357 1
230 360 1
230 362 1
230 363 1
230 365 1
230 367 1
230 368 1
230 370 1
230 373 1
230 378 1
230 379 1
230 383 1
230 384 1
230 385 1
230 388 1
230 394 1
230 395 1
230 396 1
230 398 1
230 399 1
230 400 1
231 1 1
231 4 1
231 5 1
231 11 1
231 17 1
231 19 1
231 20 1
231 21 1
231 22 1
231 23 1
231 25 1
231 26 1
231 29 1
231 31 1
231 36 1
231 38 1
231 41 1
231 42 1
231 43 1
231 44 1
231 45 1
231 54 1
231 56 1
231 57 1
231 61 1
231 62 1
231 65 1
231 67 1
231 70 1
231 72 1
231 75 1
231 76 1
231 78 1
231 79 1
231 82 1
231 83 1
231 84 1
231 87 1
231 88 1
231 91 1
231 92 1
231 93 1
231 94 1
231 95 1
231 98 1
231 104 1
231 106 1
231 109 1
231 112 1
231 114 1
231 116 1
231 118 1
231 120 1
231 123 1
231 124 1
231 125 1
231 126 1
231 127 1
231 128 1
231 132 1
231 138 1
231 141 1
231 142 1
231 145 1
231 149 1
231 151 1
231 152 1
231 154 1
231 157 1
231 158 1
231 160 1
231 164 1
231 166 1
231 170 1
231 176 1
231 181 1
231 185 1
231 187 1
231 189 1
231 190 1
231 192 1
231 193 1
231 195 1
231 199 1
231 201 1
231 202 1
231 204 1
231 205 1
231 207 1
231 209 1
231 210 1
231 211 1
231 213 1
231 216 1
231 218 1
231 219 1
231 220 1
231 221 1
231 225 1
231 229 1
231 230 1
231 233 1
231 236 1
231 238 1
231 241 1
231 243 1
231 249 1
231 250 1
231 251 1
231 253 1
231 254 1
231 255 1
231 258 1
231 260 1
231 265 1
231 267 1
231 269 1
231 270 1
231 280 1
231 284 1
231 285 1
231 286 1
231 287 1
231 288 1
231 289 1
231 294 1
231 295 1
231 298 1
231 302 1
231 304 1
231 309 1
231 313 1
231 315 1
231 316 1
231 321 1
231 323 1
231 325 1
231 327 1
231 331 1
231 333 1
231 335 1
231 337 1
231 339 1
231 342 1
231 343 1
231 344 1
231 346 1
231 352 1
231 357 1
231 362 1
231 365 1
231 368 1
231 369 1
231 370 1
231 372 1
231 377 1
231 381 1
231 382 1
231 385 1
231 389 1
231 392 1
231 394 1
231 395 1
231 396 1
231 399 1
232 1 1
232 2 1
232 10 1
232 17 1
232 21 1
232 23 1
232 24 1
232 27 1
232 28 1
232 32 1
232 34 1
232 38 1
232 39 1
232 42 1
232 47 1
232 50 1
232 56 1
232 59 1
232 60 1
232 64 1
232 67 1
232 75 1
232 78 1
232 82 1
232 85 1
232 94 1
232 96 1
232 112 1
232 113 1
232 115 1
232 116 1
232 120 1
232 121 1
232 122 1
232 123 1
232 125 1
232 126 1
232 129 1
232 134 1
232 135 1
232 137 1
232 138 1
232 141 1
232 143 1
232 145 1
232 151 1
232 153 1
232 157 1
232 159 1
232 160 1
232 166 1
232 167 1
232 168 1
232 175 1
232 180 1
232 186 1
232 189 1
232 190 1
232 193 1
232 194 1
232 195 1
232 196 1
232 197 1
232 199 1
232 200 1
232 203 1
232 206 1
232 210 1
232 217 1
232 218 1
232 219 1
232 220 1
232 221 1
232 224 1
232 226 1
232 227 1
232 229 1
232 230 1
232 233 1
232 235 1
232 238 1
232 239 1
232 241 1
232 249 1
232 250 1
232 254 1
232 255 1
232 256 1
232 259 1
232 260 1
232 265 1
232 269 1
232 270 1
232 271 1
232 275 1
232 276 1
232 278 1
232 280 1
232 281 1
232 284 1
232 285 1
232 288 1
232 293 1
232 303 1
232 305 1
232 306 1
232 309 1
232 313 1
232 315 1
232 317 1
232 319 1
232 321 1
232 325 1
232 327 1
232 329 1
232 335 1
232 336 1
232 337 1
232 339 1
232 340 1
232 341 1
232 345 1
232 350 1
232 354 1
232 355 1
232 359 1
232 361 1
232 365 1
232 368 1
232 369 1
232 377 1
232 378 1
232 379 1
232 382 1
232 386 1
232 391 1
232 392 1
232 394 1
232 395 1
232 396 1
233 5 1
233 10 1
233 13 1
233 16 1
233 19 1
233 21 1
233 22 1
233 24 1
233 26 1
233 30 1
233 31 1
233 35 1
233 36 1
233 43 1
233 46 1
233 47 1
233 49 1
233 51 1
233 52 1
233 54 1
233 60 1
233 62 1
233 64 1
233 67 1
233 68 1
233 70 1
233 71 1
233 73 1
233 74 1
233 75 1
233 76 1
233 77 1
233 80 1
233 88 1
233 89 1
233 90 1
233 92 1
233 93 1
233 98 1
233 99 1
233 100 1
233 101 1
233 103 1
233 104 1
233 105 1
233 106 1
233 107 1
233 113 1
233 116 1
233 117 1
233 118 1
233 119 1
233 122 1
233 123 1
233 126 1
233 127 1
233 131 1
233 132 1
233 133 1
233 136 1
233 139 1
233 142 1
233 145 1
233 146 1
233 148 1
233 152 1
233 153 1
233 155 1
233 158 1
233 160 1
233 161 1
233 162 1
233 165 1
233 170 1
233 171 1
233 172 1
233 173 1
233 174 1
233 179 1
233 181 1
233 184 1
233 192 1
233 196 1
233 198 1
233 200 1
233 201 1
233 202 1
233 205 1
233 210 1
233 212 1
233 214 1
233 215 1
233 216 1
233 219 1
233 220 1
233 221 1
233 223 1
233 224 1
233 225 1
233 227 1
233 230 1
233 231 1
233 232 1
233 234 1
233 236 1
233 237 1
233 239 1
233 241 1
233 243 1
233 244 1
233 246 1
233 253 1
233 257 1
233 259 1
233 262 1
233 264 1
233 265 1
233 267 1
233 271 1
233 276 1
233 282 1
233 284 1
233 289 1
233 290 1
233 291 1
233 292 1
233 294 1
233 300 1
233 302 1
233 303 1
233 307 1
233 312 1
233 316 1
233 320 1
233 323 1
233 324 1
233 329 1
233 332 1
233 335 1
233 340 1
233 341 1
233 347 1
233 348 1
233 352 1
233 356 1
233 360 1
233 361 1
233 364 1
233 366 1
233 371 1
233 372 1
233 374 1
233 375 1
233 376 1
233 379 1
233 381 1
233 382 1
233 387 1
233 397 1
233 399 1
234 3 1
234 5 1
234 9 1
234 11 1
234 15 1
234 16 1
234 17 1
234 18 1
234 19 1
234 23 1
234 24 1
234 25 1
234 26 1
234 30 1
234 31 1
234 34 1
234 36 1
234 37 1
234 41 1
234 42 1
234 44 1
234 46 1
234 48 1
234 50 1
234 53 1
234 54 1
234 55 1
234 56 1
234 59 1
234 60 1
234 62 1
234 64 1
234 66 1
234 68 1
234 71 1
234 73 1
234 77 1
234 78 1
234 81 1
234 86 1
234 90 1
234 91 1
234 93 1
234 96 1
234 105 1
234 107 1
234 112 1
234 113 1
234 115 1
234 117 1
234 119 1
234 120 1
234 121 1
234 122 1
234 124 1
234 125 1
234 126 1
234 128 1
234 129 1
234 130 1
234 131 1
234 132 1
234 135 1
234 138 1
234 139 1
234 141 1
234 143 1
234 149 1
234 150 1
234 154 1
234 155 1
234 165 1
234 168 1
234 170 1
234 171 1
234 177 1
234 180 1
234 183 1
234 184 1
234 189 1
234 190 1
234 192 1
234 200 1
234 202 1
234 204 1
234 205 1
234 206 1
234 207 1
234 208 1
234 209 1
234 210 1
234 211 1
234 212 1
234 214 1
234 217 1
234 218 1
234 222 1
234 227 1
234 230 1
234 233 1
234 237 1
234 238 1
234 241 1
234 242 1
234 247 1
234 250 1
234 251 1
234 252 1
234 253 1
234 255 1
234 256 1
234 259 1
234 262 1
234 263 1
234 267 1
234 272 1
234 275 1
234 278 1
234 279 1
234 280 1
234 283 1
234 288 1
234 290 1
234 291 1
234 293 1
234 295 1
234 296 1
234 297 1
234 298 1
234 302 1
234 307 1
234 312 1
234 313 1
234 314 1
234 315 1
234 316 1
234 321 1
234 322 1
234 323 1
234 324 1
234 329 1
234 330 1
234 333 1
234 336 1
234 340 1
234 351 1
234 353 1
234 355 1
234 356 1
234 361 1
234 363 1
234 372 1
234 379 1
234 380 1
234 381 1
234 382 1
234 384 1
234 385 1
234 391 1
234 393 1
234 395 1
235 2 1
235 4 1
235 5 1
235 8 1
235 11 1
235 13 1
235 18 1
235 20 1
235 22 1
235 23 1
235 24 1
235 25 1
235 27 1
235 34 1
235 35 1
235 36 1
235 43 1
235 44 1
235 47 1
235 50 1
235 51 1
235 52 1
235 61 1
235 62 1
235 63 1
235 64 1
235 65 1
235 67 1
235 70 1
235 72 1
235 80 1
235 83 1
235 85 1
235 86 1
235 87 1
235 88 1
235 96 1
235 99 1
235 100 1
235 101 1
235 102 1
235 108 1
235 110 1
235 115 1
235 117 1
235 118 1
235 120 1
235 122 1
235 124 1
235 129 1
235 133 1
235 134 1
235 139 1
235 141 1
235 143 1
235 145 1
235 146 1
235 149 1
235 150 1
235 151 1
235 153 1
235 160 1
235 164 1
235 166 1
235 168 1
235 169 1
235 172 1
235 174 1
235 176 1
235 178 1
235 179 1
235 186 1
235 187 1
235 193 1
235 194 1
235 195 1
235 196 1
235 201 1
235 202 1
235 204 1
235 205 1
235 206 1
235 208 1
235 211 1
235 219 1
235 220 1
235 221 1
235 223 1
235 224 1
235 226 1
235 228 1
235 229 1
235 232 1
235 236 1
235 239 1
235 240 1
235 244 1
235 246 1
235 247 1
235 252 1
235 253 1
235 257 1
235 262 1
235 263 1
235 265 1
235 267 1
235 268 1
235 272 1
235 274 1
235 276 1
235 282 1
235 284 1
235 285 1
235 290 1
235 291 1
235 294 1
235 297 1
235 303 1
235 307 1
235 308 1
235 310 1
235 319 1
235 321 1
235 324 1
235 325 1
235 326 1
235 330 1
235 333 1
235 336 1
235 337 1
235 340 1
235 341 1
235 343 1
235 347 1
235 348 1
235 349 1
235 350 1
235 351 1
235 352 1
235 354 1
235 357 1
235 359 1
235 364 1
235 366 1
235 367 1
235 369 1
235 373 1
235 376 1
235 377 1
235 379 1
235 380 1
235 383 1
235 384 1
235 387 1
235 388 1
235 391 1
235 394 1
235 397 1
235 398 1
235 399 1
235 400 1
236 1 1
236 8 1
236 9 1
236 10 1
236 14 1
236 16 1
236 17 1
236 20 1
236 23 1
236 24 1
236 25 1
236 29 1
236 35 1
236 36 1
236 38 1
236 39 1
236 49 1
236 52 1
236 54 1
236 57 1
236 58 1
236 61 1
236 63 1
236 64 1
236 65 1
236 66 1
236 67 1
236 68 1
236 70 1
236 75 1
236 77 1
236 79 1
236 81 1
236 83 1
236 85 1
236 89 1
236 91 1
236 93 1
236 97 1
236 98 1
236 99 1
236 111 1
236 113 1
236 116 1
236 118 1
236 119 1
236 134 1
236 135 1
236 136 1
236 137 1
236 140 1
236 142 1
236 144 1
236 152 1
236 153 1
236 154 1
236 155 1
236 158 1
236 160 1
236 163 1
236 164 1
236 166 1
236 168 1
236 173 1
236 179 1
236 180 1
236 181 1
236 182 1
236 183 1
236 184 1
236 185 1
236 186 1
236 188 1
236 189 1
236 191 1
236 192 1
236 193 1
236 196 1
236 206 1
236 207 1
236 208 1
236 210 1
236 212 1
236 213 1
236 218 1
236 219 1
236 220 1
236 222 1
236 224 1
236 225 1
236 227 1
236 228 1
236 231 1
236 233 1
236 235 1
236 238 1
236 241 1
236 243 1
236 244 1
236 245 1
236 246 1
236 247 1
236 248 1
236 249 1
236 251 1
236 253 1
236 257 1
236 260 1
236 261 1
236 262 1
236 264 1
236 265 1
236 266 1
236 267 1
236 270 1
236 271 1
236 272 1
236 276 1
236 278 1
236 279 1
236 280 1
236 284 1
236 287 1
236 288 1
236 294 1
236 295 1
236 303 1
236 304 1
236 313 1
236 316 1
236 318 1
236 320 1
236 321 1
236 323 1
236 326 1
236 328 1
236 329 1
236 332 1
236 333 1
236 334 1
236 335 1
236 345 1
236 347 1
236 349 1
236 353 1
236 354 1
236 357 1
236 362 1
236 364 1
236 367 1
236 370 1
236 371 1
236 373 1
236 375 1
236 377 1
236 378 1
236 380 1
236 386 1
236 388 1
236 392 1
236 393 1
236 394 1
236 395 1
236 397 1
236 399 1
237 3 1
237 7 1
237 10 1
237 12 1
237 13 1
237 16 1
237 17 1
237 18 1
237 20 1
237 25 1
237 26 1
237 28 1
237 29 1
237 32 1
237 35 1
237 36 1
237 38 1
237 39 1
237 42 1
237 45 1
237 48 1
237 50 1
237 52 1
237 53 1
237 54 1
237 57 1
237 58 1
237 59 1
237 60 1
237 61 1
237 62 1
237 65 1
237 72 1
237 74 1
237 75 1
237 76 1
237 77 1
237 79 1
237 81 1
237 86 1
237 89 1
237 90 1
237 91 1
237 96 1
237 97 1
237 102 1
237 103 1
237 104 1
237 108 1
237 116 1
237 117 1
237 123 1
237 124 1
237 126 1
237 128 1
237 129 1
237 136 1
237 137 1
237 139 1
237 145 1
237 153 1
237 156 1
237 157 1
237 161 1
237 164 1
237 167 1
237 168 1
237 169 1
237 171 1
237 175 1
237 176 1
237 179 1
237 180 1
237 181 1
237 182 1
237 183 1
237 185 1
237 186 1
237 190 1
237 194 1
237 196 1
237 197 1
237 201 1
237 203 1
237 217 1
237 220 1
237 221 1
237 222 1
237 223 1
237 225 1
237 226 1
237 228 1
237 233 1
237 234 1
237 238 1
237 240 1
237 241 1
237 243 1
237 246 1
237 251 1
237 252 1
237 254 1
237 255 1
237 259 1
237 265 1
237 266 1
237 269 1
237 270 1
237 272 1
237 275 1
237 276 1
237 280 1
237 282 1
237 284 1
237 287 1
237 288 1
237 289 1
237 293 1
237 299 1
237 304 1
237 307 1
237 308 1
237 310 1
237 314 1
237 315 1
237 323 1
237 324 1
237 328 1
237 331 1
237 332 1
237 338 1
237 341 1
237 343 1
237 344 1
237 345 1
237 348 1
237 349 1
237 356 1
237 358 1
237 360 1
237 361 1
237 367 1
237 368 1
237 369 1
237 370 1
237 372 1
237 373 1
237 374 1
237 376 1
237 378 1
237 379 1
237 381 1
237 386 1
237 387 1
237 388 1
237 390 1
237 391 1
237 394 1
237 395 1
237 397 1
238 1 1
238 2 1
238 4 1
238 8 1
238 9 1
238 10 1
238 12 1
238 18 1
238 20 1
238 22 1
238 23 1
238 26 1
238 27 1
238 29 1
238 30 1
238 37 1
238 39 1
238 40 1
238 43 1
238 44 1
238 45 1
238 47 1
238 48 1
238 51 1
238 52 1
238 54 1
238 60 1
238 63 1
238 65 1
238 67 1
238 72 1
238 74 1
238 80 1
238 85 1
238 86 1
238 87 1
238 92 1
238 93 1
238 95 1
238 106 1
238 107 1
238 109 1
238 111 1
238 114 1
238 115 1
238 116 1
238 117 1
238 121 1
238 122 1
238 123 1
238 126 1
238 130 1
238 140 1
238 142 1
238 144 1
238 147 1
238 149 1
238 151 1
238 153 1
238 155 1
238 156 1
238 160 1
238 163 1
238 165 1
238 168 1
238 169 1
238 170 1
238 175 1
238 177 1
238 180 1
238 182 1
238 183 1
238 185 1
238 186 1
238 189 1
238 192 1
238 197 1
238 200 1
238 208 1
238 211 1
238 213 1
238 217 1
238 218 1
238 219 1
238 220 1
238 223 1
238 225 1
238 231 1
238 232 1
238 234 1
238 236 1
238 237 1
238 240 1
238 241 1
238 244 1
238 246 1
238 247 1
238 248 1
238 250 1
238 251 1
238 252 1
238 257 1
238 258 1
238 259 1
238 260 1
238 261 1
238 262 1
238 265 1
238 270 1
238 273 1
238 275 1
238 276 1
238 278 1
238 280 1
238 282 1
238 285 1
238 286 1
238 288 1
238 291 1
238 292 1
238 295 1
238 296 1
238 297 1
238 301 1
238 302 1
238 304 1
238 307 1
238 309 1
238 313 1
238 314 1
238 317 1
238 318 1
238 319 1
238 321 1
238 322 1
238 325 1
238 326 1
238 332 1
238 333 1
238 335 1
238 337 1
238 339 1
238 340 1
238 342 1
238 345 1
238 347 1
238 348 1
238 353 1
238 355 1
238 358 1
238 365 1
238 366 1
238 367 1
238 370 1
238 372 1
238 374 1
238 375 1
238 376 1
238 379 1
238 383 1
238 387 1
238 388 1
238 395 1
238 396 1
238 400 1
239 3 1
239 6 1
239 7 1
239 10 1
239 11 1
239 12 1
239 14 1
239 16 1
239 17 1
239 22 1
239 24 1
239 32 1
239 33 1
239 34 1
239 35 1
239 40 1
239 44 1
239 47 1
239 48 1
239 56 1
239 62 1
239 63 1
239 64 1
239 65 1
239 70 1
239 71 1
239 74 1
239 75 1
239 85 1
239 87 1
239 89 1
239 96 1
239 99 1
239 107 1
239 110 1
239 112 1
239 113 1
239 114 1
239 115 1
239 118 1
239 120 1
239 122 1
239 125 1
239 129 1
239 136 1
239 138 1
239 139 1
239 142 1
239 144 1
239 145 1
239 149 1
239 152 1
239 153 1
239 154 1
239 156 1
239 157 1
239 158 1
239 162 1
239 165 1
239 166 1
239 175 1
239 176 1
239 177 1
239 181 1
239 183 1
239 184 1
239 186 1
239 187 1
239 189 1
239 191 1
239 192 1
239 194 1
239 196 1
239 199 1
239 201 1
239 202 1
239 205 1
239 206 1
239 207 1
239 208 1
239 211 1
239 212 1
239 213 1
239 217 1
239 218 1
239 219 1
239 220 1
239 225 1
239 226 1
239 228 1
239 230 1
239 232 1
239 233 1
239 235 1
239 241 1
239 243 1
239 245 1
239 246 1
239 247 1
239 249 1
239 251 1
239 253 1
239 255 1
239 260 1
239 261 1
239 263 1
239 264 1
239 265 1
239 266 1
239 271 1
239 273 1
239 275 1
239 282 1
239 283 1
239 287 1
239 289 1
239 290 1
239 292 1
239 297 1
239 299 1
239 300 1
239 302 1
239 303 1
239 310 1
239 313 1
239 315 1
239 319 1
239 323 1
239 324 1
239 327 1
239 329 1
239 332 1
239 334 1
239 337 1
239 338 1
239 339 1
239 340 1
239 341 1
239 342 1
239 343 1
239 356 1
239 361 1
239 362 1
239 367 1
239 372 1
239 375 1
239 377 1
239 380 1
239 382 1
239 386 1
239 388 1
239 389 1
239 393 1
239 395 1
239 397 1
239 400 1
240 6 1
240 7 1
240 8 1
240 9 1
240 10 1
240 16 1
240 18 1
240 19 1
240 20 1
240 24 1
240 31 1
240 32 1
240 36 1
240 39 1
240 42 1
240 43 1
240 46 1
240 47 1
240 48 1
240 56 1
240 57 1
240 59 1
240 61 1
240 63 1
240 64 1
240 74 1
240 77 1
240 78 1
240 79 1
240 84 1
240 91 1
240 92 1
240 93 1
240 94 1
240 95 1
240 96 1
240 99 1
240 101 1
240 103 1
240 104 1
240 105 1
240 113 1
240 114 1
240 119 1
240 124 1
240 126 1
240 128 1
240 130 1
240 136 1
240 139 1
240 140 1
240 143 1
240 144 1
240 145 1
240 151 1
240 152 1
240 153 1
240 156 1
240 158 1
240 159 1
240 160 1
240 161 1
240 163 1
240 167 1
240 172 1
240 173 1
240 174 1
240 176 1
240 178 1
240 180 1
240 182 1
240 184 1
240 185 1
240 190 1
240 191 1
240 197 1
240 198 1
240 201 1
240 202 1
240 205 1
240 224 1
240 227 1
240 229 1
240 235 1
240 237 1
240 238 1
240 242 1
240 243 1
240 245 1
240 251 1
240 254 1
240 259 1
240 262 1
240 263 1
240 270 1
240 271 1
240 272 1
240 273 1
240 278 1
240 280 1
240 281 1
240 283 1
240 285 1
240 287 1
240 288 1
240 289 1
240 293 1
240 295 1
240 301 1
240 302 1
240 303 1
240 306 1
240 314 1
240 318 1
240 321 1
240 325 1
240 326 1
240 330 1
240 340 1
240 342 1
240 344 1
240 349 1
240 350 1
240 351 1
240 353 1
240 354 1
240 356 1
240 357 1
240 358 1
240 360 1
240 361 1
240 364 1
240 365 1
240 366 1
240 367 1
240 372 1
240 373 1
240 376 1
240 380 1
240 388 1
240 390 1
240 393 1
240 395 1
240 397 1
240 398 1
241 2 1
241 9 1
241 17 1
241 19 1
241 24 1
241 29 1
241 33 1
241 37 1
241 39 1
241 41 1
241 42 1
241 49 1
241 52 1
241 55 1
241 60 1
241 62 1
241 64 1
241 68 1
241 69 1
241 70 1
241 71 1
241 78 1
241 83 1
241 87 1
241 89 1
241 90 1
241 91 1
241 95 1
241 96 1
241 97 1
241 99 1
241 104 1
241 105 1
241 106 1
241 108 1
241 111 1
241 113 1
241 114 1
241 115 1
241 116 1
241 120 1
241 124 1
241 128 1
241 129 1
241 130 1
241 131 1
241 137 1
241 140 1
241 141 1
241 143 1
241 152 1
241 154 1
241 155 1
241 156 1
241 157 1
241 158 1
241 161 1
241 162 1
241 163 1
241 169 1
241 170 1
241 173 1
241 176 1
241 177 1
241 178 1
241 181 1
241 184 1
241 186 1
241 188 1
241 193 1
241 194 1
241 196 1
241 198 1
241 206 1
241 208 1
241 209 1
241 212 1
241 213 1
241 215 1
241 217 1
241 219 1
241 220 1
241 222 1
241 223 1
241 224 1
241 225 1
241 227 1
241 228 1
241 230 1
241 231 1
241 232 1
241 233 1
241 234 1
241 236 1
241 237 1
241 238 1
241 239 1
241 246 1
241 247 1
241 249 1
241 255 1
241 263 1
241 265 1
241 267 1
241 269 1
241 271 1
241 272 1
241 274 1
241 275 1
241 282 1
241 286 1
241 287 1
241 291 1
241 293 1
241 299 1
241 304 1
241 306 1
241 311 1
241 315 1
241 316 1
241 323 1
241 326 1
241 329 1
241 332 1
241 333 1
241 338 1
241 342 1
241 345 1
241 347 1
241 349 1
241 350 1
241 351 1
241 357 1
241 360 1
241 361 1
241 363 1
241 366 1
241 367 1
241 369 1
241 371 1
241 372 1
241 374 1
241 376 1
241 380 1
241 381 1
241 387 1
241 388 1
241 392 1
241 394 1
241 397 1
242 1 1
242 2 1
242 3 1
242 4 1
242 12 1
242 15 1
242 17 1
242 22 1
242 25 1
242 26 1
242 27 1
242 28 1
242 29 1
242 32 1
242 34 1
242 37 1
242 39 1
242 44 1
242 48 1
242 49 1
242 51 1
242 53 1
242 57 1
242 59 1
242 63 1
242 66 1
242 69 1
242 70 1
242 73 1
242 75 1
242 76 1
242 77 1
242 79 1
242 83 1
242 85 1
242 88 1
242 90 1
242 92 1
242 93 1
242 95 1
242 99 1
242 102 1
242 107 1
242 112 1
242 113 1
242 118 1
242 120 1
242 122 1
242 125 1
242 126 1
242 129 1
242 131 1
242 134 1
242 135 1
242 136 1
242 137 1
242 140 1
242 141 1
242 142 1
242 146 1
242 149 1
242 153 1
242 160 1
242 168 1
242 171 1
242 177 1
242 180 1
242 183 1
242 188 1
242 189 1
242 190 1
242 194 1
242 195 1
242 196 1
242 197 1
242 198 1
242 200 1
242 203 1
242 205 1
242 206 1
242 213 1
242 215 1
242 216 1
242 217 1
242 218 1
242 223 1
242 225 1
242 226 1
242 228 1
242 230 1
242 234 1
242 240 1
242 245 1
242 247 1
242 248 1
242 252 1
242 254 1
242 255 1
242 264 1
242 267 1
242 269 1
242 275 1
242 276 1
242 277 1
242 279 1
242 280 1
242 283 1
242 286 1
242 287 1
242 290 1
242 292 1
242 293 1
242 295 1
242 300 1
242 304 1
242 306 1
242 307 1
242 312 1
242 315 1
242 317 1
242 318 1
242 320 1
242 321 1
242 325 1
242 329 1
242 332 1
242 333 1
242 334 1
242 335 1
242 336 1
242 337 1
242 339 1
242 340 1
242 342 1
242 347 1
242 348 1
242 350 1
242 351 1
242 352 1
242 353 1
242 354 1
242 357 1
242 367 1
242 368 1
242 372 1
242 373 1
242 375 1
242 378 1
242 379 1
242 381 1
242 383 1
242 387 1
242 391 1
242 398 1
242 399 1
243 1 1
243 3 1
243 4 1
243 5 1
243 9 1
243 10 1
243 13 1
243 14 1
243 18 1
243 20 1
243 21 1
243 33 1
243 36 1
243 38 1
243 41 1
243 45 1
243 46 1
243 47 1
243 58 1
243 59 1
243 60 1
243 63 1
243 64 1
243 66 1
243 67 1
243 73 1
243 75 1
243 76 1
243 79 1
243 80 1
243 81 1
243 90 1
243 92 1
243 95 1
243 96 1
243 97 1
243 98 1
243 99 1
243 103 1
243 104 1
243 105 1
243 106 1
243 107 1
243 108 1
243 109 1
243 111 1
243 117 1
243 129 1
243 138 1
243 139 1
243 141 1
243 143 1
243 148 1
243 150 1
243 151 1
243 153 1
243 155 1
243 156 1
243 166 1
243 167 1
243 169 1
243 173 1
243 174 1
243 176 1
243 182 1
243 183 1
243 184 1
243 185 1
243 186 1
243 188 1
243 189 1
243 191 1
243 192 1
243 193 1
243 194 1
243 195 1
243 196 1
243 200 1
243 201 1
243 202 1
243 203 1
243 205 1
243 206 1
243 207 1
243 208 1
243 209 1
243 211 1
243 212 1
243 222 1
243 223 1
243 229 1
243 231 1
243 233 1
243 236 1
243 237 1
243 239 1
243 240 1
243 246 1
243 249 1
243 252 1
243 255 1
243 257 1
243 258 1
243 261 1
243 271 1
243 272 1
243 277 1
243 284 1
243 287 1
243 291 1
243 295 1
243 297 1
243 300 1
243 302 1
243 303 1
243 308 1
243 311 1
243 313 1
243 314 1
243 318 1
243 319 1
243 320 1
243 323 1
243 324 1
243 326 1
243 329 1
243 330 1
243 334 1
243 337 1
243 338 1
243 341 1
243 344 1
243 345 1
243 357 1
243 359 1
243 362 1
243 368 1
243 372 1
243 375 1
243 377 1
243 381 1
243 384 1
243 386 1
243 387 1
243 388 1
243 393 1
243 395 1
243 400 1
244 6 1
244 11 1
244 15 1
244 16 1
244 17 1
244 19 1
244 24 1
244 26 1
244 27 1
244 29 1
244 30 1
244 31 1
244 36 1
244 38 1
244 46 1
244 48 1
244 49 1
244 50 1
244 55 1
244 62 1
244 71 1
244 74 1
244 78 1
244 79 1
244 80 1
244 82 1
244 87 1
244 88 1
244 89 1
244 92 1
244 93 1
244 95 1
244 98 1
244 99 1
244 103 1
244 105 1
244 106 1
244 107 1
244 109 1
244 110 1
244 113 1
244 114 1
244 119 1
244 124 1
244 125 1
244 133 1
244 134 1
244 136 1
244 138 1
244 139 1
244 141 1
244 142 1
244 146 1
244 147 1
244 148 1
244 149 1
244 153 1
244 154 1
244 155 1
244 156 1
244 161 1
244 162 1
244 163 1
244 167 1
244 171 1
244 172 1
244 173 1
244 174 1
244 178 1
244 179 1
244 184 1
244 187 1
244 188 1
244 190 1
244 192 1
244 194 1
244 196 1
244 197 1
244 198 1
244 199 1
244 201 1
244 202 1
244 207 1
244 209 1
244 210 1
244 211 1
244 213 1
244 214 1
244 215 1
244 217 1
244 218 1
244 219 1
244 228 1
244 233 1
244 235 1
244 236 1
244 238 1
244 245 1
244 247 1
244 248 1
244 250 1
244 252 1
244 253 1
244 256 1
244 257 1
244 258 1
244 260 1
244 262 1
244 263 1
244 266 1
244 277 1
244 285 1
244 288 1
244 289 1
244 293 1
244 294 1
244 295 1
244 296 1
244 298 1
244 299 1
244 305 1
244 310 1
244 311 1
244 314 1
244 315 1
244 322 1
244 323 1
244 327 1
244 329 1
244 334 1
244 336 1
244 339 1
244 342 1
244 349 1
244 350 1
244 351 1
244 353 1
244 354 1
244 358 1
244 359 1
244 361 1
244 365 1
244 366 1
244 368 1
244 369 1
244 373 1
244 380 1
244 381 1
244 382 1
244 384 1
244 385 1
244 388 1
244 391 1
244 393 1
244 396 1
244 398 1
244 399 1
245 1 1
245 2 1
245 3 1
245 5 1
245 6 1
245 8 1
245 12 1
245 14 1
245 17 1
245 18 1
245 19 1
245 21 1
245 24 1
245 28 1
245 31 1
245 33 1
245 36 1
245 37 1
245 39 1
245 41 1
245 43 1
245 46 1
245 47 1
245 49 1
245 50 1
245 53 1
245 54 1
245 56 1
245 59 1
245 60 1
245 61 1
245 64 1
245 65 1
245 67 1
245 68 1
245 72 1
245 77 1
245 81 1
245 82 1
245 86 1
245 88 1
245 89 1
245 95 1
245 98 1
245 100 1
245 103 1
245 105 1
245 106 1
245 108 1
245 110 1
245 111 1
245 114 1
245 117 1
245 118 1
245 119 1
245 122 1
245 125 1
245 127 1
245 128 1
245 130 1
245 136 1
245 137 1
245 141 1
245 143 1
245 146 1
245 151 1
245 156 1
245 160 1
245 163 1
245 164 1
245 167 1
245 168 1
245 170 1
245 173 1
245 174 1
245 175 1
245 179 1
245 180 1
245 188 1
245 193 1
245 195 1
245 198 1
245 199 1
245 200 1
245 202 1
245 206 1
245 208 1
245 210 1
245 213 1
245 219 1
245 221 1
245 222 1
245 223 1
245 224 1
245 229 1
245 236 1
245 239 1
245 240 1
245 242 1
245 244 1
245 250 1
245 252 1
245 253 1
245 256 1
245 257 1
245 258 1
245 263 1
245 264 1
245 265 1
245 266 1
245 271 1
245 272 1
245 275 1
245 277 1
245 278 1
245 280 1
245 281 1
245 282 1
245 283 1
245 285 1
245 286 1
245 287 1
245 297 1
245 301 1
245 308 1
245 309 1
245 313 1
245 316 1
245 319 1
245 320 1
245 321 1
245 323 1
245 326 1
245 328 1
245 333 1
245 339 1
245 340 1
245 343 1
245 344 1
245 347 1
245 352 1
245 356 1
245 357 1
245 358 1
245 362 1
245 365 1
245 366 1
245 370 1
245 373 1
245 376 1
245 380 1
245 381 1
245 382 1
245 383 1
245 387 1
245 388 1
245 391 1
245 393 1
245 395 1
245 400 1
246 2 1
246 6 1
246 13 1
246 15 1
246 23 1
246 24 1
246 27 1
246 32 1
246 33 1
246 36 1
246 38 1
246 41 1
246 43 1
246 46 1
246 47 1
246 48 1
246 50 1
246 51 1
246 52 1
246 54 1
246 56 1
246 58 1
246 59 1
246 64 1
246 66 1
246 70 1
246 76 1
246 78 1
246 79 1
246 81 1
246 83 1
246 84 1
246 88 1
246 89 1
246 90 1
246 91 1
246 94 1
246 95 1
246 97 1
246 99 1
246 103 1
246 106 1
246 107 1
246 108 1
246 110 1
246 116 1
246 119 1
246 120 1
246 122 1
246 123 1
246 126 1
246 131 1
246 133 1
246 135 1
246 136 1
246 137 1
246 139 1
246 142 1
246 144 1
246 145 1
246 148 1
246 149 1
246 154 1
246 159 1
246 160 1
246 161 1
246 165 1
246 169 1
246 170 1
246 172 1
246 173 1
246 175 1
246 176 1
246 178 1
246 184 1
246 185 1
246 186 1
246 187 1
246 188 1
246 195 1
246 199 1
246 202 1
246 204 1
246 205 1
246 206 1
246 210 1
246 211 1
246 212 1
246 220 1
246 225 1
246 228 1
246 229 1
246 233 1
246 235 1
246 236 1
246 237 1
246 238 1
246 239 1
246 241 1
246 243 1
246 247 1
246 249 1
246 251 1
246 253 1
246 265 1
246 271 1
246 272 1
246 273 1
246 274 1
246 275 1
246 278 1
246 279 1
246 280 1
246 283 1
246 285 1
246 287 1
246 290 1
246 292 1
246 293 1
246 301 1
246 302 1
246 311 1
246 312 1
246 313 1
246 317 1
246 326 1
246 327 1
246 328 1
246 331 1
246 333 1
246 334 1
246 335 1
246 339 1
246 340 1
246 341 1
246 343 1
246 347 1
246 357 1
246 359 1
246 361 1
246 362 1
246 363 1
246 364 1
246 366 1
246 367 1
246 368 1
246 369 1
246 371 1
246 372 1
246 373 1
246 374 1
246 376 1
246 380 1
246 383 1
246 384 1
246 385 1
246 390 1
246 392 1
246 393 1
246 398 1
247 1 1
247 7 1
247 8 1
247 9 1
247 10 1
247 11 1
247 12 1
247 13 1
247 15 1
247 19 1
247 24 1
247 25 1
247 26 1
247 32 1
247 33 1
247 34 1
247 37 1
247 39 1
247 45 1
247 46 1
247 48 1
247 53 1
247 55 1
247 56 1
247 57 1
247 58 1
247 61 1
247 63 1
247 64 1
247 65 1
247 67 1
247 72 1
247 74 1
247 76 1
247 77 1
247 83 1
247 89 1
247 92 1
247 94 1
247 99 1
247 100 1
247 107 1
247 110 1
247 114 1
247 117 1
247 118 1
247 119 1
247 128 1
247 129 1
247 130 1
247 133 1
247 135 1
247 137 1
247 138 1
247 140 1
247 143 1
247 144 1
247 145 1
247 152 1
247 159 1
247 160 1
247 161 1
247 162 1
247 166 1
247 169 1
247 171 1
247 172 1
247 176 1
247 177 1
247 179 1
247 181 1
247 183 1
247 187 1
247 188 1
247 189 1
247 191 1
247 193 1
247 199 1
247 201 1
247 203 1
247 204 1
247 209 1
247 210 1
247 212 1
247 213 1
247 214 1
247 216 1
247 218 1
247 220 1
247 221 1
247 223 1
247 224 1
247 225 1
247 227 1
247 229 1
247 234 1
247 235 1
247 236 1
247 238 1
247 239 1
247 241 1
247 242 1
247 244 1
247 246 1
247 251 1
247 252 1
247 256 1
247 259 1
247 260 1
247 261 1
247 262 1
247 266 1
247 269 1
247 270 1
247 271 1
247 272 1
247 273 1
247 280 1
247 283 1
247 286 1
247 287 1
247 288 1
247 290 1
247 291 1
247 293 1
247 294 1
247 295 1
247 296 1
247 297 1
247 299 1
247 304 1
247 309 1
247 311 1
247 316 1
247 319 1
247 320 1
247 324 1
247 329 1
247 331 1
247 332 1
247 333 1
247 336 1
247 337 1
247 342 1
247 345 1
247 346 1
247 348 1
247 349 1
247 353 1
247 356 1
247 357 1
247 358 1
247 361 1
247 362 1
247 364 1
247 366 1
247 368 1
247 370 1
247 378 1
247 382 1
247 390 1
247 397 1
247 398 1
248 5 1
248 7 1
248 9 1
248 10 1
248 11 1
248 13 1
248 16 1
248 26 1
248 27 1
248 30 1
248 31 1
248 33 1
248 34 1
248 35 1
248 37 1
248 38 1
248 40 1
248 43 1
248 48 1
248 50 1
248 51 1
248 54 1
248 56 1
248 58 1
248 61 1
248 62 1
248 65 1
248 69 1
248 73 1
248 75 1
248 77 1
248 78 1
248 80 1
248 84 1
248 90 1
248 91 1
248 92 1
248 94 1
248 95 1
248 98 1
248 101 1
248 105 1
248 109 1
248 111 1
248 112 1
248 113 1
248 114 1
248 115 1
248 126 1
248 127 1
248 129 1
248 131 1
248 139 1
248 143 1
248 146 1
248 149 1
248 150 1
248 157 1
248 158 1
248 160 1
248 162 1
248 167 1
248 169 1
248 172 1
248 173 1
248 175 1
248 176 1
248 177 1
248 186 1
248 187 1
248 188 1
248 190 1
248 191 1
248 193 1
248 194 1
248 195 1
248 197 1
248 199 1
248 203 1
248 204 1
248 208 1
248 213 1
248 214 1
248 220 1
248 223 1
248 224 1
248 225 1
248 229 1
248 236 1
248 238 1
248 242 1
248 244 1
248 249 1
248 250 1
248 253 1
248 255 1
248 256 1
248 257 1
248 263 1
248 268 1
248 271 1
248 273 1
248 274 1
248 280 1
248 282 1
248 283 1
248 284 1
248 286 1
248 290 1
248 291 1
248 294 1
248 295 1
248 296 1
248 303 1
248 305 1
248 308 1
248 313 1
248 314 1
248 317 1
248 319 1
248 320 1
248 321 1
248 325 1
248 329 1
248 330 1
248 332 1
248 334 1
248 336 1
248 339 1
248 340 1
248 342 1
248 343 1
248 344 1
248 345 1
248 347 1
248 349 1
248 350 1
248 351 1
248 352 1
248 353 1
248 355 1
248 356 1
248 357 1
248 360 1
248 361 1
248 362 1
248 364 1
248 366 1
248 377 1
248 379 1
248 380 1
248 382 1
248 384 1
248 386 1
248 389 1
248 390 1
248 397 1
249 2 1
249 4 1
249 7 1
249 8 1
249 12 1
249 17 1
249 21 1
249 22 1
249 23 1
249 24 1
249 26 1
249 28 1
249 35 1
249 37 1
249 43 1
249 44 1
249 50 1
249 51 1
249 52 1
249 55 1
249 56 1
249 57 1
249 58 1
249 61 1
249 62 1
249 63 1
249 64 1
249 69 1
249 70 1
249 73 1
249 76 1
249 79 1
249 83 1
249 86 1
249 88 1
249 89 1
249 92 1
249 95 1
249 98 1
249 104 1
249 105 1
249 106 1
249 114 1
249 120 1
249 121 1
249 122 1
249 124 1
249 125 1
249 127 1
249 129 1
249 138 1
249 146 1
249 147 1
249 148 1
249 154 1
249 158 1
249 159 1
249 160 1
249 162 1
249 164 1
249 168 1
249 171 1
249 172 1
249 173 1
249 174 1
249 178 1
249 183 1
249 188 1
249 189 1
249 190 1
249 191 1
249 194 1
249 195 1
249 198 1
249 200 1
249 202 1
249 206 1
249 209 1
249 210 1
249 214 1
249 216 1
249 221 1
249 224 1
249 228 1
249 231 1
249 232 1
249 236 1
249 239 1
249 241 1
249 243 1
249 246 1
249 248 1
249 251 1
249 252 1
249 254 1
249 259 1
249 263 1
249 265 1
249 266 1
249 275 1
249 278 1
249 279 1
249 281 1
249 282 1
249 283 1
249 285 1
249 291 1
249 292 1
249 294 1
249 296 1
249 302 1
249 304 1
249 305 1
249 306 1
249 307 1
249 309 1
249 313 1
249 317 1
249 318 1
249 322 1
249 323 1
249 328 1
249 332 1
249 333 1
249 334 1
249 335 1
249 339 1
249 343 1
249 346 1
249 347 1
249 349 1
249 352 1
249 355 1
249 357 1
249 360 1
249 368 1
249 370 1
249 373 1
249 374 1
249 383 1
249 385 1
249 386 1
249 387 1
249 392 1
249 395 1
249 396 1
249 398 1
250 2 1
250 3 1
250 4 1
250 5 1
250 8 1
250 10 1
250 12 1
250 17 1
250 25 1
250 26 1
250 29 1
250 33 1
250 35 1
250 38 1
250 39 1
250 41 1
250 42 1
250 44 1
250 47 1
250 48 1
250 49 1
250 51 1
250 52 1
250 54 1
250 56 1
250 59 1
250 62 1
250 63 1
250 66 1
250 67 1
250 68 1
250 69 1
250 70 1
250 75 1
250 76 1
250 78 1
250 82 1
250 83 1
250 85 1
250 87 1
250 92 1
250 93 1
250 98 1
250 102 1
250 103 1
250 105 1
250 107 1
250 110 1
250 112 1
250 113 1
250 115 1
250 118 1
250 120 1
250 121 1
250 123 1
250 126 1
250 128 1
250 129 1
250 131 1
250 137 1
250 139 1
250 146 1
250 148 1
250 150 1
250 151 1
250 153 1
250 154 1
250 157 1
250 158 1
250 161 1
250 163 1
250 168 1
250 175 1
250 182 1
250 183 1
250 184 1
250 189 1
250 191 1
250 192 1
250 194 1
250 195 1
250 196 1
250 197 1
250 207 1
250 210 1
250 214 1
250 220 1
250 222 1
250 227 1
250 231 1
250 232 1
250 234 1
250 238 1
250 244 1
250 245 1
250 248 1
250 261 1
250 262 1
250 263 1
250 269 1
250 270 1
250 271 1
250 274 1
250 276 1
250 277 1
250 282 1
250 286 1
250 288 1
250 290 1
250 291 1
250 294 1
250 295 1
250 296 1
250 297 1
250 304 1
250 306 1
250 308 1
250 309 1
250 312 1
250 316 1
250 320 1
250 321 1
250 323 1
250 324 1
250 327 1
250 332 1
250 333 1
250 334 1
250 336 1
250 340 1
250 341 1
250 345 1
250 350 1
250 352 1
250 355 1
250 356 1
250 357 1
250 358 1
250 360 1
250 361 1
250 365 1
250 368 1
250 370 1
250 373 1
250 374 1
250 380 1
250 381 1
250 385 1
250 386 1
250 387 1
250 390 1
250 391 1
250 393 1
250 394 1
250 395 1
251 1 1
251 2 1
251 4 1
251 5 1
251 6 1
251 11 1
251 13 1
251 14 1
251 22 1
251 23 1
251 31 1
251 35 1
251 37 1
251 39 1
251 40 1
251 43 1
251 44 1
251 45 1
251 47 1
251 50 1
251 56 1
251 57 1
251 58 1
251 64 1
251 65 1
251 66 1
251 68 1
251 69 1
251 71 1
251 76 1
251 78 1
251 82 1
251 83 1
251 84 1
251 87 1
251 88 1
251 89 1
251 97 1
251 101 1
251 105 1
251 106 1
251 110 1
251 112 1
251 114 1
251 116 1
251 121 1
251 126 1
251 128 1
251 129 1
251 134 1
251 136 1
251 138 1
251 141 1
251 143 1
251 145 1
251 147 1
251 151 1
251 152 1
251 156 1
251 158 1
251 163 1
251 165 1
251 167 1
251 168 1
251 171 1
251 173 1
251 174 1
251 177 1
251 180 1
251 181 1
251 182 1
251 184 1
251 186 1
251 190 1
251 195 1
251 199 1
251 204 1
251 205 1
251 208 1
251 221 1
251 223 1
251 224 1
251 228 1
251 231 1
251 234 1
251 236 1
251 237 1
251 238 1
251 239 1
251 240 1
251 246 1
251 247 1
251 249 1
251 253 1
251 254 1
251 255 1
251 256 1
251 260 1
251 264 1
251 265 1
251 275 1
251 277 1
251 278 1
251 279 1
251 281 1
251 282 1
251 283 1
251 285 1
251 287 1
251 288 1
251 290 1
251 296 1
251 297 1
251 299 1
251 300 1
251 307 1
251 308 1
251 309 1
251 315 1
251 316 1
251 317 1
251 319 1
251 320 1
251 322 1
251 323 1
251 325 1
251 329 1
251 330 1
251 333 1
251 335 1
251 343 1
251 347 1
251 350 1
251 359 1
251 363 1
251 364 1
251 365 1
251 368 1
251 372 1
251 376 1
251 378 1
251 380 1
251 381 1
251 384 1
251 386 1
251 387 1
251 388 1
251 393 1
251 397 1
251 398 1
251 399 1
252 1 1
252 4 1
252 5 1
252 6 1
252 7 1
252 9 1
252 12 1
252 13 1
252 16 1
252 18 1
252 21 1
252 24 1
252 25 1
252 28 1
252 30 1
252 33 1
252 34 1
252 35 1
252 37 1
252 47 1
252 54 1
252 55 1
252 57 1
252 58 1
252 62 1
252 63 1
252 67 1
252 73 1
252 75 1
252 78 1
252 79 1
252 81 1
252 84 1
252 88 1
252 90 1
252 97 1
252 98 1
252 99 1
252 103 1
252 106 1
252 110 1
252 112 1
252 114 1
252 117 1
252 118 1
252 119 1
252 122 1
252 124 1
252 127 1
252 128 1
252 130 1
252 131 1
252 132 1
252 133 1
252 135 1
252 136 1
252 139 1
252 142 1
252 147 1
252 152 1
252 153 1
252 157 1
252 159 1
252 161 1
252 163 1
252 165 1
252 169 1
252 171 1
252 173 1
252 175 1
252 176 1
252 179 1
252 180 1
252 186 1
252 198 1
252 200 1
252 202 1
252 203 1
252 208 1
252 210 1
252 211 1
252 214 1
252 215 1
252 216 1
252 218 1
252 219 1
252 220 1
252 225 1
252 226 1
252 228 1
252 230 1
252 234 1
252 235 1
252 237 1
252 238 1
252 242 1
252 243 1
252 244 1
252 245 1
252 247 1
252 249 1
252 257 1
252 259 1
252 260 1
252 265 1
252 267 1
252 271 1
252 272 1
252 278 1
252 280 1
252 281 1
252 282 1
252 285 1
252 287 1
252 292 1
252 293 1
252 294 1
252 306 1
252 308 1
252 309 1
252 312 1
252 313 1
252 315 1
252 317 1
252 318 1
252 319 1
252 321 1
252 322 1
252 324 1
252 330 1
252 333 1
252 336 1
252 337 1
252 339 1
252 340 1
252 343 1
252 345 1
252 346 1
252 347 1
252 348 1
252 350 1
252 354 1
252 359 1
252 360 1
252 362 1
252 366 1
252 367 1
252 372 1
252 373 1
252 381 1
252 382 1
252 383 1
252 385 1
252 387 1
252 389 1
252 391 1
252 396 1
253 2 1
253 3 1
253 5 1
253 8 1
253 9 1
253 11 1
253 12 1
253 15 1
253 19 1
253 21 1
253 23 1
253 24 1
253 34 1
253 35 1
253 39 1
253 40 1
253 45 1
253 48 1
253 49 1
253 53 1
253 60 1
253 62 1
253 65 1
253 71 1
253 72 1
253 73 1
253 74 1
253 75 1
253 76 1
253 78 1
253 80 1
253 82 1
253 84 1
253 88 1
253 94 1
253 97 1
253 101 1
253 102 1
253 103 1
253 104 1
253 105 1
253 106 1
253 108 1
253 109 1
253 110 1
253 111 1
253 113 1
253 114 1
253 116 1
253 118 1
253 120 1
253 121 1
253 122 1
253 128 1
253 129 1
253 130 1
253 133 1
253 135 1
253 137 1
253 140 1
253 152 1
253 154 1
253 156 1
253 159 1
253 164 1
253 168 1
253 171 1
253 172 1
253 175 1
253 179 1
253 181 1
253 183 1
253 184 1
253 186 1
253 191 1
253 194 1
253 195 1
253 198 1
253 202 1
253 206 1
253 208 1
253 209 1
253 216 1
253 219 1
253 222 1
253 224 1
253 228 1
253 230 1
253 231 1
253 233 1
253 234 1
253 235 1
253 236 1
253 239 1
253 244 1
253 245 1
253 246 1
253 248 1
253 251 1
253 254 1
253 256 1
253 258 1
253 263 1
253 268 1
253 269 1
253 270 1
253 272 1
253 275 1
253 276 1
253 277 1
253 281 1
253 285 1
253 286 1
253 287 1
253 288 1
253 290 1
253 295 1
253 296 1
253 301 1
253 302 1
253 306 1
253 307 1
253 308 1
253 312 1
253 317 1
253 319 1
253 321 1
253 323 1
253 325 1
253 326 1
253 329 1
253 332 1
253 334 1
253 338 1
253 340 1
253 342 1
253 351 1
253 352 1
253 361 1
253 364 1
253 367 1
253 368 1
253 373 1
253 374 1
253 380 1
253 382 1
253 391 1
253 397 1
253 399 1
254 1 1
254 10 1
254 11 1
254 13 1
254 17 1
254 18 1
254 20 1
254 25 1
254 27 1
254 30 1
254 31 1
254 32 1
254 33 1
254 39 1
254 47 1
254 51 1
254 52 1
254 53 1
254 54 1
254 58 1
254 59 1
254 63 1
254 65 1
254 67 1
254 69 1
254 70 1
254 83 1
254 84 1
254 86 1
254 88 1
254 91 1
254 94 1
254 95 1
254 100 1
254 101 1
254 102 1
254 103 1
254 104 1
254 105 1
254 106 1
254 112 1
254 117 1
254 119 1
254 122 1
254 129 1
254 132 1
254 133 1
254 135 1
254 138 1
254 140 1
254 143 1
254 146 1
254 147 1
254 152 1
254 153 1
254 156 1
254 157 1
254 164 1
254 168 1
254 170 1
254 174 1
254 175 1
254 179 1
254 183 1
254 187 1
254 190 1
254 191 1
254 195 1
254 196 1
254 198 1
254 202 1
254 204 1
254 205 1
254 209 1
254 210 1
254 214 1
254 216 1
254 219 1
254 220 1
254 221 1
254 226 1
254 227 1
254 229 1
254 231 1
254 232 1
254 237 1
254 240 1
254 242 1
254 249 1
254 251 1
254 253 1
254 259 1
254 260 1
254 265 1
254 270 1
254 273 1
254 275 1
254 276 1
254 277 1
254 280 1
254 285 1
254 286 1
254 291 1
254 293 1
254 295 1
254 305 1
254 306 1
254 308 1
254 312 1
254 316 1
254 317 1
254 318 1
254 321 1
254 322 1
254 323 1
254 325 1
254 327 1
254 328 1
254 329 1
254 334 1
254 346 1
254 347 1
254 348 1
254 349 1
254 350 1
254 355 1
254 362 1
254 365 1
254 366 1
254 370 1
254 371 1
254 373 1
254 377 1
254 378 1
254 386 1
254 387 1
254 391 1
254 392 1
254 394 1
254 397 1
254 399 1
255 3 1
255 6 1
255 7 1
255 8 1
255 9 1
255 11 1
255 12 1
255 14 1
255 16 1
255 22 1
255 25 1
255 26 1
255 30 1
255 32 1
255 33 1
255 34 1
255 37 1
255 39 1
255 40 1
255 41 1
255 42 1
255 44 1
255 45 1
255 47 1
255 48 1
255 54 1
255 56 1
255 61 1
255 62 1
255 63 1
255 64 1
255 67 1
255 70 1
255 73 1
255 75 1
255 85 1
255 86 1
255 88 1
255 90 1
255 92 1
255 93 1
255 94 1
255 95 1
255 97 1
255 99 1
255 101 1
255 102 1
255 105 1
255 106 1
255 107 1
255 108 1
255 109 1
255 110 1
255 111 1
255 112 1
255 114 1
255 116 1
255 117 1
255 120 1
255 121 1
255 122 1
255 123 1
255 124 1
255 128 1
255 129 1
255 130 1
255 131 1
255 134 1
255 137 1
255 139 1
255 143 1
255 145 1
255 146 1
255 147 1
255 150 1
255 151 1
255 154 1
255 155 1
255 157 1
255 159 1
255 161 1
255 163 1
255 164 1
255 167 1
255 168 1
255 169 1
255 171 1
255 172 1
255 181 1
255 183 1
255 184 1
255 191 1
255 194 1
255 195 1
255 196 1
255 202 1
255 203 1
255 204 1
255 207 1
255 209 1
255 210 1
255 211 1
255 212 1
255 214 1
255 219 1
255 222 1
255 227 1
255 228 1
255 230 1
255 231 1
255 232 1
255 234 1
255 237 1
255 239 1
255 241 1
255 242 1
255 243 1
255 248 1
255 251 1
255 257 1
255 258 1
255 259 1
255 262 1
255 263 1
255 266 1
255 269 1
255 270 1
255 272 1
255 275 1
255 276 1
255 279 1
255 283 1
255 284 1
255 285 1
255 286 1
255 292 1
255 297 1
255 298 1
255 300 1
255 301 1
255 306 1
255 307 1
255 308 1
255 309 1
255 310 1
255 311 1
255 313 1
255 315 1
255 316 1
255 317 1
255 324 1
255 325 1
255 326 1
255 327 1
255 335 1
255 337 1
255 339 1
255 340 1
255 343 1
255 344 1
255 345 1
255 348 1
255 349 1
255 351 1
255 357 1
255 359 1
255 360 1
255 361 1
255 363 1
255 364 1
255 365 1
255 366 1
255 372 1
255 373 1
255 374 1
255 375 1
255 376 1
255 379 1
255 380 1
255 383 1
255 384 1
255 387 1
255 389 1
255 392 1
255 394 1
255 395 1
255 397 1
255 398 1
256 3 1
256 5 1
256 8 1
256 9 1
256 10 1
256 12 1
256 17 1
256 20 1
256 25 1
256 26 1
256 31 1
256 34 1
256 36 1
256 43 1
256 44 1
256 46 1
256 52 1
256 54 1
256 55 1
256 56 1
256 58 1
256 59 1
256 62 1
256 63 1
256 65 1
256 69 1
256 71 1
256 73 1
256 76 1
256 78 1
256 82 1
256 84 1
256 85 1
256 86 1
256 87 1
256 88 1
256 89 1
256 91 1
256 93 1
256 103 1
256 106 1
256 110 1
256 114 1
256 116 1
256 121 1
256 123 1
256 125 1
256 127 1
256 128 1
256 129 1
256 131 1
256 133 1
256 134 1
256 138 1
256 141 1
256 143 1
256 146 1
256 147 1
256 148 1
256 153 1
256 154 1
256 156 1
256 161 1
256 166 1
256 167 1
256 172 1
256 173 1
256 174 1
256 178 1
256 180 1
256 186 1
256 188 1
256 189 1
256 191 1
256 194 1
256 196 1
256 197 1
256 199 1
256 200 1
256 202 1
256 204 1
256 205 1
256 206 1
256 207 1
256 208 1
256 210 1
256 215 1
256 216 1
256 217 1
256 218 1
256 219 1
256 221 1
256 222 1
256 228 1
256 229 1
256 230 1
256 232 1
256 234 1
256 244 1
256 245 1
256 247 1
256 248 1
256 251 1
256 253 1
256 259 1
256 261 1
256 262 1
256 265 1
256 266 1
256 269 1
256 270 1
256 273 1
256 274 1
256 278 1
256 279 1
256 281 1
256 283 1
256 285 1
256 287 1
256 288 1
256 289 1
256 292 1
256 294 1
256 295 1
256 297 1
256 305 1
256 307 1
256 308 1
256 310 1
256 311 1
256 319 1
256 320 1
256 323 1
256 326 1
256 327 1
256 330 1
256 331 1
256 333 1
256 334 1
256 337 1
256 338 1
256 340 1
256 345 1
256 348 1
256 349 1
256 355 1
256 357 1
256 359 1
256 360 1
256 361 1
256 362 1
256 365 1
256 366 1
256 367 1
256 369 1
256 370 1
256 373 1
256 374 1
256 375 1
256 377 1
256 378 1
256 383 1
256 386 1
256 390 1
256 392 1
256 395 1
256 396 1
256 400 1
257 2 1
257 5 1
257 11 1
257 17 1
257 19 1
257 22 1
257 25 1
257 31 1
257 34 1
257 37 1
257 38 1
257 41 1
257 44 1
257 48 1
257 51 1
257 52 1
257 53 1
257 56 1
257 58 1
257 60 1
257 61 1
257 62 1
257 71 1
257 72 1
257 74 1
257 77 1
257 78 1
257 80 1
257 82 1
257 83 1
257 88 1
257 93 1
257 98 1
257 100 1
257 101 1
257 103 1
257 104 1
257 105 1
257 106 1
257 107 1
257 109 1
257 111 1
257 113 1
257 115 1
257 116 1
257 118 1
257 119 1
257 121 1
257 122 1
257 124 1
257 128 1
257 130 1
257 131 1
257 133 1
257 135 1
257 136 1
257 138 1
257 140 1
257 144 1
257 149 1
257 150 1
257 151 1
257 153 1
257 155 1
257 157 1
257 159 1
257 160 1
257 166 1
257 170 1
257 171 1
257 172 1
257 174 1
257 175 1
257 178 1
257 182 1
257 187 1
257 197 1
257 199 1
257 200 1
257 201 1
257 204 1
257 205 1
257 206 1
257 212 1
257 214 1
257 219 1
257 223 1
257 224 1
257 226 1
257 229 1
257 233 1
257 235 1
257 236 1
257 238 1
257 243 1
257 244 1
257 245 1
257 248 1
257 252 1
257 255 1
257 258 1
257 259 1
257 262 1
257 263 1
257 264 1
257 272 1
257 277 1
257 278 1
257 279 1
257 280 1
257 283 1
257 284 1
257 286 1
257 287 1
257 288 1
257 297 1
257 298 1
257 301 1
257 302 1
257 304 1
257 306 1
257 308 1
257 309 1
257 312 1
257 315 1
257 316 1
257 317 1
257 319 1
257 321 1
257 322 1
257 324 1
257 325 1
257 331 1
257 332 1
257 338 1
257 340 1
257 343 1
257 344 1
257 345 1
257 347 1
257 348 1
257 353 1
257 355 1
257 357 1
257 359 1
257 364 1
257 369 1
257 372 1
257 373 1
257 374 1
257 375 1
257 378 1
257 379 1
257 381 1
257 382 1
257 384 1
257 385 1
257 386 1
257 388 1
257 393 1
257 395 1
257 396 1
257 400 1
258 3 1
258 4 1
258 6 1
258 9 1
258 10 1
258 11 1
258 12 1
258 18 1
258 19 1
258 20 1
258 22 1
258 23 1
258 24 1
258 26 1
258 29 1
258 33 1
258 37 1
258 40 1
258 41 1
258 43 1
258 48 1
258 49 1
258 51 1
258 52 1
258 53 1
258 54 1
258 55 1
258 61 1
258 64 1
258 65 1
258 66 1
258 70 1
258 71 1
258 75 1
258 76 1
258 78 1
258 81 1
258 82 1
258 83 1
258 88 1
258 89 1
258 94 1
258 95 1
258 96 1
258 98 1
258 102 1
258 103 1
258 108 1
258 111 1
258 114 1
258 118 1
258 119 1
258 120 1
258 125 1
258 134 1
258 135 1
258 137 1
258 139 1
258 140 1
258 143 1
258 149 1
258 150 1
258 151 1
258 162 1
258 168 1
258 169 1
258 170 1
258 171 1
258 173 1
258 175 1
258 178 1
258 179 1
258 180 1
258 181 1
258 183 1
258 189 1
258 191 1
258 192 1
258 194 1
258 195 1
258 197 1
258 198 1
258 201 1
258 202 1
258 203 1
258 204 1
258 206 1
258 207 1
258 209 1
258 210 1
258 214 1
258 216 1
258 220 1
258 223 1
258 225 1
258 227 1
258 231 1
258 238 1
258 243 1
258 244 1
258 245 1
258 253 1
258 255 1
258 257 1
258 260 1
258 261 1
258 265 1
258 268 1
258 270 1
258 272 1
258 274 1
258 276 1
258 277 1
258 280 1
258 282 1
258 284 1
258 286 1
258 287 1
258 289 1
258 291 1
258 293 1
258 295 1
258 296 1
258 297 1
258 298 1
258 301 1
258 303 1
258 305 1
258 308 1
258 310 1
258 316 1
258 317 1
258 318 1
258 322 1
258 324 1
258 326 1
258 327 1
258 328 1
258 329 1
258 330 1
258 333 1
258 335 1
258 337 1
258 340 1
258 343 1
258 347 1
258 352 1
258 355 1
258 359 1
258 363 1
258 364 1
258 370 1
258 377 1
258 378 1
258 379 1
258 382 1
258 385 1
258 386 1
258 388 1
258 392 1
258 395 1
258 398 1
259 2 1
259 3 1
259 4 1
259 7 1
259 8 1
259 10 1
259 11 1
259 14 1
259 17 1
259 20 1
259 21 1
259 25 1
259 27 1
259 30 1
259 35 1
259 39 1
259 40 1
259 42 1
259 43 1
259 45 1
259 46 1
259 47 1
259 48 1
259 50 1
259 51 1
259 58 1
259 59 1
259 63 1
259 68 1
259 69 1
259 70 1
259 71 1
259 74 1
259 76 1
259 78 1
259 81 1
259 83 1
259 85 1
259 95 1
259 106 1
259 109 1
259 115 1
259 118 1
259 119 1
259 125 1
259 127 1
259 128 1
259 130 1
259 132 1
259 137 1
259 142 1
259 143 1
259 146 1
259 149 1
259 151 1
259 152 1
259 157 1
259 159 1
259 161 1
259 163 1
259 165 1
259 166 1
259 167 1
259 169 1
259 174 1
259 175 1
259 178 1
259 179 1
259 180 1
259 181 1
259 184 1
259 185 1
259 186 1
259 190 1
259 192 1
259 198 1
259 202 1
259 206 1
259 207 1
259 211 1
259 213 1
259 219 1
259 220 1
259 221 1
259 222 1
259 225 1
259 228 1
259 230 1
259 232 1
259 233 1
259 234 1
259 237 1
259 238 1
259 240 1
259 247 1
259 249 1
259 252 1
259 254 1
259 255 1
259 256 1
259 257 1
259 260 1
259 261 1
259 263 1
259 269 1
259 272 1
259 273 1
259 275 1
259 276 1
259 279 1
259 283 1
259 284 1
259 285 1
259 287 1
259 288 1
259 289 1
259 293 1
259 296 1
259 300 1
259 302 1
259 304 1
259 306 1
259 307 1
259 308 1
259 311 1
259 312 1
259 313 1
259 317 1
259 318 1
259 321 1
259 322 1
259 326 1
259 328 1
259 329 1
259 331 1
259 332 1
259 337 1
259 338 1
259 341 1
259 343 1
259 346 1
259 348 1
259 350 1
259 353 1
259 356 1
259 360 1
259 361 1
259 365 1
259 366 1
259 369 1
259 370 1
259 372 1
259 374 1
259 376 1
259 381 1
259 382 1
259 387 1
259 391 1
259 395 1
259 399 1
260 3 1
260 5 1
260 7 1
260 11 1
260 12 1
260 13 1
260 14 1
260 22 1
260 23 1
260 26 1
260 30 1
260 31 1
260 33 1
260 34 1
260 35 1
260 38 1
260 39 1
260 40 1
260 47 1
260 49 1
260 50 1
260 53 1
260 61 1
260 64 1
260 67 1
260 69 1
260 71 1
260 73 1
260 74 1
260 76 1
260 77 1
260 79 1
260 80 1
260 82 1
260 83 1
260 86 1
260 94 1
260 95 1
260 98 1
260 101 1
260 107 1
260 112 1
260 113 1
260 115 1
260 117 1
260 118 1
260 126 1
260 129 1
260 131 1
260 133 1
260 137 1
260 139 1
260 143 1
260 145 1
260 150 1
260 151 1
260 153 1
260 155 1
260 156 1
260 157 1
260 158 1
260 161 1
260 163 1
260 164 1
260 165 1
260 166 1
260 171 1
260 174 1
260 183 1
260 184 1
260 186 1
260 187 1
260 191 1
260 193 1
260 200 1
260 202 1
260 203 1
260 204 1
260 206 1
260 208 1
260 214 1
260 216 1
260 218 1
260 221 1
260 224 1
260 225 1
260 226 1
260 228 1
260 230 1
260 231 1
260 232 1
260 236 1
260 238 1
260 239 1
260 244 1
260 247 1
260 251 1
260 252 1
260 254 1
260 258 1
260 259 1
260 261 1
260 262 1
260 263 1
260 265 1
260 267 1
260 268 1
260 270 1
260 271 1
260 273 1
260 274 1
260 277 1
260 281 1
260 282 1
260 284 1
260 285 1
260 286 1
260 289 1
260 290 1
260 294 1
260 295 1
260 296 1
260 297 1
260 300 1
260 301 1
260 307 1
260 308 1
260 309 1
260 314 1
260 323 1
260 326 1
260 327 1
260 331 1
260 334 1
260 337 1
260 339 1
260 340 1
260 345 1
260 346 1
260 348 1
260 351 1
260 352 1
260 354 1
260 355 1
260 357 1
260 360 1
260 363 1
260 366 1
260 367 1
260 370 1
260 372 1
260 373 1
260 379 1
260 380 1
260 382 1
260 389 1
260 390 1
260 392 1
260 395 1
260 399 1
260 400 1
261 2 1
261 3 1
261 9 1
261 13 1
261 14 1
261 15 1
261 21 1
261 22 1
261 23 1
261 24 1
261 25 1
261 32 1
261 43 1
261 44 1
261 45 1
261 46 1
261 50 1
261 53 1
261 55 1
261 57 1
261 60 1
261 66 1
261 67 1
261 71 1
261 73 1
261 75 1
261 77 1
261 78 1
261 84 1
261 85 1
261 89 1
261 90 1
261 92 1
261 95 1
261 96 1
261 97 1
261 101 1
261 102 1
261 106 1
261 107 1
261 111 1
261 117 1
261 120 1
261 123 1
261 125 1
261 129 1
261 130 1
261 131 1
261 135 1
261 137 1
261 139 1
261 142 1
261 143 1
261 144 1
261 147 1
261 149 1
261 155 1
261 157 1
261 159 1
261 160 1
261 161 1
261 162 1
261 166 1
261 168 1
261 171 1
261 175 1
261 180 1
261 185 1
261 186 1
261 187 1
261 189 1
261 191 1
261 194 1
261 197 1
261 200 1
261 206 1
261 207 1
261 212 1
261 217 1
261 221 1
261 222 1
261 223 1
261 227 1
261 236 1
261 238 1
261 239 1
261 243 1
261 247 1
261 250 1
261 256 1
261 258 1
261 259 1
261 260 1
261 262 1
261 264 1
261 268 1
261 269 1
261 275 1
261 279 1
261 285 1
261 286 1
261 288 1
261 289 1
261 292 1
261 293 1
261 294 1
261 297 1
261 299 1
261 302 1
261 304 1
261 306 1
261 307 1
261 310 1
261 315 1
261 317 1
261 321 1
261 322 1
261 323 1
261 324 1
261 326 1
261 330 1
261 331 1
261 334 1
261 336 1
261 339 1
261 340 1
261 341 1
261 343 1
261 345 1
261 346 1
261 348 1
261 351 1
261 356 1
261 357 1
261 358 1
261 359 1
261 360 1
261 363 1
261 364 1
261 366 1
261 369 1
261 370 1
261 371 1
261 373 1
261 374 1
261 376 1
261 378 1
261 382 1
261 385 1
261 388 1
261 389 1
261 391 1
261 395 1
261 396 1
261 398 1
261 399 1
261 400 1
262 8 1
262 9 1
262 12 1
262 15 1
262 16 1
262 18 1
262 22 1
262 24 1
262 29 1
262 31 1
262 34 1
262 39 1
262 40 1
262 41 1
262 43 1
262 44 1
262 45 1
262 46 1
262 48 1
262 52 1
262 53 1
262 54 1
262 56 1
262 58 1
262 63 1
262 64 1
262 65 1
262 67 1
262 70 1
262 74 1
262 75 1
262 76 1
262 80 1
262 81 1
262 83 1
262 84 1
262 85 1
262 86 1
262 87 1
262 89 1
262 90 1
262 91 1
262 93 1
262 96 1
262 98 1
262 99 1
262 102 1
262 105 1
262 108 1
262 109 1
262 110 1
262 111 1
262 112 1
262 115 1
262 116 1
262 119 1
262 120 1
262 124 1
262 126 1
262 130 1
262 134 1
262 135 1
262 136 1
262 138 1
262 139 1
262 141 1
262 143 1
262 145 1
262 146 1
262 151 1
262 153 1
262 154 1
262 156 1
262 160 1
262 162 1
262 163 1
262 166 1
262 170 1
262 171 1
262 174 1
262 178 1
262 180 1
262 183 1
262 186 1
262 187 1
262 188 1
262 189 1
262 190 1
262 193 1
262 201 1
262 203 1
262 204 1
262 209 1
262 210 1
262 211 1
262 213 1
262 214 1
262 215 1
262 217 1
262 224 1
262 230 1
262 233 1
262 234 1
262 235 1
262 236 1
262 238 1
262 240 1
262 244 1
262 247 1
262 250 1
262 255 1
262 256 1
262 257 1
262 260 1
262 261 1
262 263 1
262 268 1
262 271 1
262 276 1
262 277 1
262 281 1
262 285 1
262 286 1
262 287 1
262 292 1
262 301 1
262 303 1
262 304 1
262 305 1
262 309 1
262 310 1
262 311 1
262 312 1
262 317 1
262 321 1
262 323 1
262 324 1
262 325 1
262 327 1
262 328 1
262 337 1
262 338 1
262 340 1
262 344 1
262 346 1
262 348 1
262 352 1
262 355 1
262 357 1
262 358 1
262 361 1
262 363 1
262 371 1
262 372 1
262 375 1
262 376 1
262 381 1
262 382 1
262 386 1
262 388 1
262 391 1
262 395 1
262 396 1
262 397 1
262 399 1
263 1 1
263 2 1
263 8 1
263 15 1
263 17 1
263 18 1
263 22 1
263 23 1
263 24 1
263 26 1
263 28 1
263 31 1
263 35 1
263 39 1
263 40 1
263 41 1
263 42 1
263 45 1
263 52 1
263 54 1
263 55 1
263 63 1
263 65 1
263 71 1
263 82 1
263 83 1
263 84 1
263 85 1
263 86 1
263 89 1
263 91 1
263 94 1
263 96 1
263 97 1
263 98 1
263 99 1
263 100 1
263 103 1
263 106 1
263 107 1
263 109 1
263 111 1
263 116 1
263 121 1
263 125 1
263 128 1
263 129 1
263 132 1
263 133 1
263 143 1
263 145 1
263 146 1
263 147 1
263 148 1
263 151 1
263 157 1
263 160 1
263 164 1
263 169 1
263 171 1
263 173 1
263 180 1
263 184 1
263 185 1
263 188 1
263 192 1
263 194 1
263 195 1
263 196 1
263 201 1
263 203 1
263 206 1
263 207 1
263 209 1
263 214 1
263 216 1
263 222 1
263 224 1
263 225 1
263 227 1
263 228 1
263 229 1
263 234 1
263 235 1
263 239 1
263 240 1
263 241 1
263 244 1
263 245 1
263 248 1
263 249 1
263 250 1
263 253 1
263 255 1
263 257 1
263 259 1
263 260 1
263 262 1
263 265 1
263 266 1
263 267 1
263 272 1
263 276 1
263 279 1
263 281 1
263 283 1
263 284 1
263 286 1
263 292 1
263 294 1
263 295 1
263 298 1
263 299 1
263 300 1
263 303 1
263 305 1
263 306 1
263 315 1
263 317 1
263 319 1
263 324 1
263 330 1
263 332 1
263 334 1
263 336 1
263 337 1
263 341 1
263 344 1
263 345 1
263 347 1
263 354 1
263 355 1
263 364 1
263 365 1
263 368 1
263 373 1
263 374 1
263 375 1
263 376 1
263 377 1
263 379 1
263 380 1
263 383 1
263 386 1
263 387 1
263 394 1
263 395 1
263 397 1
263 399 1
263 400 1
264 1 1
264 2 1
264 3 1
264 4 1
264 9 1
264 10 1
264 11 1
264 12 1
264 14 1
264 16 1
264 18 1
264 19 1
264 20 1
264 24 1
264 29 1
264 31 1
264 33 1
264 34 1
264 40 1
264 41 1
264 45 1
264 46 1
264 47 1
264 48 1
264 51 1
264 56 1
264 64 1
264 65 1
264 66 1
264 68 1
264 69 1
264 70 1
264 73 1
264 77 1
264 80 1
264 82 1
264 83 1
264 87 1
264 88 1
264 89 1
264 93 1
264 94 1
264 95 1
264 97 1
264 104 1
264 105 1
264 106 1
264 111 1
264 112 1
264 114 1
264 116 1
264 118 1
264 122 1
264 123 1
264 125 1
264 126 1
264 127 1
264 128 1
264 129 1
264 130 1
264 136 1
264 137 1
264 138 1
264 141 1
264 142 1
264 145 1
264 148 1
264 149 1
264 152 1
264 155 1
264 159 1
264 161 1
264 162 1
264 163 1
264 165 1
264 167 1
264 169 1
264 173 1
264 174 1
264 175 1
264 179 1
264 181 1
264 182 1
264 184 1
264 189 1
264 191 1
264 194 1
264 199 1
264 202 1
264 205 1
264 207 1
264 208 1
264 209 1
264 210 1
264 218 1
264 219 1
264 221 1
264 222 1
264 229 1
264 233 1
264 236 1
264 239 1
264 242 1
264 245 1
264 251 1
264 257 1
264 261 1
264 267 1
264 271 1
264 274 1
264 277 1
264 280 1
264 281 1
264 287 1
264 288 1
264 291 1
264 292 1
264 293 1
264 294 1
264 295 1
264 298 1
264 301 1
264 302 1
264 305 1
264 310 1
264 313 1
264 314 1
264 315 1
264 319 1
264 322 1
264 324 1
264 328 1
264 331 1
264 333 1
264 334 1
264 337 1
264 338 1
264 339 1
264 340 1
264 346 1
264 347 1
264 352 1
264 353 1
264 356 1
264 358 1
264 362 1
264 363 1
264 364 1
264 367 1
264 370 1
264 371 1
264 372 1
264 374 1
264 375 1
264 377 1
264 380 1
264 383 1
264 390 1
264 400 1
265 1 1
265 3 1
265 6 1
265 10 1
265 11 1
265 12 1
265 14 1
265 16 1
265 18 1
265 20 1
265 21 1
265 24 1
265 26 1
265 27 1
265 30 1
265 34 1
265 35 1
265 38 1
265 42 1
265 43 1
265 44 1
265 45 1
265 47 1
265 48 1
265 49 1
265 50 1
265 54 1
265 56 1
265 58 1
265 59 1
265 64 1
265 65 1
265 66 1
265 67 1
265 68 1
265 70 1
265 72 1
265 73 1
265 84 1
265 87 1
265 88 1
265 89 1
265 91 1
265 92 1
265 93 1
265 94 1
265 96 1
265 100 1
265 103 1
265 104 1
265 105 1
265 106 1
265 109 1
265 110 1
265 112 1
265 117 1
265 118 1
265 119 1
265 120 1
265 123 1
265 124 1
265 128 1
265 134 1
265 136 1
265 137 1
265 138 1
265 139 1
265 140 1
265 141 1
265 143 1
265 144 1
265 148 1
265 153 1
265 154 1
265 158 1
265 160 1
265 162 1
265 163 1
265 165 1
265 170 1
265 171 1
265 174 1
265 176 1
265 177 1
265 178 1
265 181 1
265 186 1
265 188 1
265 196 1
265 197 1
265 198 1
265 199 1
265 201 1
265 205 1
265 207 1
265 209 1
265 212 1
265 214 1
265 223 1
265 229 1
265 231 1
265 232 1
265 233 1
265 235 1
265 236 1
265 237 1
265 238 1
265 239 1
265 241 1
265 245 1
265 246 1
265 249 1
265 251 1
265 252 1
265 254 1
265 256 1
265 258 1
265 260 1
265 263 1
265 267 1
265 269 1
265 270 1
265 277 1
265 281 1
265 284 1
265 286 1
265 287 1
265 291 1
265 292 1
265 303 1
265 304 1
265 311 1
265 316 1
265 321 1
265 322 1
265 325 1
265 331 1
265 334 1
265 341 1
265 342 1
265 344 1
265 348 1
265 352 1
265 354 1
265 356 1
265 357 1
265 361 1
265 363 1
265 364 1
265 366 1
265 367 1
265 369 1
265 372 1
265 373 1
265 374 1
265 378 1
265 381 1
265 383 1
265 384 1
265 386 1
265 388 1
265 395 1
265 398 1
266 4 1
266 5 1
266 8 1
266 15 1
266 22 1
266 23 1
266 31 1
266 34 1
266 47 1
266 50 1
266 57 1
266 60 1
266 62 1
266 63 1
266 66 1
266 67 1
266 68 1
266 69 1
266 71 1
266 72 1
266 73 1
266 75 1
266 78 1
266 80 1
266 81 1
266 83 1
266 84 1
266 85 1
266 86 1
266 87 1
266 88 1
266 89 1
266 98 1
266 99 1
266 101 1
266 102 1
266 106 1
266 107 1
266 110 1
266 111 1
266 113 1
266 114 1
266 115 1
266 117 1
266 120 1
266 125 1
266 127 1
266 130 1
266 134 1
266 135 1
266 136 1
266 137 1
266 139 1
266 143 1
266 144 1
266 146 1
266 148 1
266 150 1
266 154 1
266 157 1
266 160 1
266 169 1
266 170 1
266 171 1
266 172 1
266 175 1
266 176 1
266 179 1
266 180 1
266 181 1
266 183 1
266 184 1
266 186 1
266 187 1
266 188 1
266 189 1
266 194 1
266 196 1
266 205 1
266 207 1
266 211 1
266 213 1
266 214 1
266 215 1
266 218 1
266 220 1
266 225 1
266 226 1
266 236 1
266 237 1
266 239 1
266 244 1
266 245 1
266 247 1
266 249 1
266 255 1
266 256 1
266 263 1
266 270 1
266 273 1
266 274 1
266 275 1
266 276 1
266 277 1
266 278 1
266 279 1
266 280 1
266 281 1
266 285 1
266 287 1
266 289 1
266 290 1
266 291 1
266 299 1
266 300 1
266 303 1
266 305 1
266 306 1
266 307 1
266 309 1
266 312 1
266 314 1
266 317 1
266 319 1
266 324 1
266 325 1
266 332 1
266 337 1
266 340 1
266 341 1
266 343 1
266 345 1
266 348 1
266 349 1
266 354 1
266 356 1
266 359 1
266 363 1
266 366 1
266 376 1
266 378 1
266 382 1
266 385 1
266 388 1
266 391 1
266 397 1
266 398 1
266 399 1
266 400 1
267 6 1
267 8 1
267 10 1
267 11 1
267 12 1
267 18 1
267 20 1
267 22 1
267 24 1
267 28 1
267 31 1
267 32 1
267 33 1
267 39 1
267 41 1
267 43 1
267 44 1
267 48 1
267 49 1
267 51 1
267 52 1
267 53 1
267 54 1
267 61 1
267 64 1
267 65 1
267 69 1
267 71 1
267 73 1
267 78 1
267 80 1
267 81 1
267 82 1
267 89 1
267 95 1
267 98 1
267 101 1
267 103 1
267 104 1
267 106 1
267 110 1
267 111 1
267 114 1
267 115 1
267 118 1
267 120 1
267 124 1
267 128 1
267 129 1
267 131 1
267 132 1
267 133 1
267 135 1
267 137 1
267 140 1
267 141 1
267 142 1
267 145 1
267 147 1
267 149 1
267 152 1
267 155 1
267 161 1
267 168 1
267 172 1
267 173 1
267 182 1
267 183 1
267 189 1
267 192 1
267 199 1
267 206 1
267 209 1
267 214 1
267 215 1
267 219 1
267 220 1
267 221 1
267 225 1
267 228 1
267 229 1
267 231 1
267 233 1
267 234 1
267 235 1
267 236 1
267 241 1
267 242 1
267 252 1
267 260 1
267 263 1
267 264 1
267 265 1
267 270 1
267 274 1
267 275 1
267 276 1
267 279 1
267 280 1
267 281 1
267 284 1
267 285 1
267 286 1
267 292 1
267 295 1
267 297 1
267 299 1
267 300 1
267 304 1
267 307 1
267 308 1
267 312 1
267 314 1
267 318 1
267 320 1
267 322 1
267 324 1
267 325 1
267 326 1
267 330 1
267 331 1
267 332 1
267 333 1
267 336 1
267 337 1
267 343 1
267 344 1
267 346 1
267 349 1
267 354 1
267 357 1
267 359 1
267 363 1
267 364 1
267 366 1
267 368 1
267 369 1
267 371 1
267 373 1
267 374 1
267 377 1
267 378 1
267 382 1
267 385 1
267 387 1
267 388 1
267 392 1
267 393 1
267 397 1
267 398 1
267 400 1
268 1 1
268 11 1
268 16 1
268 19 1
268 20 1
268 22 1
268 23 1
268 24 1
268 26 1
268 27 1
268 29 1
268 31 1
268 32 1
268 35 1
268 38 1
268 39 1
268 42 1
268 43 1
268 45 1
268 48 1
268 52 1
268 54 1
268 55 1
268 56 1
268 57 1
268 60 1
268 61 1
268 64 1
268 66 1
268 69 1
268 70 1
268 78 1
268 84 1
268 85 1
268 88 1
268 90 1
268 91 1
268 94 1
268 97 1
268 98 1
268 99 1
268 101 1
268 105 1
268 106 1
268 107 1
268 108 1
268 112 1
268 115 1
268 116 1
268 117 1
268 120 1
268 121 1
268 124 1
268 126 1
268 129 1
268 132 1
268 133 1
268 135 1
268 138 1
268 140 1
268 145 1
268 149 1
268 151 1
268 155 1
268 157 1
268 158 1
268 167 1
268 168 1
268 173 1
268 174 1
268 177 1
268 178 1
268 179 1
268 180 1
268 181 1
268 183 1
268 185 1
268 186 1
268 187 1
268 188 1
268 190 1
268 191 1
268 193 1
268 201 1
268 208 1
268 209 1
268 211 1
268 212 1
268 216 1
268 221 1
268 222 1
268 226 1
268 235 1
268 248 1
268 253 1
268 258 1
268 260 1
268 261 1
268 262 1
268 269 1
268 271 1
268 273 1
268 274 1
268 276 1
268 277 1
268 282 1
268 283 1
268 284 1
268 286 1
268 287 1
268 291 1
268 292 1
268 293 1
268 294 1
268 296 1
268 297 1
268 298 1
268 302 1
268 306 1
268 308 1
268 310 1
268 314 1
268 315 1
268 326 1
268 327 1
268 329 1
268 332 1
268 333 1
268 337 1
268 344 1
268 347 1
268 351 1
268 352 1
268 354 1
268 355 1
268 356 1
268 360 1
268 361 1
268 362 1
268 363 1
268 366 1
268 375 1
268 377 1
268 379 1
268 382 1
268 383 1
268 385 1
268 386 1
268 387 1
268 391 1
268 392 1
268 399 1
268 400 1
269 2 1
269 8 1
269 12 1
269 16 1
269 17 1
269 19 1
269 20 1
269 24 1
269 26 1
269 27 1
269 32 1
269 33 1
269 35 1
269 38 1
269 44 1
269 48 1
269 57 1
269 60 1
269 61 1
269 65 1
269 71 1
269 74 1
269 75 1
269 78 1
269 79 1
269 80 1
269 82 1
269 83 1
269 84 1
269 85 1
269 86 1
269 89 1
269 92 1
269 95 1
269 98 1
269 99 1
269 100 1
269 103 1
269 107 1
269 108 1
269 109 1
269 110 1
269 112 1
269 114 1
269 115 1
269 116 1
269 117 1
269 120 1
269 123 1
269 124 1
269 125 1
269 127 1
269 130 1
269 131 1
269 133 1
269 137 1
269 138 1
269 139 1
269 143 1
269 145 1
269 149 1
269 153 1
269 155 1
269 163 1
269 166 1
269 168 1
269 169 1
269 170 1
269 171 1
269 173 1
269 174 1
269 177 1
269 178 1
269 185 1
269 186 1
269 189 1
269 194 1
269 196 1
269 198 1
269 202 1
269 203 1
269 204 1
269 206 1
269 213 1
269 214 1
269 215 1
269 217 1
269 220 1
269 225 1
269 226 1
269 227 1
269 230 1
269 231 1
269 232 1
269 237 1
269 241 1
269 242 1
269 247 1
269 250 1
269 253 1
269 255 1
269 256 1
269 259 1
269 261 1
269 265 1
269 268 1
269 275 1
269 276 1
269 279 1
269 282 1
269 283 1
269 284 1
269 287 1
269 288 1
269 290 1
269 292 1
269 295 1
269 297 1
269 298 1
269 299 1
269 300 1
269 302 1
269 305 1
269 306 1
269 308 1
269 314 1
269 315 1
269 317 1
269 320 1
269 321 1
269 322 1
269 323 1
269 325 1
269 331 1
269 332 1
269 343 1
269 344 1
269 349 1
269 351 1
269 354 1
269 355 1
269 356 1
269 357 1
269 358 1
269 361 1
269 362 1
269 367 1
269 370 1
269 372 1
269 376 1
269 377 1
269 383 1
269 386 1
269 387 1
269 391 1
269 392 1
269 394 1
269 398 1
270 2 1
270 4 1
270 6 1
270 10 1
270 14 1
270 19 1
270 20 1
270 21 1
270 22 1
270 26 1
270 29 1
270 33 1
270 34 1
270 37 1
270 39 1
270 43 1
270 44 1
270 47 1
270 49 1
270 50 1
270 51 1
270 54 1
270 55 1
270 58 1
270 60 1
270 67 1
270 69 1
270 70 1
270 71 1
270 72 1
270 74 1
270 77 1
270 82 1
270 86 1
270 87 1
270 88 1
270 90 1
270 91 1
270 92 1
270 93 1
270 96 1
270 97 1
270 98 1
270 99 1
270 101 1
270 104 1
270 106 1
270 111 1
270 112 1
270 113 1
270 118 1
270 119 1
270 120 1
270 124 1
270 130 1
270 133 1
270 137 1
270 138 1
270 139 1
270 140 1
270 145 1
270 147 1
270 149 1
270 152 1
270 157 1
270 158 1
270 159 1
270 160 1
270 161 1
270 164 1
270 168 1
270 169 1
270 170 1
270 172 1
270 173 1
270 174 1
270 175 1
270 176 1
270 177 1
270 179 1
270 184 1
270 188 1
270 189 1
270 190 1
270 192 1
270 195 1
270 198 1
270 199 1
270 203 1
270 205 1
270 207 1
270 208 1
270 209 1
270 211 1
270 218 1
270 219 1
270 221 1
270 229 1
270 231 1
270 232 1
270 236 1
270 237 1
270 238 1
270 240 1
270 247 1
270 250 1
270 253 1
270 254 1
270 255 1
270 256 1
270 258 1
270 260 1
270 265 1
270 266 1
270 267 1
270 271 1
270 275 1
270 278 1
270 280 1
270 283 1
270 287 1
270 288 1
270 292 1
270 295 1
270 296 1
270 298 1
270 299 1
270 301 1
270 304 1
270 307 1
270 312 1
270 313 1
270 318 1
270 320 1
270 325 1
270 327 1
270 332 1
270 338 1
270 339 1
270 341 1
270 347 1
270 348 1
270 350 1
270 351 1
270 353 1
270 358 1
270 361 1
270 363 1
270 365 1
270 368 1
270 369 1
270 371 1
270 378 1
270 380 1
270 385 1
270 387 1
270 388 1
270 390 1
270 392 1
270 394 1
270 395 1
270 396 1
270 398 1
270 400 1
271 1 1
271 6 1
271 7 1
271 14 1
271 15 1
271 17 1
271 20 1
271 21 1
271 22 1
271 24 1
271 30 1
271 32 1
271 36 1
271 37 1
271 38 1
271 40 1
271 47 1
271 51 1
271 52 1
271 53 1
271 55 1
271 57 1
271 62 1
271 64 1
271 65 1
271 67 1
271 74 1
271 75 1
271 77 1
271 80 1
271 81 1
271 83 1
271 90 1
271 91 1
271 93 1
271 98 1
271 99 1
271 101 1
271 103 1
271 104 1
271 106 1
271 109 1
271 111 1
271 115 1
271 116 1
271 117 1
271 118 1
271 122 1
271 125 1
271 129 1
271 130 1
271 132 1
271 133 1
271 135 1
271 137 1
271 138 1
271 139 1
271 140 1
271 142 1
271 144 1
271 151 1
271 153 1
271 154 1
271 155 1
271 158 1
271 159 1
271 160 1
271 162 1
271 163 1
271 168 1
271 170 1
271 184 1
271 187 1
271 190 1
271 192 1
271 193 1
271 198 1
271 199 1
271 200 1
271 201 1
271 202 1
271 207 1
271 208 1
271 209 1
271 211 1
271 214 1
271 216 1
271 217 1
271 219 1
271 221 1
271 223 1
271 226 1
271 228 1
271 229 1
271 230 1
271 232 1
271 233 1
271 236 1
271 239 1
271 240 1
271 241 1
271 243 1
271 245 1
271 246 1
271 247 1
271 248 1
271 250 1
271 252 1
271 260 1
271 262 1
271 264 1
271 268 1
271 270 1
271 275 1
271 280 1
271 284 1
271 292 1
271 293 1
271 295 1
271 296 1
271 297 1
271 298 1
271 302 1
271 303 1
271 306 1
271 307 1
271 308 1
271 311 1
271 313 1
271 316 1
271 320 1
271 322 1
271 323 1
271 325 1
271 327 1
271 328 1
271 329 1
271 332 1
271 335 1
271 339 1
271 341 1
271 344 1
271 349 1
271 351 1
271 354 1
271 356 1
271 359 1
271 362 1
271 367 1
271 368 1
271 369 1
271 374 1
271 375 1
271 377 1
271 379 1
271 381 1
271 386 1
271 387 1
271 389 1
271 397 1
271 398 1
272 3 1
272 4 1
272 5 1
272 6 1
272 8 1
272 12 1
272 13 1
272 17 1
272 19 1
272 26 1
272 28 1
272 36 1
272 37 1
272 42 1
272 43 1
272 47 1
272 48 1
272 49 1
272 51 1
272 58 1
272 59 1
272 66 1
272 71 1
272 72 1
272 73 1
272 77 1
272 81 1
272 82 1
272 83 1
272 88 1
272 89 1
272 90 1
272 91 1
272 92 1
272 94 1
272 95 1
272 98 1
272 103 1
272 104 1
272 107 1
272 110 1
272 112 1
272 117 1
272 119 1
272 121 1
272 124 1
272 125 1
272 127 1
272 129 1
272 132 1
272 133 1
272 134 1
272 141 1
272 143 1
272 145 1
272 147 1
272 148 1
272 149 1
272 154 1
272 155 1
272 156 1
272 158 1
272 160 1
272 161 1
272 162 1
272 164 1
272 165 1
272 171 1
272 173 1
272 175 1
272 176 1
272 181 1
272 182 1
272 183 1
272 184 1
272 187 1
272 188 1
272 198 1
272 200 1
272 204 1
272 206 1
272 214 1
272 215 1
272 216 1
272 218 1
272 219 1
272 220 1
272 227 1
272 230 1
272 234 1
272 235 1
272 236 1
272 237 1
272 240 1
272 241 1
272 243 1
272 245 1
272 246 1
272 247 1
272 252 1
272 253 1
272 255 1
272 257 1
272 258 1
272 259 1
272 263 1
272 273 1
272 279 1
272 281 1
272 282 1
272 287 1
272 289 1
272 293 1
272 302 1
272 303 1
272 306 1
272 307 1
272 313 1
272 314 1
272 326 1
272 328 1
272 329 1
272 332 1
272 333 1
272 336 1
272 341 1
272 344 1
272 346 1
272 347 1
272 352 1
272 354 1
272 355 1
272 361 1
272 365 1
272 366 1
272 369 1
272 371 1
272 374 1
272 377 1
272 386 1
272 388 1
272 390 1
272 391 1
272 393 1
272 394 1
272 395 1
272 400 1
273 3 1
273 8 1
273 9 1
273 10 1
273 11 1
273 15 1
273 19 1
273 22 1
273 23 1
273 24 1
273 31 1
273 34 1
273 38 1
273 39 1
273 40 1
273 41 1
273 42 1
273 45 1
273 51 1
273 53 1
273 55 1
273 56 1
273 57 1
273 59 1
273 66 1
273 71 1
273 72 1
273 79 1
273 81 1
273 85 1
273 86 1
273 87 1
273 90 1
273 94 1
273 97 1
273 98 1
273 99 1
273 100 1
273 101 1
273 110 1
273 116 1
273 117 1
273 119 1
273 120 1
273 121 1
273 122 1
273 124 1
273 125 1
273 130 1
273 135 1
273 139 1
273 140 1
273 142 1
273 143 1
273 144 1
273 147 1
273 149 1
273 150 1
273 153 1
273 155 1
273 156 1
273 162 1
273 163 1
273 164 1
273 166 1
273 167 1
273 168 1
273 170 1
273 177 1
273 178 1
273 180 1
273 187 1
273 190 1
273 191 1
273 195 1
273 199 1
273 200 1
273 201 1
273 205 1
273 212 1
273 218 1
273 219 1
273 221 1
273 225 1
273 230 1
273 238 1
273 239 1
273 240 1
273 246 1
273 247 1
273 248 1
273 254 1
273 256 1
273 259 1
273 260 1
273 266 1
273 268 1
273 272 1
273 274 1
273 275 1
273 277 1
273 278 1
273 280 1
273 281 1
273 282 1
273 285 1
273 289 1
273 290 1
273 292 1
273 296 1
273 298 1
273 300 1
273 302 1
273 309 1
273 310 1
273 313 1
273 314 1
273 318 1
273 319 1
273 320 1
273 321 1
273 322 1
273 324 1
273 327 1
273 333 1
273 335 1
273 337 1
273 338 1
273 341 1
273 342 1
273 347 1
273 350 1
273 352 1
273 353 1
273 354 1
273 356 1
273 357 1
273 358 1
273 361 1
273 366 1
273 372 1
273 373 1
273 375 1
273 379 1
273 380 1
273 382 1
273 384 1
273 387 1
273 388 1
273 390 1
273 391 1
273 396 1
273 399 1
274 1 1
274 2 1
274 4 1
274 6 1
274 18 1
274 20 1
274 22 1
274 23 1
274 24 1
274 26 1
274 29 1
274 38 1
274 42 1
274 43 1
274 44 1
274 46 1
274 48 1
274 50 1
274 51 1
274 52 1
274 54 1
274 62 1
274 64 1
274 66 1
274 67 1
274 68 1
274 69 1
274 73 1
274 74 1
274 75 1
274 76 1
274 77 1
274 78 1
274 79 1
274 90 1
274 91 1
274 92 1
274 93 1
274 96 1
274 97 1
274 99 1
274 103 1
274 105 1
274 107 1
274 109 1
274 111 1
274 112 1
274 114 1
274 115 1
274 120 1
274 121 1
274 126 1
274 128 1
274 134 1
274 137 1
274 139 1
274 142 1
274 145 1
274 147 1
274 148 1
274 149 1
274 151 1
274 152 1
274 153 1
274 154 1
274 157 1
274 162 1
274 163 1
274 165 1
274 168 1
274 171 1
274 172 1
274 174 1
274 176 1
274 177 1
274 178 1
274 179 1
274 180 1
274 181 1
274 183 1
274 185 1
274 187 1
274 191 1
274 192 1
274 195 1
274 200 1
274 202 1
274 205 1
274 209 1
274 214 1
274 215 1
274 219 1
274 220 1
274 221 1
274 222 1
274 223 1
274 224 1
274 225 1
274 227 1
274 230 1
274 235 1
274 241 1
274 246 1
274 248 1
274 250 1
274 256 1
274 258 1
274 260 1
274 264 1
274 266 1
274 267 1
274 268 1
274 273 1
274 279 1
274 286 1
274 287 1
274 288 1
274 289 1
274 290 1
274 291 1
274 292 1
274 293 1
274 295 1
274 297 1
274 300 1
274 301 1
274 304 1
274 305 1
274 308 1
274 309 1
274 310 1
274 312 1
274 313 1
274 315 1
274 319 1
274 320 1
274 321 1
274 322 1
274 325 1
274 330 1
274 331 1
274 332 1
274 335 1
274 336 1
274 337 1
274 345 1
274 347 1
274 350 1
274 351 1
274 353 1
274 356 1
274 359 1
274 360 1
274 361 1
274 365 1
274 367 1
274 368 1
274 372 1
274 373 1
274 374 1
274 375 1
274 376 1
274 379 1
274 380 1
274 383 1
274 384 1
274 385 1
274 387 1
274 393 1
274 399 1
275 8 1
275 11 1
275 19 1
275 22 1
275 23 1
275 25 1
275 27 1
275 28 1
275 29 1
275 32 1
275 34 1
275 36 1
275 38 1
275 39 1
275 41 1
275 42 1
275 43 1
275 46 1
275 48 1
275 49 1
275 50 1
275 55 1
275 58 1
275 60 1
275 63 1
275 64 1
275 66 1
275 72 1
275 73 1
275 74 1
275 75 1
275 83 1
275 84 1
275 86 1
275 87 1
275 88 1
275 90 1
275 92 1
275 94 1
275 95 1
275 99 1
275 101 1
275 106 1
275 110 1
275 112 1
275 114 1
275 115 1
275 122 1
275 124 1
275 126 1
275 127 1
275 128 1
275 129 1
275 130 1
275 134 1
275 136 1
275 139 1
275 141 1
275 145 1
275 147 1
275 149 1
275 155 1
275 156 1
275 159 1
275 160 1
275 161 1
275 166 1
275 167 1
275 169 1
275 172 1
275 174 1
275 176 1
275 177 1
275 181 1
275 182 1
275 184 1
275 188 1
275 192 1
275 197 1
275 200 1
275 201 1
275 203 1
275 207 1
275 210 1
275 211 1
275 212 1
275 217 1
275 218 1
275 224 1
275 225 1
275 227 1
275 228 1
275 229 1
275 230 1
275 232 1
275 234 1
275 237 1
275 238 1
275 239 1
275 241 1
275 242 1
275 245 1
275 246 1
275 249 1
275 251 1
275 253 1
275 254 1
275 255 1
275 259 1
275 261 1
275 266 1
275 267 1
275 269 1
275 270 1
275 271 1
275 273 1
275 276 1
275 278 1
275 282 1
275 284 1
275 285 1
275 293 1
275 296 1
275 297 1
275 298 1
275 300 1
275 301 1
275 302 1
275 304 1
275 307 1
275 309 1
275 310 1
275 316 1
275 320 1
275 322 1
275 328 1
275 331 1
275 333 1
275 334 1
275 337 1
275 339 1
275 340 1
275 341 1
275 345 1
275 346 1
275 348 1
275 349 1
275 352 1
275 357 1
275 361 1
275 363 1
275 365 1
275 366 1
275 369 1
275 370 1
275 373 1
275 378 1
275 382 1
275 384 1
275 386 1
275 387 1
275 388 1
275 392 1
275 394 1
275 398 1
276 1 1
276 2 1
276 3 1
276 4 1
276 5 1
276 6 1
276 8 1
276 9 1
276 11 1
276 12 1
276 14 1
276 17 1
276 24 1
276 30 1
276 31 1
276 32 1
276 36 1
276 40 1
276 41 1
276 48 1
276 49 1
276 50 1
276 56 1
276 57 1
276 60 1
276 73 1
276 76 1
276 79 1
276 82 1
276 84 1
276 86 1
276 89 1
276 92 1
276 94 1
276 95 1
276 98 1
276 99 1
276 103 1
276 105 1
276 107 1
276 108 1
276 110 1
276 111 1
276 112 1
276 113 1
276 115 1
276 120 1
276 122 1
276 128 1
276 131 1
276 132 1
276 133 1
276 134 1
276 135 1
276 136 1
276 137 1
276 144 1
276 145 1
276 149 1
276 150 1
276 153 1
276 154 1
276 155 1
276 156 1
276 163 1
276 169 1
276 170 1
276 172 1
276 173 1
276 174 1
276 175 1
276 180 1
276 181 1
276 182 1
276 189 1
276 190 1
276 194 1
276 198 1
276 201 1
276 202 1
276 203 1
276 204 1
276 208 1
276 216 1
276 219 1
276 220 1
276 222 1
276 223 1
276 229 1
276 230 1
276 232 1
276 233 1
276 235 1
276 236 1
276 237 1
276 238 1
276 242 1
276 250 1
276 253 1
276 254 1
276 255 1
276 258 1
276 259 1
276 262 1
276 263 1
276 266 1
276 267 1
276 268 1
276 269 1
276 275 1
276 279 1
276 282 1
276 286 1
276 289 1
276 299 1
276 300 1
276 302 1
276 304 1
276 306 1
276 308 1
276 309 1
276 311 1
276 320 1
276 322 1
276 324 1
276 325 1
276 326 1
276 327 1
276 331 1
276 336 1
276 339 1
276 340 1
276 343 1
276 345 1
276 347 1
276 348 1
276 351 1
276 356 1
276 374 1
276 375 1
276 377 1
276 378 1
276 379 1
276 383 1
276 385 1
276 389 1
276 392 1
276 393 1
276 394 1
276 395 1
276 396 1
276 397 1
276 398 1
277 5 1
277 7 1
277 12 1
277 17 1
277 20 1
277 23 1
277 25 1
277 26 1
277 27 1
277 30 1
277 35 1
277 38 1
277 40 1
277 41 1
277 43 1
277 45 1
277 53 1
277 54 1
277 55 1
277 56 1
277 59 1
277 60 1
277 61 1
277 64 1
277 68 1
277 71 1
277 75 1
277 76 1
277 77 1
277 80 1
277 82 1
277 84 1
277 85 1
277 86 1
277 87 1
277 88 1
277 90 1
277 93 1
277 94 1
277 97 1
277 104 1
277 105 1
277 111 1
277 113 1
277 114 1
277 118 1
277 120 1
277 122 1
277 125 1
277 130 1
277 137 1
277 141 1
277 144 1
277 145 1
277 148 1
277 149 1
277 150 1
277 155 1
277 157 1
277 158 1
277 159 1
277 161 1
277 164 1
277 165 1
277 167 1
277 170 1
277 171 1
277 173 1
277 175 1
277 177 1
277 179 1
277 180 1
277 181 1
277 185 1
277 188 1
277 189 1
277 190 1
277 193 1
277 196 1
277 202 1
277 204 1
277 205 1
277 207 1
277 208 1
277 209 1
277 211 1
277 216 1
277 218 1
277 219 1
277 220 1
277 224 1
277 226 1
277 228 1
277 242 1
277 243 1
277 244 1
277 245 1
277 250 1
277 251 1
277 253 1
277 254 1
277 257 1
277 258 1
277 260 1
277 262 1
277 264 1
277 265 1
277 266 1
277 268 1
277 273 1
277 278 1
277 279 1
277 286 1
277 287 1
277 291 1
277 293 1
277 294 1
277 299 1
277 300 1
277 301 1
277 304 1
277 307 1
277 308 1
277 309 1
277 310 1
277 311 1
277 312 1
277 315 1
277 316 1
277 319 1
277 322 1
277 325 1
277 331 1
277 338 1
277 341 1
277 345 1
277 348 1
277 349 1
277 350 1
277 351 1
277 355 1
277 357 1
277 358 1
277 359 1
277 361 1
277 365 1
277 371 1
277 376 1
277 377 1
277 382 1
277 388 1
277 392 1
277 398 1
277 399 1
278 5 1
278 7 1
278 8 1
278 9 1
278 10 1
278 11 1
278 13 1
278 15 1
278 17 1
278 18 1
278 19 1
278 20 1
278 27 1
278 28 1
278 31 1
278 32 1
278 38 1
278 39 1
278 42 1
278 44 1
278 45 1
278 47 1
278 48 1
278 49 1
278 53 1
278 58 1
278 59 1
278 62 1
278 63 1
278 65 1
278 70 1
278 71 1
278 72 1
278 73 1
278 77 1
278 80 1
278 82 1
278 83 1
278 87 1
278 88 1
278 94 1
278 97 1
278 101 1
278 102 1
278 103 1
278 105 1
278 106 1
278 108 1
278 118 1
278 119 1
278 123 1
278 127 1
278 137 1
278 144 1
278 146 1
278 149 1
278 151 1
278 154 1
278 157 1
278 161 1
278 162 1
278 163 1
278 166 1
278 170 1
278 171 1
278 172 1
278 179 1
278 180 1
278 182 1
278 185 1
278 186 1
278 188 1
278 192 1
278 194 1
278 195 1
278 196 1
278 200 1
278 201 1
278 206 1
278 212 1
278 213 1
278 215 1
278 216 1
278 217 1
278 220 1
278 221 1
278 222 1
278 225 1
278 226 1
278 228 1
278 229 1
278 232 1
278 234 1
278 236 1
278 238 1
278 240 1
278 245 1
278 246 1
278 249 1
278 251 1
278 252 1
278 256 1
278 257 1
278 266 1
278 270 1
278 273 1
278 275 1
278 277 1
278 280 1
278 282 1
278 283 1
278 287 1
278 288 1
278 289 1
278 290 1
278 292 1
278 294 1
278 295 1
278 296 1
278 299 1
278 303 1
278 305 1
278 307 1
278 308 1
278 312 1
278 314 1
278 319 1
278 321 1
278 322 1
278 327 1
278 329 1
278 330 1
278 331 1
278 332 1
278 334 1
278 335 1
278 336 1
278 337 1
278 338 1
278 340 1
278 346 1
278 350 1
278 352 1
278 359 1
278 360 1
278 362 1
278 367 1
278 368 1
278 370 1
278 371 1
278 372 1
278 374 1
278 377 1
278 378 1
278 380 1
278 382 1
278 385 1
278 392 1
278 393 1
278 397 1
278 399 1
278 400 1
279 1 1
279 5 1
279 7 1
279 8 1
279 9 1
279 11 1
279 15 1
279 23 1
279 24 1
279 26 1
279 29 1
279 30 1
279 32 1
279 37 1
279 38 1
279 39 1
279 40 1
279 44 1
279 48 1
279 50 1
279 57 1
279 59 1
279 60 1
279 61 1
279 62 1
279 63 1
279 65 1
279 66 1
279 74 1
279 77 1
279 78 1
279 79 1
279 82 1
279 90 1
279 91 1
279 94 1
279 96 1
279 98 1
279 102 1
279 107 1
279 110 1
279 113 1
279 114 1
279 117 1
279 119 1
279 120 1
279 124 1
279 126 1
279 131 1
279 132 1
279 135 1
279 139 1
279 143 1
279 145 1
279 146 1
279 151 1
279 152 1
279 156 1
279 159 1
279 161 1
279 163 1
279 169 1
279 172 1
279 173 1
279 174 1
279 175 1
279 177 1
279 178 1
279 182 1
279 186 1
279 191 1
279 192 1
279 201 1
279 205 1
279 206 1
279 208 1
279 209 1
279 210 1
279 211 1
279 214 1
279 216 1
279 217 1
279 222 1
279 226 1
279 229 1
279 230 1
279 234 1
279 236 1
279 242 1
279 246 1
279 249 1
279 251 1
279 255 1
279 256 1
279 257 1
279 259 1
279 261 1
279 263 1
279 266 1
279 267 1
279 269 1
279 272 1
279 274 1
279 276 1
279 277 1
279 282 1
279 285 1
279 286 1
279 287 1
279 289 1
279 294 1
279 295 1
279 296 1
279 297 1
279 299 1
279 303 1
279 305 1
279 307 1
279 310 1
279 311 1
279 312 1
279 313 1
279 314 1
279 317 1
279 323 1
279 326 1
279 328 1
279 334 1
279 336 1
279 339 1
279 340 1
279 346 1
279 350 1
279 351 1
279 354 1
279 356 1
279 358 1
279 359 1
279 360 1
279 361 1
279 365 1
279 369 1
279 370 1
279 371 1
279 378 1
279 380 1
279 383 1
279 385 1
279 386 1
279 387 1
279 390 1
279 395 1
279 396 1
279 397 1
279 398 1
279 400 1
280 5 1
280 6 1
280 8 1
280 11 1
280 12 1
280 13 1
280 16 1
280 20 1
280 21 1
280 24 1
280 25 1
280 27 1
280 29 1
280 30 1
280 34 1
280 36 1
280 37 1
280 41 1
280 42 1
280 43 1
280 44 1
280 47 1
280 50 1
280 52 1
280 53 1
280 57 1
280 59 1
280 61 1
280 62 1
280 64 1
280 67 1
280 68 1
280 69 1
280 70 1
280 78 1
280 79 1
280 80 1
280 86 1
280 91 1
280 93 1
280 97 1
280 100 1
280 101 1
280 108 1
280 109 1
280 110 1
280 112 1
280 113 1
280 114 1
280 115 1
280 117 1
280 120 1
280 122 1
280 124 1
280 127 1
280 128 1
280 130 1
280 135 1
280 136 1
280 142 1
280 148 1
280 149 1
280 151 1
280 152 1
280 154 1
280 157 1
280 158 1
280 162 1
280 164 1
280 165 1
280 166 1
280 170 1
280 171 1
280 174 1
280 177 1
280 178 1
280 179 1
280 180 1
280 181 1
280 185 1
280 201 1
280 209 1
280 212 1
280 213 1
280 216 1
280 217 1
280 218 1
280 220 1
280 222 1
280 224 1
280 227 1
280 228 1
280 229 1
280 231 1
280 232 1
280 234 1
280 236 1
280 237 1
280 238 1
280 240 1
280 242 1
280 245 1
280 246 1
280 247 1
280 248 1
280 252 1
280 254 1
280 257 1
280 258 1
280 264 1
280 266 1
280 267 1
280 270 1
280 271 1
280 273 1
280 278 1
280 283 1
280 288 1
280 289 1
280 294 1
280 295 1
280 296 1
280 298 1
280 300 1
280 301 1
280 304 1
280 306 1
280 308 1
280 310 1
280 311 1
280 313 1
280 315 1
280 316 1
280 318 1
280 321 1
280 323 1
280 325 1
280 326 1
280 328 1
280 330 1
280 331 1
280 333 1
280 336 1
280 338 1
280 339 1
280 342 1
280 343 1
280 355 1
280 356 1
280 359 1
280 363 1
280 366 1
280 369 1
280 371 1
280 374 1
280 375 1
280 377 1
280 381 1
280 382 1
280 388 1
280 389 1
280 392 1
280 393 1
280 396 1
280 397 1
281 1 1
281 4 1
281 5 1
281 11 1
281 12 1
281 13 1
281 18 1
281 22 1
281 24 1
281 25 1
281 27 1
281 28 1
281 29 1
281 30 1
281 31 1
281 33 1
281 35 1
281 36 1
281 37 1
281 44 1
281 45 1
281 46 1
281 47 1
281 50 1
281 55 1
281 56 1
281 59 1
281 64 1
281 65 1
281 69 1
281 70 1
281 71 1
281 73 1
281 79 1
281 82 1
281 83 1
281 85 1
281 89 1
281 90 1
281 92 1
281 93 1
281 94 1
281 95 1
281 99 1
281 105 1
281 106 1
281 109 1
281 113 1
281 116 1
281 118 1
281 119 1
281 120 1
281 121 1
281 124 1
281 129 1
281 131 1
281 135 1
281 136 1
281 137 1
281 139 1
281 140 1
281 141 1
281 142 1
281 148 1
281 150 1
281 151 1
281 152 1
281 153 1
281 154 1
281 155 1
281 156 1
281 158 1
281 162 1
281 163 1
281 165 1
281 167 1
281 168 1
281 169 1
281 171 1
281 175 1
281 177 1
281 178 1
281 179 1
281 180 1
281 183 1
281 184 1
281 186 1
281 189 1
281 192 1
281 193 1
281 194 1
281 195 1
281 201 1
281 205 1
281 207 1
281 209 1
281 210 1
281 213 1
281 216 1
281 217 1
281 219 1
281 220 1
281 225 1
281 228 1
281 229 1
281 232 1
281 240 1
281 245 1
281 249 1
281 251 1
281 252 1
281 253 1
281 256 1
281 260 1
281 262 1
281 263 1
281 264 1
281 265 1
281 266 1
281 267 1
281 272 1
281 273 1
281 283 1
281 284 1
281 287 1
281 288 1
281 289 1
281 297 1
281 304 1
281 307 1
281 310 1
281 313 1
281 314 1
281 315 1
281 316 1
281 317 1
281 322 1
281 327 1
281 331 1
281 332 1
281 334 1
281 337 1
281 338 1
281 339 1
281 340 1
281 342 1
281 345 1
281 347 1
281 349 1
281 350 1
281 351 1
281 354 1
281 355 1
281 357 1
281 358 1
281 361 1
281 367 1
281 368 1
281 369 1
281 371 1
281 376 1
281 377 1
281 380 1
281 382 1
281 387 1
281 395 1
281 399 1
281 400 1
282 6 1
282 10 1
282 11 1
282 13 1
282 17 1
282 18 1
282 21 1
282 24 1
282 25 1
282 26 1
282 38 1
282 40 1
282 41 1
282 42 1
282 43 1
282 45 1
282 48 1
282 50 1
282 51 1
282 52 1
282 55 1
282 56 1
282 58 1
282 59 1
282 60 1
282 66 1
282 69 1
282 70 1
282 72 1
282 74 1
282 79 1
282 80 1
282 82 1
282 87 1
282 89 1
282 92 1
282 93 1
282 99 1
282 100 1
282 101 1
282 104 1
282 105 1
282 108 1
282 111 1
282 112 1
282 115 1
282 117 1
282 118 1
282 128 1
282 129 1
282 130 1
282 131 1
282 133 1
282 134 1
282 136 1
282 137 1
282 138 1
282 141 1
282 142 1
282 143 1
282 150 1
282 151 1
282 157 1
282 163 1
282 167 1
282 168 1
282 173 1
282 175 1
282 182 1
282 187 1
282 188 1
282 190 1
282 191 1
282 193 1
282 194 1
282 196 1
282 197 1
282 198 1
282 200 1
282 205 1
282 207 1
282 209 1
282 211 1
282 220 1
282 226 1
282 227 1
282 228 1
282 229 1
282 230 1
282 233 1
282 235 1
282 237 1
282 238 1
282 239 1
282 241 1
282 245 1
282 248 1
282 249 1
282 250 1
282 251 1
282 252 1
282 258 1
282 260 1
282 268 1
282 269 1
282 272 1
282 273 1
282 275 1
282 276 1
282 278 1
282 279 1
282 284 1
282 286 1
282 289 1
282 291 1
282 292 1
282 293 1
282 298 1
282 299 1
282 300 1
282 301 1
282 305 1
282 307 1
282 311 1
282 312 1
282 315 1
282 319 1
282 320 1
282 321 1
282 322 1
282 326 1
282 329 1
282 331 1
282 332 1
282 333 1
282 334 1
282 335 1
282 337 1
282 345 1
282 346 1
282 349 1
282 350 1
282 353 1
282 356 1
282 357 1
282 363 1
282 364 1
282 367 1
282 368 1
282 370 1
282 371 1
282 373 1
282 374 1
282 375 1
282 378 1
282 382 1
282 383 1
282 384 1
282 386 1
282 388 1
282 390 1
282 396 1
282 397 1
282 398 1
282 399 1
283 3 1
283 4 1
283 8 1
283 9 1
283 11 1
283 12 1
283 16 1
283 23 1
283 26 1
283 29 1
283 33 1
283 34 1
283 35 1
283 39 1
283 40 1
283 41 1
283 47 1
283 49 1
283 50 1
283 54 1
283 57 1
283 60 1
283 62 1
283 66 1
283 67 1
283 70 1
283 74 1
283 77 1
283 84 1
283 85 1
283 87 1
283 88 1
283 98 1
283 101 1
283 105 1
283 110 1
283 113 1
283 118 1
283 121 1
283 122 1
283 124 1
283 126 1
283 127 1
283 128 1
283 132 1
283 133 1
283 137 1
283 142 1
283 144 1
283 145 1
283 149 1
283 151 1
283 152 1
283 157 1
283 160 1
283 161 1
283 162 1
283 163 1
283 166 1
283 169 1
283 170 1
283 171 1
283 172 1
283 173 1
283 174 1
283 176 1
283 177 1
283 178 1
283 182 1
283 186 1
283 192 1
283 195 1
283 196 1
283 198 1
283 199 1
283 200 1
283 201 1
283 202 1
283 204 1
283 205 1
283 206 1
283 210 1
283 211 1
283 213 1
283 218 1
283 221 1
283 229 1
283 230 1
283 234 1
283 239 1
283 240 1
283 242 1
283 245 1
283 246 1
283 247 1
283 248 1
283 249 1
283 251 1
283 255 1
283 256 1
283 257 1
283 259 1
283 263 1
283 268 1
283 269 1
283 270 1
283 278 1
283 280 1
283 281 1
283 285 1
283 286 1
283 288 1
283 289 1
283 290 1
283 293 1
283 298 1
283 299 1
283 300 1
283 302 1
283 303 1
283 304 1
283 305 1
283 311 1
283 312 1
283 313 1
283 316 1
283 317 1
283 318 1
283 320 1
283 322 1
283 323 1
283 325 1
283 327 1
283 328 1
283 329 1
283 331 1
283 342 1
283 350 1
283 354 1
283 360 1
283 361 1
283 362 1
283 363 1
283 366 1
283 368 1
283 369 1
283 371 1
283 377 1
283 381 1
283 385 1
283 390 1
283 391 1
283 393 1
283 395 1
283 396 1
283 398 1
284 1 1
284 2 1
284 4 1
284 6 1
284 10 1
284 11 1
284 12 1
284 16 1
284 20 1
284 23 1
284 26 1
284 29 1
284 32 1
284 37 1
284 42 1
284 43 1
284 44 1
284 48 1
284 50 1
284 52 1
284 54 1
284 55 1
284 56 1
284 57 1
284 58 1
284 59 1
284 62 1
284 65 1
284 66 1
284 67 1
284 70 1
284 72 1
284 73 1
284 76 1
284 78 1
284 81 1
284 84 1
284 88 1
284 95 1
284 98 1
284 99 1
284 100 1
284 101 1
284 103 1
284 104 1
284 105 1
284 111 1
284 113 1
284 114 1
284 115 1
284 117 1
284 118 1
284 119 1
284 120 1
284 123 1
284 125 1
284 126 1
284 127 1
284 131 1
284 132 1
284 135 1
284 138 1
284 142 1
284 143 1
284 146 1
284 147 1
284 149 1
284 150 1
284 154 1
284 158 1
284 161 1
284 164 1
284 165 1
284 167 1
284 172 1
284 173 1
284 176 1
284 180 1
284 187 1
284 189 1
284 192 1
284 193 1
284 195 1
284 198 1
284 200 1
284 201 1
284 202 1
284 203 1
284 205 1
284 209 1
284 215 1
284 221 1
284 224 1
284 225 1
284 227 1
284 228 1
284 231 1
284 232 1
284 233 1
284 235 1
284 236 1
284 237 1
284 243 1
284 248 1
284 255 1
284 257 1
284 258 1
284 259 1
284 260 1
284 263 1
284 265 1
284 267 1
284 268 1
284 269 1
284 271 1
284 275 1
284 281 1
284 282 1
284 285 1
284 288 1
284 290 1
284 292 1
284 294 1
284 295 1
284 302 1
284 303 1
284 307 1
284 310 1
284 311 1
284 312 1
284 313 1
284 314 1
284 315 1
284 321 1
284 325 1
284 326 1
284 327 1
284 335 1
284 336 1
284 337 1
284 338 1
284 340 1
284 341 1
284 342 1
284 343 1
284 350 1
284 352 1
284 353 1
284 354 1
284 355 1
284 357 1
284 365 1
284 366 1
284 368 1
284 369 1
284 370 1
284 372 1
284 376 1
284 382 1
284 383 1
284 391 1
284 392 1
284 395 1
284 396 1
284 397 1
284 398 1
285 1 1
285 3 1
285 6 1
285 8 1
285 9 1
285 12 1
285 13 1
285 16 1
285 17 1
285 18 1
285 19 1
285 21 1
285 22 1
285 24 1
285 32 1
285 36 1
285 38 1
285 39 1
285 40 1
285 46 1
285 47 1
285 48 1
285 51 1
285 56 1
285 58 1
285 60 1
285 61 1
285 62 1
285 63 1
285 67 1
285 68 1
285 72 1
285 76 1
285 78 1
285 82 1
285 83 1
285 84 1
285 85 1
285 87 1
285 88 1
285 89 1
285 96 1
285 103 1
285 106 1
285 107 1
285 111 1
285 112 1
285 115 1
285 118 1
285 119 1
285 121 1
285 125 1
285 126 1
285 128 1
285 129 1
285 130 1
285 131 1
285 134 1
285 135 1
285 139 1
285 143 1
285 149 1
285 151 1
285 153 1
285 155 1
285 156 1
285 168 1
285 171 1
285 174 1
285 179 1
285 182 1
285 186 1
285 187 1
285 191 1
285 193 1
285 195 1
285 198 1
285 199 1
285 209 1
285 210 1
285 214 1
285 215 1
285 216 1
285 217 1
285 222 1
285 224 1
285 227 1
285 230 1
285 231 1
285 232 1
285 235 1
285 238 1
285 240 1
285 244 1
285 245 1
285 246 1
285 249 1
285 251 1
285 252 1
285 253 1
285 254 1
285 255 1
285 256 1
285 259 1
285 260 1
285 261 1
285 262 1
285 266 1
285 267 1
285 273 1
285 275 1
285 279 1
285 283 1
285 284 1
285 289 1
285 290 1
285 291 1
285 293 1
285 295 1
285 297 1
285 298 1
285 302 1
285 304 1
285 305 1
285 306 1
285 307 1
285 309 1
285 310 1
285 312 1
285 315 1
285 318 1
285 319 1
285 320 1
285 321 1
285 322 1
285 324 1
285 325 1
285 327 1
285 329 1
285 335 1
285 337 1
285 338 1
285 339 1
285 341 1
285 345 1
285 346 1
285 348 1
285 355 1
285 364 1
285 366 1
285 370 1
285 372 1
285 373 1
285 374 1
285 376 1
285 379 1
285 385 1
285 387 1
285 390 1
285 393 1
285 394 1
285 395 1
285 396 1
285 397 1
286 3 1
286 5 1
286 6 1
286 7 1
286 10 1
286 18 1
286 22 1
286 24 1
286 26 1
286 33 1
286 35 1
286 36 1
286 45 1
286 46 1
286 47 1
286 49 1
286 52 1
286 53 1
286 61 1
286 62 1
286 63 1
286 67 1
286 68 1
286 69 1
286 79 1
286 80 1
286 84 1
286 85 1
286 88 1
286 89 1
286 95 1
286 96 1
286 97 1
286 99 1
286 100 1
286 101 1
286 103 1
286 111 1
286 117 1
286 119 1
286 122 1
286 128 1
286 129 1
286 132 1
286 133 1
286 136 1
286 137 1
286 138 1
286 141 1
286 142 1
286 150 1
286 152 1
286 154 1
286 157 1
286 158 1
286 159 1
286 161 1
286 162 1
286 168 1
286 169 1
286 171 1
286 175 1
286 178 1
286 180 1
286 181 1
286 182 1
286 183 1
286 184 1
286 185 1
286 187 1
286 190 1
286 194 1
286 195 1
286 201 1
286 203 1
286 205 1
286 206 1
286 207 1
286 210 1
286 212 1
286 216 1
286 217 1
286 218 1
286 219 1
286 221 1
286 224 1
286 227 1
286 228 1
286 229 1
286 231 1
286 238 1
286 241 1
286 242 1
286 245 1
286 247 1
286 248 1
286 250 1
286 253 1
286 254 1
286 255 1
286 257 1
286 258 1
286 260 1
286 261 1
286 262 1
286 263 1
286 265 1
286 267 1
286 268 1
286 274 1
286 276 1
286 277 1
286 279 1
286 282 1
286 283 1
286 291 1
286 294 1
286 296 1
286 299 1
286 304 1
286 306 1
286 308 1
286 309 1
286 310 1
286 313 1
286 315 1
286 316 1
286 318 1
286 319 1
286 323 1
286 326 1
286 332 1
286 333 1
286 334 1
286 335 1
286 337 1
286 338 1
286 339 1
286 340 1
286 342 1
286 344 1
286 347 1
286 349 1
286 351 1
286 353 1
286 354 1
286 358 1
286 359 1
286 360 1
286 361 1
286 363 1
286 364 1
286 365 1
286 368 1
286 370 1
286 372 1
286 374 1
286 383 1
286 388 1
286 389 1
286 390 1
286 394 1
286 396 1
286 397 1
286 398 1
286 399 1
286 400 1
287 7 1
287 11 1
287 16 1
287 17 1
287 20 1
287 21 1
287 22 1
287 24 1
287 28 1
287 29 1
287 30 1
287 31 1
287 32 1
287 35 1
287 38 1
287 39 1
287 40 1
287 42 1
287 45 1
287 47 1
287 48 1
287 49 1
287 50 1
287 53 1
287 59 1
287 60 1
287 61 1
287 62 1
287 64 1
287 67 1
287 69 1
287 72 1
287 75 1
287 80 1
287 85 1
287 86 1
287 87 1
287 90 1
287 91 1
287 93 1
287 94 1
287 98 1
287 102 1
287 104 1
287 105 1
287 109 1
287 113 1
287 114 1
287 118 1
287 122 1
287 123 1
287 124 1
287 127 1
287 128 1
287 129 1
287 137 1
287 138 1
287 139 1
287 140 1
287 152 1
287 153 1
287 159 1
287 163 1
287 164 1
287 165 1
287 171 1
287 172 1
287 173 1
287 174 1
287 177 1
287 179 1
287 180 1
287 184 1
287 187 1
287 190 1
287 191 1
287 198 1
287 199 1
287 200 1
287 206 1
287 215 1
287 224 1
287 225 1
287 227 1
287 230 1
287 231 1
287 236 1
287 237 1
287 239 1
287 240 1
287 241 1
287 242 1
287 243 1
287 245 1
287 246 1
287 247 1
287 251 1
287 252 1
287 253 1
287 256 1
287 257 1
287 258 1
287 259 1
287 262 1
287 264 1
287 265 1
287 266 1
287 268 1
287 269 1
287 270 1
287 272 1
287 274 1
287 277 1
287 278 1
287 279 1
287 281 1
287 289 1
287 290 1
287 293 1
287 294 1
287 295 1
287 299 1
287 303 1
287 305 1
287 309 1
287 313 1
287 318 1
287 320 1
287 321 1
287 323 1
287 324 1
287 327 1
287 328 1
287 332 1
287 335 1
287 343 1
287 344 1
287 349 1
287 350 1
287 351 1
287 355 1
287 358 1
287 359 1
287 362 1
287 367 1
287 372 1
287 376 1
287 378 1
287 379 1
287 380 1
287 381 1
287 383 1
287 384 1
287 394 1
287 395 1
287 396 1
287 400 1
288 3 1
288 12 1
288 13 1
288 14 1
288 17 1
288 18 1
288 19 1
288 20 1
288 23 1
288 24 1
288 25 1
288 26 1
288 27 1
288 32 1
288 39 1
288 42 1
288 50 1
288 58 1
288 59 1
288 61 1
288 64 1
288 67 1
288 68 1
288 72 1
288 73 1
288 79 1
288 81 1
288 84 1
288 88 1
288 91 1
288 93 1
288 95 1
288 96 1
288 106 1
288 109 1
288 110 1
288 111 1
288 112 1
288 115 1
288 116 1
288 118 1
288 122 1
288 124 1
288 125 1
288 126 1
288 127 1
288 128 1
288 129 1
288 131 1
288 132 1
288 135 1
288 136 1
288 137 1
288 141 1
288 142 1
288 150 1
288 153 1
288 154 1
288 155 1
288 156 1
288 157 1
288 158 1
288 159 1
288 161 1
288 163 1
288 164 1
288 165 1
288 168 1
288 169 1
288 170 1
288 176 1
288 181 1
288 182 1
288 183 1
288 184 1
288 186 1
288 187 1
288 188 1
288 189 1
288 190 1
288 191 1
288 192 1
288 194 1
288 195 1
288 197 1
288 198 1
288 200 1
288 204 1
288 206 1
288 207 1
288 210 1
288 211 1
288 214 1
288 215 1
288 216 1
288 221 1
288 223 1
288 226 1
288 231 1
288 232 1
288 234 1
288 236 1
288 237 1
288 238 1
288 240 1
288 244 1
288 247 1
288 250 1
288 251 1
288 253 1
288 256 1
288 257 1
288 259 1
288 261 1
288 264 1
288 269 1
288 270 1
288 274 1
288 278 1
288 280 1
288 281 1
288 283 1
288 284 1
288 289 1
288 290 1
288 292 1
288 295 1
288 298 1
288 308 1
288 309 1
288 310 1
288 311 1
288 312 1
288 313 1
288 315 1
288 319 1
288 325 1
288 326 1
288 328 1
288 329 1
288 330 1
288 331 1
288 332 1
288 333 1
288 334 1
288 335 1
288 336 1
288 339 1
288 342 1
288 344 1
288 347 1
288 351 1
288 352 1
288 360 1
288 361 1
288 366 1
288 367 1
288 368 1
288 369 1
288 371 1
288 373 1
288 375 1
288 382 1
288 386 1
288 390 1
288 393 1
288 395 1
288 398 1
288 400 1
289 3 1
289 4 1
289 5 1
289 9 1
289 10 1
289 14 1
289 17 1
289 23 1
289 26 1
289 31 1
289 33 1
289 34 1
289 38 1
289 39 1
289 43 1
289 46 1
289 51 1
289 52 1
289 53 1
289 54 1
289 57 1
289 63 1
289 71 1
289 72 1
289 75 1
289 78 1
289 79 1
289 84 1
289 88 1
289 91 1
289 92 1
289 93 1
289 97 1
289 98 1
289 100 1
289 102 1
289 104 1
289 105 1
289 112 1
289 113 1
289 122 1
289 124 1
289 125 1
289 126 1
289 128 1
289 131 1
289 133 1
289 135 1
289 136 1
289 137 1
289 138 1
289 139 1
289 144 1
289 148 1
289 150 1
289 151 1
289 153 1
289 154 1
289 157 1
289 162 1
289 163 1
289 165 1
289 167 1
289 172 1
289 173 1
289 174 1
289 179 1
289 180 1
289 183 1
289 184 1
289 190 1
289 192 1
289 197 1
289 198 1
289 201 1
289 203 1
289 206 1
289 208 1
289 213 1
289 215 1
289 219 1
289 222 1
289 224 1
289 225 1
289 226 1
289 228 1
289 229 1
289 231 1
289 233 1
289 237 1
289 239 1
289 240 1
289 244 1
289 256 1
289 258 1
289 259 1
289 260 1
289 261 1
289 266 1
289 272 1
289 273 1
289 274 1
289 276 1
289 278 1
289 279 1
289 280 1
289 281 1
289 282 1
289 283 1
289 285 1
289 287 1
289 288 1
289 291 1
289 292 1
289 299 1
289 300 1
289 304 1
289 305 1
289 306 1
289 307 1
289 311 1
289 313 1
289 317 1
289 319 1
289 322 1
289 326 1
289 327 1
289 328 1
289 329 1
289 331 1
289 332 1
289 333 1
289 337 1
289 342 1
289 344 1
289 346 1
289 347 1
289 349 1
289 351 1
289 355 1
289 356 1
289 358 1
289 359 1
289 361 1
289 362 1
289 364 1
289 366 1
289 367 1
289 370 1
289 371 1
289 373 1
289 376 1
289 383 1
289 385 1
289 386 1
289 387 1
289 389 1
289 398 1
290 1 1
290 2 1
290 4 1
290 6 1
290 11 1
290 16 1
290 20 1
290 22 1
290 23 1
290 25 1
290 26 1
290 27 1
290 29 1
290 36 1
290 38 1
290 39 1
290 42 1
290 44 1
290 45 1
290 46 1
290 51 1
290 52 1
290 53 1
290 57 1
290 63 1
290 65 1
290 70 1
290 71 1
290 72 1
290 73 1
290 81 1
290 86 1
290 92 1
290 95 1
290 96 1
290 97 1
290 99 1
290 100 1
290 104 1
290 106 1
290 109 1
290 110 1
290 118 1
290 127 1
290 130 1
290 137 1
290 139 1
290 142 1
290 143 1
290 146 1
290 149 1
290 152 1
290 154 1
290 157 1
290 158 1
290 160 1
290 163 1
290 164 1
290 165 1
290 168 1
290 173 1
290 174 1
290 175 1
290 177 1
290 178 1
290 179 1
290 180 1
290 183 1
290 185 1
290 186 1
290 187 1
290 189 1
290 190 1
290 191 1
290 192 1
290 193 1
290 194 1
290 197 1
290 201 1
290 203 1
290 204 1
290 205 1
290 206 1
290 212 1
290 213 1
290 214 1
290 215 1
290 217 1
290 218 1
290 220 1
290 221 1
290 227 1
290 229 1
290 233 1
290 234 1
290 235 1
290 239 1
290 242 1
290 246 1
290 247 1
290 248 1
290 250 1
290 251 1
290 253 1
290 260 1
290 266 1
290 269 1
290 273 1
290 274 1
290 278 1
290 283 1
290 284 1
290 285 1
290 287 1
290 288 1
290 292 1
290 296 1
290 298 1
290 301 1
290 303 1
290 309 1
290 319 1
290 322 1
290 323 1
290 328 1
290 329 1
290 333 1
290 334 1
290 336 1
290 337 1
290 339 1
290 341 1
290 342 1
290 345 1
290 347 1
290 349 1
290 352 1
290 354 1
290 355 1
290 357 1
290 360 1
290 364 1
290 365 1
290 367 1
290 370 1
290 372 1
290 374 1
290 376 1
290 377 1
290 378 1
290 383 1
290 384 1
290 387 1
290 392 1
290 394 1
290 397 1
290 399 1
290 400 1
291 3 1
291 8 1
291 15 1
291 17 1
291 21 1
291 23 1
291 30 1
291 32 1
291 33 1
291 34 1
291 35 1
291 36 1
291 37 1
291 40 1
291 41 1
291 42 1
291 45 1
291 47 1
291 48 1
291 52 1
291 53 1
291 54 1
291 55 1
291 56 1
291 61 1
291 62 1
291 64 1
291 65 1
291 69 1
291 73 1
291 75 1
291 76 1
291 77 1
291 78 1
291 83 1
291 84 1
291 85 1
291 86 1
291 89 1
291 91 1
291 96 1
291 97 1
291 105 1
291 106 1
291 107 1
291 109 1
291 111 1
291 112 1
291 113 1
291 118 1
291 121 1
291 124 1
291 126 1
291 127 1
291 129 1
291 130 1
291 140 1
291 143 1
291 145 1
291 147 1
291 155 1
291 156 1
291 157 1
291 158 1
291 159 1
291 161 1
291 162 1
291 166 1
291 167 1
291 169 1
291 171 1
291 172 1
291 174 1
291 175 1
291 181 1
291 186 1
291 190 1
291 193 1
291 195 1
291 197 1
291 198 1
291 199 1
291 203 1
291 204 1
291 206 1
291 207 1
291 208 1
291 210 1
291 211 1
291 213 1
291 215 1
291 216 1
291 220 1
291 225 1
291 233 1
291 234 1
291 235 1
291 238 1
291 241 1
291 243 1
291 247 1
291 248 1
291 249 1
291 250 1
291 254 1
291 258 1
291 264 1
291 265 1
291 266 1
291 268 1
291 274 1
291 277 1
291 282 1
291 285 1
291 286 1
291 289 1
291 292 1
291 296 1
291 297 1
291 300 1
291 302 1
291 303 1
291 305 1
291 309 1
291 313 1
291 314 1
291 317 1
291 319 1
291 321 1
291 322 1
291 323 1
291 324 1
291 328 1
291 330 1
291 340 1
291 342 1
291 348 1
291 351 1
291 353 1
291 357 1
291 360 1
291 362 1
291 363 1
291 364 1
291 366 1
291 370 1
291 374 1
291 378 1
291 382 1
291 383 1
291 385 1
291 386 1
291 391 1
291 392 1
291 393 1
291 396 1
291 398 1
291 399 1
292 1 1
292 2 1
292 4 1
292 5 1
292 15 1
292 16 1
292 18 1
292 19 1
292 28 1
292 34 1
292 35 1
292 37 1
292 39 1
292 41 1
292 42 1
292 45 1
292 47 1
292 48 1
292 50 1
292 51 1
292 52 1
292 54 1
292 56 1
292 58 1
292 61 1
292 62 1
292 65 1
292 66 1
292 67 1
292 68 1
292 70 1
292 72 1
292 75 1
292 79 1
292 81 1
292 84 1
292 86 1
292 92 1
292 95 1
292 96 1
292 100 1
292 107 1
292 110 1
292 111 1
292 114 1
292 118 1
292 121 1
292 125 1
292 126 1
292 129 1
292 130 1
292 132 1
292 134 1
292 136 1
292 137 1
292 138 1
292 142 1
292 143 1
292 144 1
292 148 1
292 154 1
292 155 1
292 156 1
292 160 1
292 161 1
292 168 1
292 172 1
292 173 1
292 175 1
292 178 1
292 179 1
292 181 1
292 182 1
292 185 1
292 189 1
292 195 1
292 199 1
292 200 1
292 204 1
292 205 1
292 206 1
292 217 1
292 218 1
292 219 1
292 220 1
292 221 1
292 225 1
292 227 1
292 228 1
292 233 1
292 238 1
292 239 1
292 242 1
292 246 1
292 249 1
292 252 1
292 255 1
292 256 1
292 261 1
292 262 1
292 263 1
292 264 1
292 265 1
292 267 1
292 268 1
292 269 1
292 270 1
292 271 1
292 273 1
292 274 1
292 278 1
292 282 1
292 284 1
292 288 1
292 289 1
292 290 1
292 291 1
292 293 1
292 294 1
292 299 1
292 304 1
292 306 1
292 310 1
292 311 1
292 313 1
292 315 1
292 319 1
292 321 1
292 322 1
292 323 1
292 329 1
292 331 1
292 335 1
292 339 1
292 344 1
292 345 1
292 346 1
292 353 1
292 355 1
292 356 1
292 357 1
292 358 1
292 360 1
292 366 1
292 367 1
292 371 1
292 374 1
292 377 1
292 378 1
292 381 1
292 383 1
292 387 1
292 388 1
292 389 1
292 390 1
292 396 1
292 397 1
292 400 1
293 3 1
293 5 1
293 7 1
293 8 1
293 11 1
293 12 1
293 13 1
293 14 1
293 15 1
293 16 1
293 19 1
293 22 1
293 23 1
293 27 1
293 28 1
293 29 1
293 30 1
293 34 1
293 37 1
293 38 1
293 39 1
293 41 1
293 42 1
293 44 1
293 45 1
293 49 1
293 51 1
293 52 1
293 53 1
293 54 1
293 55 1
293 58 1
293 59 1
293 62 1
293 63 1
293 65 1
293 69 1
293 72 1
293 76 1
293 79 1
293 81 1
293 82 1
293 85 1
293 90 1
293 92 1
293 94 1
293 98 1
293 104 1
293 107 1
293 110 1
293 113 1
293 116 1
293 119 1
293 122 1
293 124 1
293 135 1
293 136 1
293 139 1
293 140 1
293 142 1
293 144 1
293 147 1
293 149 1
293 151 1
293 153 1
293 156 1
293 157 1
293 159 1
293 161 1
293 164 1
293 169 1
293 172 1
293 175 1
293 179 1
293 183 1
293 186 1
293 191 1
293 193 1
293 194 1
293 199 1
293 201 1
293 206 1
293 208 1
293 209 1
293 216 1
293 219 1
293 227 1
293 232 1
293 234 1
293 237 1
293 240 1
293 241 1
293 242 1
293 244 1
293 246 1
293 247 1
293 252 1
293 254 1
293 258 1
293 259 1
293 261 1
293 264 1
293 268 1
293 271 1
293 272 1
293 274 1
293 275 1
293 277 1
293 282 1
293 283 1
293 285 1
293 287 1
293 292 1
293 294 1
293 295 1
293 296 1
293 297 1
293 299 1
293 300 1
293 302 1
293 307 1
293 313 1
293 314 1
293 315 1
293 320 1
293 321 1
293 323 1
293 324 1
293 326 1
293 328 1
293 333 1
293 335 1
293 338 1
293 339 1
293 340 1
293 344 1
293 346 1
293 348 1
293 349 1
293 352 1
293 356 1
293 358 1
293 361 1
293 364 1
293 368 1
293 371 1
293 374 1
293 377 1
293 379 1
293 386 1
293 387 1
293 389 1
293 390 1
293 395 1
293 396 1
293 398 1
293 399 1
293 400 1
294 7 1
294 12 1
294 13 1
294 18 1
294 21 1
294 26 1
294 29 1
294 34 1
294 36 1
294 38 1
294 40 1
294 43 1
294 47 1
294 49 1
294 51 1
294 52 1
294 57 1
294 64 1
294 68 1
294 75 1
294 77 1
294 79 1
294 81 1
294 82 1
294 86 1
294 90 1
294 92 1
294 104 1
294 105 1
294 107 1
294 110 1
294 113 1
294 114 1
294 116 1
294 124 1
294 126 1
294 127 1
294 128 1
294 130 1
294 131 1
294 135 1
294 136 1
294 141 1
294 143 1
294 146 1
294 150 1
294 152 1
294 153 1
294 154 1
294 158 1
294 161 1
294 164 1
294 166 1
294 172 1
294 174 1
294 175 1
294 176 1
294 178 1
294 182 1
294 185 1
294 187 1
294 189 1
294 190 1
294 195 1
294 198 1
294 199 1
294 201 1
294 205 1
294 206 1
294 208 1
294 210 1
294 214 1
294 216 1
294 217 1
294 219 1
294 222 1
294 223 1
294 227 1
294 228 1
294 231 1
294 233 1
294 235 1
294 236 1
294 244 1
294 247 1
294 248 1
294 249 1
294 250 1
294 252 1
294 256 1
294 260 1
294 261 1
294 263 1
294 264 1
294 268 1
294 277 1
294 278 1
294 279 1
294 280 1
294 284 1
294 286 1
294 287 1
294 292 1
294 293 1
294 299 1
294 300 1
294 305 1
294 306 1
294 307 1
294 309 1
294 310 1
294 311 1
294 313 1
294 320 1
294 321 1
294 322 1
294 324 1
294 326 1
294 328 1
294 329 1
294 330 1
294 335 1
294 338 1
294 339 1
294 341 1
294 343 1
294 345 1
294 351 1
294 352 1
294 354 1
294 356 1
294 357 1
294 358 1
294 360 1
294 361 1
294 363 1
294 368 1
294 371 1
294 377 1
294 379 1
294 384 1
294 385 1
294 387 1
294 390 1
294 392 1
294 393 1
294 395 1
295 1 1
295 3 1
295 5 1
295 7 1
295 11 1
295 12 1
295 16 1
295 19 1
295 23 1
295 24 1
295 25 1
295 26 1
295 30 1
295 31 1
295 36 1
295 37 1
295 39 1
295 40 1
295 43 1
295 44 1
295 46 1
295 50 1
295 54 1
295 55 1
295 56 1
295 62 1
295 63 1
295 67 1
295 68 1
295 70 1
295 71 1
295 73 1
295 74 1
295 75 1
295 78 1
295 82 1
295 83 1
295 84 1
295 85 1
295 86 1
295 88 1
295 90 1
295 91 1
295 92 1
295 94 1
295 96 1
295 97 1
295 98 1
295 99 1
295 100 1
295 103 1
295 104 1
295 109 1
295 112 1
295 116 1
295 118 1
295 124 1
295 125 1
295 127 1
295 131 1
295 134 1
295 135 1
295 138 1
295 139 1
295 143 1
295 146 1
295 147 1
295 151 1
295 155 1
295 156 1
295 159 1
295 160 1
295 162 1
295 166 1
295 167 1
295 170 1
295 172 1
295 173 1
295 174 1
295 178 1
295 180 1
295 181 1
295 183 1
295 188 1
295 194 1
295 195 1
295 197 1
295 200 1
295 201 1
295 203 1
295 204 1
295 206 1
295 207 1
295 211 1
295 214 1
295 216 1
295 222 1
295 224 1
295 225 1
295 231 1
295 234 1
295 236 1
295 238 1
295 240 1
295 242 1
295 243 1
295 244 1
295 247 1
295 248 1
295 250 1
295 253 1
295 254 1
295 256 1
295 258 1
295 260 1
295 263 1
295 264 1
295 267 1
295 269 1
295 270 1
295 271 1
295 274 1
295 278 1
295 279 1
295 280 1
295 284 1
295 285 1
295 287 1
295 288 1
295 293 1
295 297 1
295 298 1
295 302 1
295 305 1
295 309 1
295 310 1
295 312 1
295 314 1
295 315 1
295 318 1
295 322 1
295 326 1
295 327 1
295 328 1
295 330 1
295 331 1
295 333 1
295 335 1
295 339 1
295 340 1
295 343 1
295 346 1
295 348 1
295 350 1
295 351 1
295 353 1
295 355 1
295 359 1
295 360 1
295 362 1
295 363 1
295 365 1
295 368 1
295 369 1
295 371 1
295 374 1
295 376 1
295 383 1
295 384 1
295 385 1
295 393 1
295 395 1
295 396 1
295 399 1
296 1 1
296 2 1
296 6 1
296 8 1
296 11 1
296 13 1
296 14 1
296 19 1
296 20 1
296 24 1
296 26 1
296 27 1
296 28 1
296 29 1
296 32 1
296 33 1
296 34 1
296 39 1
296 40 1
296 41 1
296 43 1
296 44 1
296 46 1
296 52 1
296 54 1
296 55 1
296 59 1
296 62 1
296 63 1
296 67 1
296 72 1
296 84 1
296 85 1
296 86 1
296 89 1
296 90 1
296 92 1
296 93 1
296 95 1
296 96 1
296 100 1
296 101 1
296 102 1
296 106 1
296 107 1
296 111 1
296 113 1
296 114 1
296 119 1
296 120 1
296 122 1
296 123 1
296 127 1
296 128 1
296 129 1
296 131 1
296 143 1
296 144 1
296 145 1
296 150 1
296 151 1
296 153 1
296 154 1
296 158 1
296 162 1
296 168 1
296 169 1
296 170 1
296 173 1
296 174 1
296 175 1
296 176 1
296 178 1
296 185 1
296 187 1
296 194 1
296 201 1
296 202 1
296 204 1
296 210 1
296 212 1
296 214 1
296 220 1
296 225 1
296 227 1
296 229 1
296 234 1
296 238 1
296 244 1
296 247 1
296 248 1
296 249 1
296 250 1
296 251 1
296 253 1
296 258 1
296 259 1
296 260 1
296 268 1
296 270 1
296 271 1
296 273 1
296 275 1
296 278 1
296 279 1
296 280 1
296 286 1
296 290 1
296 291 1
296 293 1
296 297 1
296 303 1
296 304 1
296 312 1
296 316 1
296 318 1
296 321 1
296 324 1
296 325 1
296 326 1
296 328 1
296 331 1
296 336 1
296 339 1
296 347 1
296 351 1
296 357 1
296 358 1
296 360 1
296 363 1
296 364 1
296 365 1
296 368 1
296 369 1
296 370 1
296 374 1
296 375 1
296 377 1
296 379 1
296 382 1
296 384 1
296 385 1
296 386 1
296 388 1
296 390 1
296 391 1
296 394 1
296 395 1
296 399 1
297 6 1
297 8 1
297 10 1
297 11 1
297 12 1
297 15 1
297 17 1
297 18 1
297 20 1
297 21 1
297 23 1
297 27 1
297 29 1
297 31 1
297 34 1
297 38 1
297 39 1
297 47 1
297 49 1
297 52 1
297 53 1
297 55 1
297 56 1
297 57 1
297 60 1
297 64 1
297 65 1
297 73 1
297 74 1
297 78 1
297 79 1
297 80 1
297 82 1
297 83 1
297 84 1
297 86 1
297 88 1
297 90 1
297 91 1
297 94 1
297 99 1
297 100 1
297 103 1
297 104 1
297 105 1
297 106 1
297 108 1
297 117 1
297 118 1
297 120 1
297 123 1
297 125 1
297 132 1
297 134 1
297 135 1
297 140 1
297 142 1
297 143 1
297 147 1
297 150 1
297 155 1
297 158 1
297 159 1
297 164 1
297 175 1
297 176 1
297 179 1
297 181 1
297 182 1
297 184 1
297 186 1
297 189 1
297 190 1
297 191 1
297 192 1
297 202 1
297 207 1
297 209 1
297 216 1
297 217 1
297 221 1
297 222 1
297 223 1
297 227 1
297 229 1
297 230 1
297 234 1
297 235 1
297 238 1
297 239 1
297 243 1
297 245 1
297 247 1
297 250 1
297 251 1
297 255 1
297 256 1
297 257 1
297 258 1
297 260 1
297 261 1
297 267 1
297 268 1
297 269 1
297 271 1
297 274 1
297 275 1
297 279 1
297 281 1
297 285 1
297 291 1
297 293 1
297 295 1
297 296 1
297 300 1
297 306 1
297 308 1
297 311 1
297 313 1
297 315 1
297 317 1
297 319 1
297 320 1
297 326 1
297 327 1
297 329 1
297 331 1
297 332 1
297 333 1
297 337 1
297 338 1
297 340 1
297 341 1
297 342 1
297 344 1
297 345 1
297 349 1
297 352 1
297 357 1
297 366 1
297 367 1
297 368 1
297 369 1
297 370 1
297 371 1
297 372 1
297 375 1
297 378 1
297 380 1
297 381 1
297 384 1
297 385 1
297 386 1
297 388 1
297 390 1
297 391 1
297 392 1
297 398 1
297 399 1
298 2 1
298 3 1
298 8 1
298 9 1
298 20 1
298 22 1
298 23 1
298 24 1
298 25 1
298 27 1
298 28 1
298 33 1
298 35 1
298 39 1
298 40 1
298 41 1
298 42 1
298 43 1
298 44 1
298 46 1
298 47 1
298 49 1
298 51 1
298 56 1
298 59 1
298 61 1
298 63 1
298 64 1
298 65 1
298 68 1
298 70 1
298 72 1
298 75 1
298 76 1
298 77 1
298 78 1
298 82 1
298 85 1
298 88 1
298 89 1
298 92 1
298 95 1
298 96 1
298 97 1
298 104 1
298 106 1
298 108 1
298 110 1
298 113 1
298 118 1
298 119 1
298 120 1
298 123 1
298 125 1
298 127 1
298 128 1
298 129 1
298 130 1
298 131 1
298 135 1
298 137 1
298 138 1
298 140 1
298 141 1
298 143 1
298 150 1
298 154 1
298 155 1
298 159 1
298 163 1
298 165 1
298 168 1
298 170 1
298 172 1
298 176 1
298 180 1
298 182 1
298 183 1
298 184 1
298 192 1
298 193 1
298 197 1
298 198 1
298 205 1
298 206 1
298 207 1
298 211 1
298 213 1
298 216 1
298 218 1
298 220 1
298 221 1
298 222 1
298 223 1
298 224 1
298 226 1
298 227 1
298 231 1
298 234 1
298 244 1
298 255 1
298 257 1
298 258 1
298 263 1
298 264 1
298 268 1
298 269 1
298 270 1
298 271 1
298 273 1
298 275 1
298 280 1
298 282 1
298 283 1
298 285 1
298 288 1
298 290 1
298 295 1
298 301 1
298 308 1
298 309 1
298 310 1
298 311 1
298 312 1
298 314 1
298 315 1
298 317 1
298 320 1
298 323 1
298 326 1
298 330 1
298 332 1
298 333 1
298 335 1
298 338 1
298 339 1
298 340 1
298 343 1
298 344 1
298 348 1
298 357 1
298 362 1
298 364 1
298 365 1
298 366 1
298 367 1
298 369 1
298 370 1
298 371 1
298 372 1
298 373 1
298 376 1
298 384 1
298 393 1
298 394 1
298 396 1
298 400 1
299 1 1
299 2 1
299 3 1
299 7 1
299 9 1
299 11 1
299 14 1
299 19 1
299 20 1
299 21 1
299 26 1
299 27 1
299 30 1
299 33 1
299 35 1
299 38 1
299 40 1
299 47 1
299 49 1
299 50 1
299 53 1
299 54 1
299 55 1
299 57 1
299 59 1
299 61 1
299 64 1
299 66 1
299 68 1
299 72 1
299 74 1
299 75 1
299 77 1
299 78 1
299 80 1
299 81 1
299 83 1
299 85 1
299 88 1
299 89 1
299 90 1
299 92 1
299 95 1
299 98 1
299 102 1
299 104 1
299 106 1
299 109 1
299 110 1
299 111 1
299 114 1
299 115 1
299 117 1
299 118 1
299 119 1
299 120 1
299 124 1
299 125 1
299 137 1
299 140 1
299 142 1
299 144 1
299 149 1
299 152 1
299 153 1
299 159 1
299 161 1
299 167 1
299 168 1
299 169 1
299 172 1
299 175 1
299 176 1
299 177 1
299 178 1
299 179 1
299 180 1
299 181 1
299 183 1
299 187 1
299 188 1
299 193 1
299 195 1
299 196 1
299 198 1
299 200 1
299 208 1
299 210 1
299 211 1
299 214 1
299 215 1
299 216 1
299 217 1
299 218 1
299 221 1
299 222 1
299 227 1
299 228 1
299 237 1
299 239 1
299 241 1
299 244 1
299 247 1
299 251 1
299 261 1
299 263 1
299 266 1
299 267 1
299 269 1
299 270 1
299 276 1
299 277 1
299 278 1
299 279 1
299 282 1
299 283 1
299 286 1
299 287 1
299 289 1
299 292 1
299 293 1
299 294 1
299 300 1
299 302 1
299 312 1
299 314 1
299 318 1
299 319 1
299 321 1
299 322 1
299 323 1
299 325 1
299 328 1
299 331 1
299 332 1
299 334 1
299 336 1
299 340 1
299 345 1
299 348 1
299 351 1
299 356 1
299 360 1
299 361 1
299 362 1
299 364 1
299 365 1
299 368 1
299 369 1
299 373 1
299 374 1
299 377 1
299 378 1
299 379 1
299 380 1
299 381 1
299 382 1
299 383 1
299 384 1
299 385 1
299 389 1
299 390 1
299 392 1
299 394 1
299 398 1
300 1 1
300 5 1
300 8 1
300 12 1
300 14 1
300 16 1
300 19 1
300 25 1
300 26 1
300 27 1
300 32 1
300 33 1
300 35 1
300 37 1
300 38 1
300 46 1
300 47 1
300 49 1
300 52 1
300 61 1
300 62 1
300 64 1
300 65 1
300 67 1
300 68 1
300 71 1
300 73 1
300 79 1
300 81 1
300 83 1
300 85 1
300 86 1
300 88 1
300 89 1
300 94 1
300 96 1
300 97 1
300 101 1
300 102 1
300 103 1
300 105 1
300 107 1
300 108 1
300 109 1
300 110 1
300 112 1
300 113 1
300 117 1
300 121 1
300 122 1
300 124 1
300 125 1
300 128 1
300 132 1
300 134 1
300 136 1
300 138 1
300 139 1
300 140 1
300 142 1
300 143 1
300 144 1
300 148 1
300 150 1
300 151 1
300 152 1
300 153 1
300 154 1
300 157 1
300 160 1
300 163 1
300 164 1
300 167 1
300 169 1
300 172 1
300 173 1
300 176 1
300 181 1
300 182 1
300 183 1
300 185 1
300 187 1
300 188 1
300 189 1
300 191 1
300 192 1
300 200 1
300 204 1
300 205 1
300 206 1
300 208 1
300 212 1
300 217 1
300 218 1
300 222 1
300 225 1
300 228 1
300 230 1
300 233 1
300 239 1
300 242 1
300 243 1
300 251 1
300 255 1
300 259 1
300 260 1
300 263 1
300 266 1
300 267 1
300 269 1
300 273 1
300 274 1
300 275 1
300 276 1
300 277 1
300 280 1
300 282 1
300 283 1
300 289 1
300 291 1
300 293 1
300 294 1
300 297 1
300 299 1
300 301 1
300 302 1
300 304 1
300 306 1
300 307 1
300 310 1
300 313 1
300 317 1
300 318 1
300 322 1
300 323 1
300 327 1
300 328 1
300 329 1
300 331 1
300 332 1
300 335 1
300 337 1
300 346 1
300 347 1
300 349 1
300 352 1
300 358 1
300 363 1
300 365 1
300 368 1
300 370 1
300 376 1
300 378 1
300 380 1
300 382 1
300 386 1
300 388 1
300 395 1
300 396 1
300 400 1
301 2 1
301 3 1
301 9 1
301 10 1
301 13 1
301 17 1
301 19 1
301 21 1
301 23 1
301 27 1
301 31 1
301 38 1
301 45 1
301 46 1
301 49 1
301 50 1
301 51 1
301 54 1
301 55 1
301 58 1
301 64 1
301 65 1
301 68 1
301 71 1
301 72 1
301 73 1
301 76 1
301 80 1
301 81 1
301 82 1
301 83 1
301 84 1
301 85 1
301 86 1
301 87 1
301 88 1
301 89 1
301 96 1
301 106 1
301 107 1
301 108 1
301 109 1
301 111 1
301 112 1
301 113 1
301 114 1
301 116 1
301 117 1
301 120 1
301 121 1
301 122 1
301 124 1
301 125 1
301 127 1
301 131 1
301 136 1
301 138 1
301 139 1
301 142 1
301 143 1
301 146 1
301 150 1
301 153 1
301 156 1
301 159 1
301 163 1
301 164 1
301 165 1
301 167 1
301 168 1
301 169 1
301 171 1
301 173 1
301 174 1
301 175 1
301 176 1
301 181 1
301 182 1
301 184 1
301 186 1
301 187 1
301 190 1
301 191 1
301 193 1
301 196 1
301 199 1
301 204 1
301 205 1
301 207 1
301 212 1
301 213 1
301 220 1
301 222 1
301 223 1
301 225 1
301 228 1
301 229 1
301 238 1
301 240 1
301 245 1
301 246 1
301 253 1
301 255 1
301 257 1
301 258 1
301 260 1
301 262 1
301 264 1
301 270 1
301 274 1
301 275 1
301 277 1
301 280 1
301 282 1
301 290 1
301 298 1
301 300 1
301 306 1
301 310 1
301 315 1
301 316 1
301 318 1
301 323 1
301 327 1
301 331 1
301 334 1
301 336 1
301 339 1
301 340 1
301 346 1
301 351 1
301 352 1
301 356 1
301 357 1
301 358 1
301 359 1
301 361 1
301 363 1
301 364 1
301 366 1
301 372 1
301 378 1
301 379 1
301 382 1
301 385 1
301 387 1
301 388 1
301 389 1
301 393 1
301 396 1
301 399 1
302 2 1
302 4 1
302 6 1
302 17 1
302 18 1
302 19 1
302 20 1
302 23 1
302 24 1
302 25 1
302 26 1
302 27 1
302 30 1
302 33 1
302 34 1
302 35 1
302 37 1
302 38 1
302 40 1
302 44 1
302 45 1
302 48 1
302 49 1
302 50 1
302 52 1
302 54 1
302 55 1
302 61 1
302 62 1
302 63 1
302 64 1
302 67 1
302 68 1
302 70 1
302 71 1
302 73 1
302 77 1
302 78 1
302 82 1
302 83 1
302 84 1
302 86 1
302 93 1
302 95 1
302 96 1
302 97 1
302 99 1
302 101 1
302 105 1
302 110 1
302 114 1
302 117 1
302 119 1
302 122 1
302 129 1
302 130 1
302 132 1
302 137 1
302 142 1
302 148 1
302 149 1
302 151 1
302 153 1
302 157 1
302 159 1
302 161 1
302 169 1
302 170 1
302 171 1
302 176 1
302 177 1
302 179 1
302 180 1
302 183 1
302 186 1
302 189 1
302 191 1
302 192 1
302 194 1
302 195 1
302 196 1
302 197 1
302 199 1
302 204 1
302 206 1
302 210 1
302 213 1
302 217 1
302 220 1
302 221 1
302 223 1
302 226 1
302 229 1
302 231 1
302 233 1
302 234 1
302 238 1
302 239 1
302 240 1
302 243 1
302 246 1
302 249 1
302 253 1
302 257 1
302 259 1
302 261 1
302 264 1
302 268 1
302 269 1
302 271 1
302 272 1
302 273 1
302 275 1
302 276 1
302 283 1
302 284 1
302 285 1
302 291 1
302 293 1
302 295 1
302 299 1
302 300 1
302 305 1
302 306 1
302 307 1
302 313 1
302 317 1
302 322 1
302 325 1
302 326 1
302 329 1
302 331 1
302 332 1
302 337 1
302 338 1
302 347 1
302 349 1
302 352 1
302 355 1
302 357 1
302 363 1
302 364 1
302 372 1
302 384 1
302 389 1
302 390 1
302 391 1
302 394 1
302 397 1
302 400 1
303 1 1
303 2 1
303 3 1
303 5 1
303 8 1
303 9 1
303 12 1
303 14 1
303 15 1
303 17 1
303 19 1
303 23 1
303 24 1
303 25 1
303 27 1
303 32 1
303 34 1
303 36 1
303 37 1
303 43 1
303 44 1
303 46 1
303 47 1
303 50 1
303 51 1
303 52 1
303 54 1
303 55 1
303 58 1
303 60 1
303 62 1
303 64 1
303 65 1
303 68 1
303 70 1
303 71 1
303 73 1
303 74 1
303 77 1
303 79 1
303 82 1
303 83 1
303 84 1
303 89 1
303 90 1
303 91 1
303 92 1
303 95 1
303 99 1
303 101 1
303 105 1
303 106 1
303 107 1
303 108 1
303 109 1
303 112 1
303 113 1
303 117 1
303 118 1
303 120 1
303 123 1
303 125 1
303 126 1
303 128 1
303 134 1
303 135 1
303 137 1
303 138 1
303 142 1
303 144 1
303 145 1
303 147 1
303 153 1
303 157 1
303 158 1
303 159 1
303 160 1
303 162 1
303 166 1
303 167 1
303 169 1
303 170 1
303 171 1
303 175 1
303 178 1
303 179 1
303 180 1
303 182 1
303 184 1
303 185 1
303 187 1
303 190 1
303 191 1
303 196 1
303 205 1
303 207 1
303 208 1
303 211 1
303 212 1
303 215 1
303 218 1
303 219 1
303 223 1
303 224 1
303 225 1
303 229 1
303 230 1
303 232 1
303 233 1
303 235 1
303 236 1
303 239 1
303 240 1
303 243 1
303 248 1
303 258 1
303 262 1
303 263 1
303 265 1
303 266 1
303 271 1
303 272 1
303 278 1
303 279 1
303 283 1
303 284 1
303 287 1
303 290 1
303 291 1
303 296 1
303 306 1
303 310 1
303 311 1
303 313 1
303 314 1
303 315 1
303 317 1
303 318 1
303 326 1
303 329 1
303 330 1
303 331 1
303 332 1
303 334 1
303 335 1
303 337 1
303 342 1
303 344 1
303 350 1
303 351 1
303 352 1
303 355 1
303 356 1
303 360 1
303 361 1
303 362 1
303 363 1
303 366 1
303 367 1
303 368 1
303 369 1
303 370 1
303 372 1
303 376 1
303 378 1
303 381 1
303 386 1
303 388 1
303 389 1
303 390 1
303 392 1
303 393 1
303 395 1
303 396 1
303 399 1
304 1 1
304 3 1
304 10 1
304 16 1
304 22 1
304 25 1
304 27 1
304 30 1
304 32 1
304 33 1
304 35 1
304 39 1
304 44 1
304 47 1
304 48 1
304 49 1
304 52 1
304 55 1
304 56 1
304 58 1
304 59 1
304 61 1
304 64 1
304 66 1
304 68 1
304 70 1
304 71 1
304 74 1
304 76 1
304 78 1
304 79 1
304 83 1
304 85 1
304 86 1
304 87 1
304 90 1
304 94 1
304 96 1
304 98 1
304 100 1
304 107 1
304 111 1
304 114 1
304 116 1
304 119 1
304 120 1
304 123 1
304 124 1
304 127 1
304 129 1
304 131 1
304 133 1
304 136 1
304 137 1
304 138 1
304 142 1
304 145 1
304 146 1
304 151 1
304 152 1
304 154 1
304 155 1
304 157 1
304 159 1
304 160 1
304 161 1
304 162 1
304 163 1
304 165 1
304 167 1
304 171 1
304 172 1
304 173 1
304 179 1
304 185 1
304 187 1
304 188 1
304 191 1
304 195 1
304 198 1
304 202 1
304 204 1
304 205 1
304 207 1
304 210 1
304 217 1
304 219 1
304 220 1
304 221 1
304 230 1
304 231 1
304 236 1
304 237 1
304 238 1
304 241 1
304 242 1
304 247 1
304 249 1
304 250 1
304 257 1
304 259 1
304 261 1
304 262 1
304 265 1
304 267 1
304 270 1
304 274 1
304 275 1
304 276 1
304 277 1
304 280 1
304 281 1
304 283 1
304 285 1
304 286 1
304 289 1
304 292 1
304 296 1
304 300 1
304 311 1
304 313 1
304 314 1
304 316 1
304 320 1
304 321 1
304 323 1
304 324 1
304 331 1
304 333 1
304 338 1
304 340 1
304 342 1
304 343 1
304 346 1
304 348 1
304 353 1
304 354 1
304 356 1
304 357 1
304 364 1
304 371 1
304 373 1
304 376 1
304 377 1
304 378 1
304 383 1
304 384 1
304 388 1
304 389 1
304 392 1
304 393 1
304 396 1
304 397 1
304 398 1
304 399 1
305 2 1
305 8 1
305 10 1
305 11 1
305 12 1
305 16 1
305 17 1
305 23 1
305 24 1
305 31 1
305 32 1
305 35 1
305 37 1
305 40 1
305 41 1
305 42 1
305 48 1
305 49 1
305 51 1
305 54 1
305 55 1
305 57 1
305 59 1
305 60 1
305 62 1
305 64 1
305 68 1
305 72 1
305 79 1
305 80 1
305 81 1
305 85 1
305 86 1
305 93 1
305 99 1
305 102 1
305 103 1
305 110 1
305 111 1
305 112 1
305 113 1
305 117 1
305 119 1
305 120 1
305 121 1
305 123 1
305 124 1
305 127 1
305 128 1
305 130 1
305 131 1
305 132 1
305 133 1
305 134 1
305 135 1
305 139 1
305 142 1
305 143 1
305 145 1
305 150 1
305 153 1
305 155 1
305 157 1
305 158 1
305 160 1
305 161 1
305 164 1
305 167 1
305 168 1
305 178 1
305 180 1
305 181 1
305 183 1
305 184 1
305 187 1
305 188 1
305 189 1
305 193 1
305 194 1
305 195 1
305 196 1
305 197 1
305 199 1
305 203 1
305 204 1
305 206 1
305 207 1
305 210 1
305 215 1
305 217 1
305 219 1
305 220 1
305 222 1
305 228 1
305 230 1
305 232 1
305 244 1
305 248 1
305 249 1
305 254 1
305 256 1
305 258 1
305 262 1
305 263 1
305 264 1
305 266 1
305 269 1
305 274 1
305 278 1
305 279 1
305 282 1
305 283 1
305 285 1
305 287 1
305 289 1
305 291 1
305 294 1
305 295 1
305 302 1
305 306 1
305 308 1
305 309 1
305 311 1
305 316 1
305 317 1
305 322 1
305 327 1
305 328 1
305 330 1
305 333 1
305 338 1
305 343 1
305 344 1
305 347 1
305 350 1
305 353 1
305 354 1
305 356 1
305 360 1
305 361 1
305 364 1
305 370 1
305 371 1
305 373 1
305 374 1
305 377 1
305 378 1
305 381 1
305 383 1
305 384 1
305 385 1
305 387 1
305 391 1
305 394 1
306 2 1
306 4 1
306 7 1
306 9 1
306 14 1
306 15 1
306 17 1
306 18 1
306 19 1
306 22 1
306 24 1
306 26 1
306 27 1
306 28 1
306 29 1
306 31 1
306 34 1
306 36 1
306 45 1
306 47 1
306 48 1
306 52 1
306 54 1
306 57 1
306 58 1
306 59 1
306 60 1
306 61 1
306 62 1
306 66 1
306 68 1
306 69 1
306 70 1
306 71 1
306 74 1
306 75 1
306 76 1
306 79 1
306 80 1
306 83 1
306 84 1
306 88 1
306 90 1
306 94 1
306 96 1
306 98 1
306 99 1
306 105 1
306 109 1
306 110 1
306 111 1
306 114 1
306 115 1
306 117 1
306 119 1
306 120 1
306 123 1
306 128 1
306 129 1
306 132 1
306 133 1
306 135 1
306 144 1
306 145 1
306 146 1
306 149 1
306 150 1
306 153 1
306 157 1
306 161 1
306 163 1
306 164 1
306 168 1
306 173 1
306 174 1
306 176 1
306 178 1
306 181 1
306 184 1
306 185 1
306 189 1
306 190 1
306 192 1
306 193 1
306 194 1
306 195 1
306 204 1
306 205 1
306 206 1
306 211 1
306 213 1
306 218 1
306 219 1
306 220 1
306 223 1
306 228 1
306 229 1
306 232 1
306 240 1
306 241 1
306 242 1
306 249 1
306 250 1
306 252 1
306 253 1
306 254 1
306 255 1
306 257 1
306 259 1
306 261 1
306 263 1
306 266 1
306 268 1
306 269 1
306 271 1
306 272 1
306 276 1
306 280 1
306 285 1
306 286 1
306 289 1
306 292 1
306 294 1
306 297 1
306 300 1
306 301 1
306 302 1
306 303 1
306 305 1
306 307 1
306 311 1
306 315 1
306 318 1
306 323 1
306 325 1
306 326 1
306 331 1
306 333 1
306 334 1
306 335 1
306 336 1
306 337 1
306 339 1
306 341 1
306 343 1
306 345 1
306 348 1
306 350 1
306 353 1
306 354 1
306 356 1
306 366 1
306 367 1
306 372 1
306 373 1
306 375 1
306 376 1
306 379 1
306 380 1
306 382 1
306 387 1
306 388 1
306 389 1
306 393 1
306 394 1
306 395 1
306 398 1
306 399 1
307 2 1
307 4 1
307 8 1
307 9 1
307 12 1
307 13 1
307 14 1
307 16 1
307 17 1
307 26 1
307 27 1
307 28 1
307 31 1
307 34 1
307 35 1
307 37 1
307 38 1
307 39 1
307 44 1
307 51 1
307 53 1
307 56 1
307 58 1
307 60 1
307 63 1
307 67 1
307 69 1
307 71 1
307 76 1
307 77 1
307 78 1
307 79 1
307 81 1
307 85 1
307 86 1
307 87 1
307 88 1
307 91 1
307 96 1
307 102 1
307 103 1
307 104 1
307 106 1
307 107 1
307 110 1
307 112 1
307 114 1
307 117 1
307 120 1
307 123 1
307 124 1
307 126 1
307 128 1
307 131 1
307 133 1
307 134 1
307 135 1
307 138 1
307 139 1
307 141 1
307 142 1
307 143 1
307 144 1
307 145 1
307 148 1
307 150 1
307 152 1
307 153 1
307 154 1
307 157 1
307 159 1
307 161 1
307 163 1
307 164 1
307 165 1
307 166 1
307 168 1
307 171 1
307 173 1
307 180 1
307 181 1
307 183 1
307 185 1
307 186 1
307 188 1
307 189 1
307 190 1
307 193 1
307 197 1
307 199 1
307 201 1
307 202 1
307 203 1
307 204 1
307 207 1
307 209 1
307 210 1
307 211 1
307 217 1
307 220 1
307 221 1
307 224 1
307 225 1
307 226 1
307 227 1
307 228 1
307 230 1
307 233 1
307 234 1
307 235 1
307 237 1
307 238 1
307 242 1
307 249 1
307 251 1
307 253 1
307 255 1
307 256 1
307 259 1
307 260 1
307 261 1
307 266 1
307 267 1
307 270 1
307 271 1
307 272 1
307 275 1
307 277 1
307 278 1
307 279 1
307 281 1
307 282 1
307 284 1
307 285 1
307 289 1
307 293 1
307 294 1
307 300 1
307 302 1
307 306 1
307 308 1
307 311 1
307 312 1
307 314 1
307 318 1
307 322 1
307 323 1
307 328 1
307 330 1
307 331 1
307 335 1
307 338 1
307 339 1
307 341 1
307 342 1
307 343 1
307 345 1
307 347 1
307 348 1
307 356 1
307 359 1
307 363 1
307 365 1
307 366 1
307 368 1
307 371 1
307 372 1
307 373 1
307 374 1
307 376 1
307 377 1
307 380 1
307 383 1
307 387 1
307 388 1
307 392 1
307 397 1
308 5 1
308 6 1
308 7 1
308 8 1
308 9 1
308 10 1
308 16 1
308 18 1
308 19 1
308 20 1
308 21 1
308 22 1
308 24 1
308 26 1
308 27 1
308 28 1
308 31 1
308 35 1
308 36 1
308 37 1
308 39 1
308 40 1
308 41 1
308 44 1
308 46 1
308 49 1
308 50 1
308 54 1
308 55 1
308 59 1
308 61 1
308 63 1
308 65 1
308 69 1
308 71 1
308 72 1
308 74 1
308 77 1
308 79 1
308 82 1
308 86 1
308 88 1
308 89 1
308 90 1
308 97 1
308 99 1
308 100 1
308 101 1
308 102 1
308 103 1
308 104 1
308 106 1
308 107 1
308 108 1
308 112 1
308 113 1
308 122 1
308 123 1
308 128 1
308 132 1
308 133 1
308 141 1
308 143 1
308 146 1
308 153 1
308 154 1
308 157 1
308 159 1
308 160 1
308 161 1
308 164 1
308 167 1
308 171 1
308 172 1
308 173 1
308 175 1
308 177 1
308 178 1
308 179 1
308 185 1
308 186 1
308 188 1
308 192 1
308 193 1
308 194 1
308 195 1
308 196 1
308 199 1
308 201 1
308 202 1
308 205 1
308 207 1
308 209 1
308 211 1
308 213 1
308 215 1
308 216 1
308 217 1
308 218 1
308 228 1
308 235 1
308 237 1
308 243 1
308 245 1
308 248 1
308 250 1
308 251 1
308 252 1
308 253 1
308 254 1
308 255 1
308 256 1
308 257 1
308 258 1
308 259 1
308 260 1
308 267 1
308 268 1
308 269 1
308 271 1
308 274 1
308 276 1
308 277 1
308 278 1
308 280 1
308 286 1
308 288 1
308 297 1
308 298 1
308 305 1
308 307 1
308 309 1
308 310 1
308 311 1
308 314 1
308 317 1
308 319 1
308 320 1
308 321 1
308 322 1
308 324 1
308 325 1
308 326 1
308 328 1
308 331 1
308 335 1
308 338 1
308 339 1
308 341 1
308 343 1
308 346 1
308 348 1
308 349 1
308 353 1
308 355 1
308 356 1
308 358 1
308 363 1
308 365 1
308 366 1
308 369 1
308 370 1
308 374 1
308 380 1
308 385 1
308 390 1
308 392 1
308 393 1
308 394 1
308 395 1
308 396 1
308 399 1
309 2 1
309 5 1
309 11 1
309 12 1
309 18 1
309 19 1
309 26 1
309 27 1
309 28 1
309 30 1
309 34 1
309 36 1
309 39 1
309 40 1
309 46 1
309 50 1
309 53 1
309 54 1
309 55 1
309 56 1
309 60 1
309 64 1
309 69 1
309 70 1
309 75 1
309 79 1
309 80 1
309 84 1
309 85 1
309 88 1
309 89 1
309 90 1
309 95 1
309 97 1
309 98 1
309 101 1
309 105 1
309 107 1
309 108 1
309 109 1
309 113 1
309 114 1
309 115 1
309 116 1
309 119 1
309 120 1
309 121 1
309 126 1
309 132 1
309 134 1
309 137 1
309 139 1
309 143 1
309 149 1
309 150 1
309 151 1
309 158 1
309 159 1
309 161 1
309 162 1
309 164 1
309 168 1
309 171 1
309 172 1
309 176 1
309 178 1
309 182 1
309 190 1
309 191 1
309 192 1
309 193 1
309 194 1
309 196 1
309 199 1
309 208 1
309 209 1
309 210 1
309 211 1
309 212 1
309 217 1
309 222 1
309 224 1
309 227 1
309 229 1
309 231 1
309 232 1
309 238 1
309 245 1
309 247 1
309 249 1
309 250 1
309 251 1
309 252 1
309 255 1
309 257 1
309 260 1
309 262 1
309 266 1
309 273 1
309 274 1
309 275 1
309 276 1
309 277 1
309 285 1
309 286 1
309 287 1
309 288 1
309 290 1
309 291 1
309 294 1
309 295 1
309 298 1
309 305 1
309 308 1
309 310 1
309 312 1
309 313 1
309 317 1
309 318 1
309 324 1
309 325 1
309 327 1
309 330 1
309 331 1
309 332 1
309 339 1
309 343 1
309 350 1
309 356 1
309 357 1
309 361 1
309 363 1
309 366 1
309 370 1
309 372 1
309 373 1
309 376 1
309 379 1
309 381 1
309 382 1
309 383 1
309 384 1
309 387 1
309 389 1
309 390 1
309 392 1
309 393 1
309 394 1
309 395 1
309 396 1
309 397 1
309 399 1
310 1 1
310 6 1
310 8 1
310 10 1
310 13 1
310 16 1
310 18 1
310 21 1
310 24 1
310 28 1
310 32 1
310 33 1
310 35 1
310 36 1
310 40 1
310 42 1
310 44 1
310 45 1
310 46 1
310 48 1
310 49 1
310 51 1
310 54 1
310 57 1
310 58 1
310 60 1
310 62 1
310 65 1
310 66 1
310 67 1
310 68 1
310 73 1
310 75 1
310 81 1
310 93 1
310 94 1
310 96 1
310 100 1
310 103 1
310 108 1
310 109 1
310 111 1
310 113 1
310 116 1
310 119 1
310 120 1
310 121 1
310 123 1
310 132 1
310 135 1
310 137 1
310 138 1
310 143 1
310 145 1
310 146 1
310 148 1
310 149 1
310 152 1
310 153 1
310 154 1
310 157 1
310 158 1
310 163 1
310 166 1
310 167 1
310 171 1
310 175 1
310 176 1
310 178 1
310 185 1
310 186 1
310 190 1
310 191 1
310 196 1
310 206 1
310 209 1
310 210 1
310 211 1
310 212 1
310 213 1
310 217 1
310 219 1
310 220 1
310 222 1
310 224 1
310 227 1
310 235 1
310 237 1
310 239 1
310 244 1
310 255 1
310 256 1
310 258 1
310 261 1
310 262 1
310 264 1
310 268 1
310 273 1
310 274 1
310 275 1
310 277 1
310 279 1
310 280 1
310 281 1
310 284 1
310 285 1
310 286 1
310 288 1
310 292 1
310 294 1
310 295 1
310 298 1
310 300 1
310 301 1
310 303 1
310 308 1
310 309 1
310 311 1
310 318 1
310 319 1
310 320 1
310 322 1
310 327 1
310 330 1
310 332 1
310 337 1
310 340 1
310 343 1
310 345 1
310 347 1
310 348 1
310 352 1
310 354 1
310 355 1
310 356 1
310 360 1
310 361 1
310 363 1
310 366 1
310 367 1
310 368 1
310 370 1
310 374 1
310 378 1
310 379 1
310 380 1
310 381 1
310 384 1
310 385 1
310 386 1
310 387 1
310 388 1
310 391 1
310 392 1
310 395 1
310 398 1
311 2 1
311 4 1
311 8 1
311 9 1
311 11 1
311 13 1
311 14 1
311 15 1
311 16 1
311 17 1
311 20 1
311 21 1
311 23 1
311 25 1
311 27 1
311 31 1
311 33 1
311 39 1
311 42 1
311 45 1
311 50 1
311 59 1
311 60 1
311 62 1
311 72 1
311 74 1
311 77 1
311 83 1
311 84 1
311 88 1
311 97 1
311 99 1
311 101 1
311 102 1
311 104 1
311 106 1
311 112 1
311 119 1
311 122 1
311 129 1
311 130 1
311 131 1
311 133 1
311 134 1
311 138 1
311 142 1
311 144 1
311 145 1
311 147 1
311 148 1
311 150 1
311 152 1
311 155 1
311 157 1
311 159 1
311 161 1
311 162 1
311 166 1
311 169 1
311 170 1
311 174 1
311 177 1
311 180 1
311 181 1
311 182 1
311 185 1
311 186 1
311 193 1
311 194 1
311 200 1
311 201 1
311 202 1
311 207 1
311 210 1
311 211 1
311 212 1
311 213 1
311 214 1
311 215 1
311 218 1
311 219 1
311 225 1
311 226 1
311 227 1
311 229 1
311 230 1
311 241 1
311 243 1
311 244 1
311 246 1
311 247 1
311 255 1
311 256 1
311 259 1
311 262 1
311 265 1
311 271 1
311 276 1
311 277 1
311 279 1
311 280 1
311 282 1
311 283 1
311 284 1
311 288 1
311 289 1
311 292 1
311 294 1
311 297 1
311 298 1
311 303 1
311 304 1
311 305 1
311 306 1
311 307 1
311 308 1
311 310 1
311 312 1
311 314 1
311 317 1
311 323 1
311 325 1
311 326 1
311 337 1
311 338 1
311 340 1
311 341 1
311 342 1
311 347 1
311 349 1
311 354 1
311 355 1
311 357 1
311 363 1
311 366 1
311 367 1
311 368 1
311 371 1
311 373 1
311 378 1
311 379 1
311 384 1
311 387 1
311 388 1
311 392 1
311 393 1
311 395 1
311 397 1
311 399 1
312 1 1
312 6 1
312 8 1
312 10 1
312 11 1
312 12 1
312 22 1
312 28 1
312 29 1
312 34 1
312 36 1
312 37 1
312 40 1
312 45 1
312 48 1
312 49 1
312 52 1
312 54 1
312 56 1
312 60 1
312 62 1
312 66 1
312 68 1
312 73 1
312 76 1
312 79 1
312 84 1
312 85 1
312 88 1
312 89 1
312 93 1
312 97 1
312 98 1
312 99 1
312 100 1
312 101 1
312 102 1
312 103 1
312 107 1
312 109 1
312 110 1
312 113 1
312 117 1
312 131 1
312 133 1
312 134 1
312 136 1
312 139 1
312 141 1
312 143 1
312 148 1
312 151 1
312 152 1
312 153 1
312 154 1
312 156 1
312 158 1
312 166 1
312 174 1
312 177 1
312 181 1
312 184 1
312 187 1
312 190 1
312 191 1
312 196 1
312 198 1
312 202 1
312 205 1
312 207 1
312 208 1
312 210 1
312 223 1
312 224 1
312 225 1
312 233 1
312 234 1
312 242 1
312 246 1
312 250 1
312 252 1
312 253 1
312 254 1
312 257 1
312 259 1
312 262 1
312 266 1
312 267 1
312 270 1
312 274 1
312 277 1
312 278 1
312 279 1
312 282 1
312 283 1
312 284 1
312 285 1
312 288 1
312 295 1
312 296 1
312 298 1
312 299 1
312 307 1
312 309 1
312 311 1
312 313 1
312 315 1
312 317 1
312 318 1
312 321 1
312 322 1
312 323 1
312 324 1
312 331 1
312 332 1
312 335 1
312 336 1
312 344 1
312 347 1
312 348 1
312 355 1
312 356 1
312 362 1
312 363 1
312 373 1
312 377 1
312 378 1
312 380 1
312 381 1
312 384 1
312 394 1
312 395 1
312 397 1
312 399 1
312 400 1
313 1 1
313 2 1
313 5 1
313 11 1
313 14 1
313 16 1
313 17 1
313 18 1
313 19 1
313 23 1
313 27 1
313 28 1
313 30 1
313 31 1
313 32 1
313 35 1
313 43 1
313 47 1
313 53 1
313 58 1
313 59 1
313 60 1
313 63 1
313 64 1
313 66 1
313 71 1
313 73 1
313 75 1
313 78 1
313 79 1
313 81 1
313 82 1
313 83 1
313 85 1
313 89 1
313 92 1
313 96 1
313 103 1
313 104 1
313 106 1
313 109 1
313 116 1
313 117 1
313 118 1
313 121 1
313 125 1
313 126 1
313 127 1
313 135 1
313 136 1
313 137 1
313 139 1
313 143 1
313 146 1
313 149 1
313 150 1
313 151 1
313 152 1
313 153 1
313 156 1
313 158 1
313 165 1
313 167 1
313 169 1
313 170 1
313 174 1
313 175 1
313 176 1
313 179 1
313 183 1
313 184 1
313 185 1
313 186 1
313 187 1
313 188 1
313 189 1
313 190 1
313 191 1
313 195 1
313 199 1
313 200 1
313 201 1
313 202 1
313 203 1
313 204 1
313 206 1
313 212 1
313 213 1
313 218 1
313 219 1
313 221 1
313 225 1
313 228 1
313 230 1
313 231 1
313 232 1
313 234 1
313 236 1
313 238 1
313 239 1
313 243 1
313 245 1
313 246 1
313 248 1
313 249 1
313 252 1
313 255 1
313 259 1
313 264 1
313 270 1
313 271 1
313 272 1
313 273 1
313 274 1
313 279 1
313 280 1
313 281 1
313 283 1
313 284 1
313 286 1
313 287 1
313 288 1
313 289 1
313 291 1
313 292 1
313 293 1
313 294 1
313 297 1
313 300 1
313 302 1
313 303 1
313 304 1
313 309 1
313 312 1
313 314 1
313 316 1
313 317 1
313 320 1
313 322 1
313 324 1
313 327 1
313 328 1
313 332 1
313 334 1
313 335 1
313 337 1
313 338 1
313 339 1
313 340 1
313 341 1
313 344 1
313 345 1
313 348 1
313 355 1
313 357 1
313 358 1
313 359 1
313 369 1
313 370 1
313 371 1
313 373 1
313 374 1
313 375 1
313 381 1
313 383 1
313 391 1
313 392 1
313 396 1
313 397 1
313 399 1
313 400 1
314 4 1
314 7 1
314 9 1
314 11 1
314 17 1
314 23 1
314 27 1
314 30 1
314 31 1
314 35 1
314 37 1
314 39 1
314 46 1
314 49 1
314 50 1
314 55 1
314 59 1
314 61 1
314 62 1
314 65 1
314 66 1
314 67 1
314 68 1
314 69 1
314 70 1
314 72 1
314 77 1
314 80 1
314 84 1
314 88 1
314 92 1
314 93 1
314 94 1
314 95 1
314 101 1
314 102 1
314 110 1
314 111 1
314 112 1
314 116 1
314 117 1
314 120 1
314 123 1
314 124 1
314 125 1
314 126 1
314 127 1
314 129 1
314 132 1
314 135 1
314 136 1
314 137 1
314 138 1
314 139 1
314 144 1
314 146 1
314 149 1
314 150 1
314 151 1
314 152 1
314 153 1
314 156 1
314 158 1
314 161 1
314 164 1
314 167 1
314 168 1
314 171 1
314 172 1
314 174 1
314 178 1
314 179 1
314 185 1
314 198 1
314 199 1
314 200 1
314 201 1
314 203 1
314 205 1
314 207 1
314 209 1
314 211 1
314 212 1
314 213 1
314 215 1
314 219 1
314 224 1
314 234 1
314 237 1
314 238 1
314 240 1
314 243 1
314 244 1
314 248 1
314 260 1
314 264 1
314 266 1
314 267 1
314 268 1
314 269 1
314 272 1
314 273 1
314 278 1
314 279 1
314 281 1
314 284 1
314 291 1
314 293 1
314 295 1
314 298 1
314 299 1
314 303 1
314 304 1
314 307 1
314 308 1
314 311 1
314 313 1
314 316 1
314 317 1
314 318 1
314 321 1
314 324 1
314 326 1
314 329 1
314 331 1
314 332 1
314 333 1
314 337 1
314 338 1
314 339 1
314 341 1
314 344 1
314 348 1
314 351 1
314 353 1
314 354 1
314 363 1
314 364 1
314 367 1
314 370 1
314 371 1
314 374 1
314 380 1
314 381 1
314 385 1
314 387 1
314 391 1
314 394 1
314 396 1
314 399 1
314 400 1
315 2 1
315 4 1
315 6 1
315 7 1
315 11 1
315 12 1
315 13 1
315 14 1
315 15 1
315 19 1
315 20 1
315 21 1
315 23 1
315 26 1
315 27 1
315 28 1
315 31 1
315 35 1
315 36 1
315 40 1
315 41 1
315 44 1
315 49 1
315 50 1
315 53 1
315 59 1
315 61 1
315 62 1
315 63 1
315 64 1
315 65 1
315 69 1
315 70 1
315 71 1
315 78 1
315 79 1
315 82 1
315 88 1
315 93 1
315 95 1
315 98 1
315 104 1
315 105 1
315 106 1
315 107 1
315 108 1
315 109 1
315 112 1
315 118 1
315 120 1
315 122 1
315 124 1
315 126 1
315 128 1
315 132 1
315 133 1
315 134 1
315 135 1
315 138 1
315 145 1
315 146 1
315 147 1
315 148 1
315 150 1
315 154 1
315 157 1
315 161 1
315 165 1
315 166 1
315 167 1
315 168 1
315 170 1
315 176 1
315 182 1
315 183 1
315 188 1
315 189 1
315 192 1
315 195 1
315 198 1
315 201 1
315 204 1
315 207 1
315 210 1
315 216 1
315 217 1
315 218 1
315 219 1
315 220 1
315 222 1
315 230 1
315 231 1
315 232 1
315 234 1
315 237 1
315 239 1
315 241 1
315 242 1
315 244 1
315 251 1
315 252 1
315 255 1
315 257 1
315 261 1
315 263 1
315 264 1
315 268 1
315 269 1
315 274 1
315 277 1
315 280 1
315 281 1
315 282 1
315 284 1
315 285 1
315 286 1
315 288 1
315 292 1
315 293 1
315 295 1
315 297 1
315 298 1
315 301 1
315 303 1
315 306 1
315 312 1
315 319 1
315 321 1
315 322 1
315 325 1
315 331 1
315 336 1
315 339 1
315 340 1
315 341 1
315 342 1
315 343 1
315 345 1
315 347 1
315 349 1
315 351 1
315 356 1
315 359 1
315 362 1
315 363 1
315 364 1
315 365 1
315 366 1
315 369 1
315 372 1
315 377 1
315 379 1
315 385 1
315 387 1
315 390 1
315 392 1
315 395 1
315 398 1
316 2 1
316 10 1
316 15 1
316 16 1
316 17 1
316 19 1
316 20 1
316 21 1
316 25 1
316 26 1
316 27 1
316 28 1
316 30 1
316 35 1
316 39 1
316 44 1
316 45 1
316 46 1
316 50 1
316 51 1
316 53 1
316 56 1
316 57 1
316 58 1
316 61 1
316 65 1
316 66 1
316 68 1
316 72 1
316 73 1
316 74 1
316 75 1
316 76 1
316 80 1
316 82 1
316 84 1
316 86 1
316 90 1
316 96 1
316 97 1
316 98 1
316 101 1
316 102 1
316 105 1
316 106 1
316 108 1
316 109 1
316 110 1
316 111 1
316 113 1
316 115 1
316 116 1
316 119 1
316 123 1
316 124 1
316 126 1
316 127 1
316 133 1
316 137 1
316 138 1
316 143 1
316 145 1
316 146 1
316 147 1
316 148 1
316 150 1
316 151 1
316 153 1
316 154 1
316 155 1
316 157 1
316 158 1
316 159 1
316 162 1
316 171 1
316 174 1
316 176 1
316 177 1
316 178 1
316 182 1
316 185 1
316 186 1
316 187 1
316 188 1
316 194 1
316 195 1
316 196 1
316 198 1
316 201 1
316 208 1
316 210 1
316 211 1
316 212 1
316 215 1
316 220 1
316 223 1
316 224 1
316 226 1
316 228 1
316 231 1
316 233 1
316 234 1
316 236 1
316 241 1
316 245 1
316 247 1
316 250 1
316 251 1
316 254 1
316 255 1
316 257 1
316 258 1
316 265 1
316 271 1
316 275 1
316 277 1
316 280 1
316 281 1
316 283 1
316 286 1
316 296 1
316 301 1
316 304 1
316 305 1
316 313 1
316 314 1
316 317 1
316 320 1
316 327 1
316 331 1
316 332 1
316 336 1
316 337 1
316 340 1
316 341 1
316 342 1
316 343 1
316 345 1
316 347 1
316 349 1
316 352 1
316 356 1
316 357 1
316 359 1
316 360 1
316 370 1
316 371 1
316 372 1
316 373 1
316 374 1
316 375 1
316 378 1
316 379 1
316 382 1
316 384 1
316 386 1
316 387 1
316 388 1
316 389 1
316 391 1
316 392 1
316 398 1
316 400 1
317 4 1
317 7 1
317 11 1
317 15 1
317 18 1
317 20 1
317 22 1
317 23 1
317 24 1
317 28 1
317 30 1
317 31 1
317 40 1
317 43 1
317 44 1
317 47 1
317 49 1
317 54 1
317 56 1
317 57 1
317 58 1
317 59 1
317 62 1
317 64 1
317 65 1
317 66 1
317 68 1
317 69 1
317 70 1
317 71 1
317 72 1
317 73 1
317 75 1
317 81 1
317 82 1
317 84 1
317 85 1
317 89 1
317 90 1
317 91 1
317 94 1
317 97 1
317 98 1
317 101 1
317 103 1
317 107 1
317 109 1
317 111 1
317 112 1
317 116 1
317 117 1
317 122 1
317 127 1
317 129 1
317 130 1
317 132 1
317 133 1
317 136 1
317 145 1
317 151 1
317 152 1
317 153 1
317 154 1
317 155 1
317 159 1
317 163 1
317 165 1
317 168 1
317 174 1
317 177 1
317 179 1
317 182 1
317 184 1
317 185 1
317 187 1
317 188 1
317 189 1
317 195 1
317 197 1
317 202 1
317 204 1
317 213 1
317 214 1
317 223 1
317 224 1
317 230 1
317 232 1
317 238 1
317 242 1
317 246 1
317 248 1
317 249 1
317 251 1
317 252 1
317 253 1
317 254 1
317 255 1
317 257 1
317 258 1
317 259 1
317 261 1
317 262 1
317 263 1
317 266 1
317 269 1
317 279 1
317 281 1
317 283 1
317 289 1
317 291 1
317 297 1
317 298 1
317 300 1
317 302 1
317 303 1
317 305 1
317 308 1
317 309 1
317 311 1
317 312 1
317 313 1
317 314 1
317 316 1
317 320 1
317 323 1
317 324 1
317 326 1
317 328 1
317 329 1
317 330 1
317 332 1
317 333 1
317 335 1
317 338 1
317 340 1
317 341 1
317 343 1
317 346 1
317 348 1
317 349 1
317 351 1
317 356 1
317 359 1
317 360 1
317 368 1
317 369 1
317 370 1
317 371 1
317 375 1
317 377 1
317 378 1
317 380 1
317 382 1
317 385 1
317 388 1
317 389 1
317 391 1
317 393 1
317 398 1
318 2 1
318 7 1
318 8 1
318 13 1
318 14 1
318 16 1
318 19 1
318 23 1
318 26 1
318 27 1
318 28 1
318 31 1
318 36 1
318 37 1
318 41 1
318 42 1
318 43 1
318 47 1
318 48 1
318 49 1
318 51 1
318 52 1
318 55 1
318 58 1
318 62 1
318 65 1
318 66 1
318 67 1
318 69 1
318 70 1
318 76 1
318 78 1
318 79 1
318 80 1
318 81 1
318 82 1
318 83 1
318 84 1
318 87 1
318 90 1
318 94 1
318 98 1
318 104 1
318 110 1
318 114 1
318 115 1
318 116 1
318 120 1
318 121 1
318 122 1
318 123 1
318 124 1
318 126 1
318 130 1
318 134 1
318 136 1
318 140 1
318 143 1
318 145 1
318 148 1
318 149 1
318 151 1
318 154 1
318 155 1
318 156 1
318 157 1
318 159 1
318 160 1
318 162 1
318 164 1
318 167 1
318 169 1
318 171 1
318 173 1
318 174 1
318 176 1
318 178 1
318 179 1
318 180 1
318 181 1
318 183 1
318 185 1
318 186 1
318 187 1
318 199 1
318 201 1
318 202 1
318 203 1
318 204 1
318 209 1
318 217 1
318 221 1
318 222 1
318 227 1
318 228 1
318 230 1
318 236 1
318 238 1
318 240 1
318 242 1
318 243 1
318 249 1
318 252 1
318 254 1
318 258 1
318 259 1
318 267 1
318 270 1
318 273 1
318 280 1
318 283 1
318 285 1
318 286 1
318 287 1
318 295 1
318 296 1
318 299 1
318 300 1
318 301 1
318 303 1
318 306 1
318 307 1
318 309 1
318 310 1
318 312 1
318 314 1
318 330 1
318 332 1
318 336 1
318 337 1
318 339 1
318 343 1
318 344 1
318 351 1
318 352 1
318 353 1
318 355 1
318 362 1
318 367 1
318 368 1
318 373 1
318 375 1
318 377 1
318 382 1
318 383 1
318 384 1
318 386 1
318 388 1
318 390 1
318 391 1
318 392 1
318 393 1
318 395 1
318 397 1
319 2 1
319 4 1
319 5 1
319 6 1
319 7 1
319 9 1
319 11 1
319 12 1
319 13 1
319 24 1
319 25 1
319 26 1
319 29 1
319 31 1
319 33 1
319 36 1
319 37 1
319 41 1
319 44 1
319 46 1
319 48 1
319 51 1
319 58 1
319 59 1
319 62 1
319 66 1
319 67 1
319 68 1
319 71 1
319 77 1
319 79 1
319 82 1
319 83 1
319 84 1
319 85 1
319 87 1
319 95 1
319 99 1
319 101 1
319 102 1
319 103 1
319 107 1
319 108 1
319 110 1
319 111 1
319 116 1
319 119 1
319 120 1
319 123 1
319 124 1
319 126 1
319 129 1
319 130 1
319 131 1
319 138 1
319 140 1
319 141 1
319 143 1
319 148 1
319 151 1
319 159 1
319 161 1
319 162 1
319 164 1
319 168 1
319 169 1
319 171 1
319 173 1
319 175 1
319 176 1
319 179 1
319 182 1
319 183 1
319 186 1
319 191 1
319 194 1
319 196 1
319 197 1
319 201 1
319 202 1
319 203 1
319 205 1
319 206 1
319 210 1
319 212 1
319 214 1
319 215 1
319 216 1
319 217 1
319 218 1
319 220 1
319 223 1
319 228 1
319 229 1
319 232 1
319 235 1
319 238 1
319 239 1
319 243 1
319 245 1
319 247 1
319 248 1
319 251 1
319 252 1
319 253 1
319 256 1
319 257 1
319 263 1
319 264 1
319 266 1
319 273 1
319 274 1
319 277 1
319 278 1
319 282 1
319 285 1
319 286 1
319 288 1
319 289 1
319 290 1
319 291 1
319 292 1
319 297 1
319 299 1
319 308 1
319 310 1
319 315 1
319 320 1
319 323 1
319 324 1
319 328 1
319 338 1
319 339 1
319 340 1
319 342 1
319 343 1
319 344 1
319 345 1
319 347 1
319 349 1
319 352 1
319 355 1
319 356 1
319 357 1
319 358 1
319 361 1
319 363 1
319 366 1
319 367 1
319 373 1
319 374 1
319 375 1
319 380 1
319 383 1
319 385 1
319 393 1
319 395 1
319 399 1
320 1 1
320 3 1
320 5 1
320 10 1
320 14 1
320 15 1
320 17 1
320 18 1
320 19 1
320 20 1
320 22 1
320 25 1
320 26 1
320 30 1
320 33 1
320 34 1
320 35 1
320 40 1
320 41 1
320 46 1
320 48 1
320 51 1
320 57 1
320 60 1
320 65 1
320 66 1
320 67 1
320 68 1
320 69 1
320 70 1
320 71 1
320 72 1
320 79 1
320 80 1
320 84 1
320 86 1
320 87 1
320 88 1
320 90 1
320 91 1
320 92 1
320 93 1
320 94 1
320 101 1
320 102 1
320 104 1
320 105 1
320 107 1
320 109 1
320 111 1
320 115 1
320 116 1
320 118 1
320 119 1
320 121 1
320 123 1
320 128 1
320 133 1
320 134 1
320 137 1
320 140 1
320 143 1
320 144 1
320 145 1
320 147 1
320 149 1
320 150 1
320 152 1
320 153 1
320 155 1
320 156 1
320 159 1
320 160 1
320 164 1
320 166 1
320 167 1
320 169 1
320 174 1
320 175 1
320 177 1
320 179 1
320 182 1
320 185 1
320 189 1
320 193 1
320 198 1
320 201 1
320 204 1
320 206 1
320 207 1
320 208 1
320 209 1
320 210 1
320 211 1
320 215 1
320 216 1
320 217 1
320 218 1
320 219 1
320 220 1
320 221 1
320 222 1
320 223 1
320 225 1
320 230 1
320 233 1
320 236 1
320 242 1
320 243 1
320 245 1
320 247 1
320 248 1
320 250 1
320 251 1
320 256 1
320 267 1
320 269 1
320 270 1
320 271 1
320 273 1
320 274 1
320 275 1
320 276 1
320 282 1
320 283 1
320 285 1
320 287 1
320 293 1
320 294 1
320 297 1
320 298 1
320 304 1
320 308 1
320 310 1
320 313 1
320 316 1
320 317 1
320 319 1
320 321 1
320 325 1
320 328 1
320 331 1
320 337 1
320 338 1
320 341 1
320 343 1
320 346 1
320 352 1
320 354 1
320 358 1
320 362 1
320 363 1
320 364 1
320 365 1
320 370 1
320 372 1
320 373 1
320 375 1
320 378 1
320 381 1
320 382 1
320 383 1
320 384 1
320 387 1
320 388 1
320 390 1
320 392 1
320 396 1
320 399 1
320 400 1
321 1 1
321 2 1
321 3 1
321 6 1
321 9 1
321 11 1
321 13 1
321 15 1
321 17 1
321 18 1
321 19 1
321 22 1
321 25 1
321 26 1
321 27 1
321 28 1
321 30 1
321 31 1
321 41 1
321 43 1
321 49 1
321 50 1
321 52 1
321 54 1
321 58 1
321 70 1
321 71 1
321 72 1
321 73 1
321 75 1
321 76 1
321 78 1
321 81 1
321 82 1
321 86 1
321 89 1
321 91 1
321 93 1
321 94 1
321 95 1
321 97 1
321 102 1
321 104 1
321 105 1
321 106 1
321 108 1
321 109 1
321 112 1
321 115 1
321 117 1
321 119 1
321 120 1
321 123 1
321 125 1
321 126 1
321 129 1
321 130 1
321 135 1
321 136 1
321 138 1
321 139 1
321 140 1
321 142 1
321 143 1
321 147 1
321 150 1
321 151 1
321 152 1
321 155 1
321 160 1
321 161 1
321 162 1
321 163 1
321 165 1
321 169 1
321 170 1
321 173 1
321 176 1
321 177 1
321 182 1
321 191 1
321 192 1
321 195 1
321 198 1
321 201 1
321 202 1
321 205 1
321 209 1
321 211 1
321 214 1
321 215 1
321 217 1
321 220 1
321 222 1
321 223 1
321 226 1
321 227 1
321 228 1
321 231 1
321 232 1
321 234 1
321 235 1
321 236 1
321 238 1
321 240 1
321 242 1
321 245 1
321 248 1
321 250 1
321 252 1
321 253 1
321 254 1
321 257 1
321 259 1
321 261 1
321 262 1
321 265 1
321 269 1
321 273 1
321 274 1
321 278 1
321 280 1
321 282 1
321 284 1
321 285 1
321 287 1
321 291 1
321 292 1
321 293 1
321 294 1
321 296 1
321 299 1
321 304 1
321 308 1
321 312 1
321 314 1
321 315 1
321 320 1
321 322 1
321 328 1
321 330 1
321 331 1
321 335 1
321 336 1
321 337 1
321 338 1
321 339 1
321 340 1
321 341 1
321 342 1
321 343 1
321 344 1
321 345 1
321 347 1
321 349 1
321 350 1
321 352 1
321 355 1
321 357 1
321 358 1
321 359 1
321 360 1
321 361 1
321 364 1
321 365 1
321 366 1
321 368 1
321 370 1
321 372 1
321 378 1
321 379 1
321 380 1
321 383 1
321 384 1
321 385 1
321 388 1
321 389 1
321 391 1
321 393 1
321 396 1
322 2 1
322 3 1
322 4 1
322 7 1
322 10 1
322 12 1
322 15 1
322 16 1
322 19 1
322 22 1
322 23 1
322 26 1
322 27 1
322 31 1
322 33 1
322 38 1
322 39 1
322 42 1
322 43 1
322 44 1
322 45 1
322 48 1
322 51 1
322 53 1
322 54 1
322 55 1
322 58 1
322 61 1
322 63 1
322 64 1
322 65 1
322 66 1
322 67 1
322 69 1
322 72 1
322 73 1
322 76 1
322 79 1
322 80 1
322 86 1
322 87 1
322 88 1
322 90 1
322 91 1
322 92 1
322 96 1
322 97 1
322 100 1
322 102 1
322 103 1
322 104 1
322 107 1
322 110 1
322 113 1
322 114 1
322 117 1
322 119 1
322 120 1
322 122 1
322 123 1
322 125 1
322 127 1
322 128 1
322 135 1
322 136 1
322 138 1
322 141 1
322 143 1
322 144 1
322 146 1
322 150 1
322 152 1
322 154 1
322 155 1
322 163 1
322 169 1
322 171 1
322 178 1
322 179 1
322 180 1
322 181 1
322 187 1
322 188 1
322 190 1
322 193 1
322 197 1
322 198 1
322 200 1
322 206 1
322 207 1
322 209 1
322 211 1
322 212 1
322 214 1
322 215 1
322 216 1
322 217 1
322 218 1
322 219 1
322 220 1
322 221 1
322 222 1
322 226 1
322 230 1
322 234 1
322 238 1
322 244 1
322 249 1
322 251 1
322 252 1
322 254 1
322 257 1
322 258 1
322 259 1
322 261 1
322 264 1
322 265 1
322 267 1
322 269 1
322 271 1
322 273 1
322 274 1
322 275 1
322 276 1
322 277 1
322 278 1
322 281 1
322 282 1
322 283 1
322 285 1
322 289 1
322 290 1
322 291 1
322 292 1
322 294 1
322 295 1
322 299 1
322 300 1
322 302 1
322 305 1
322 307 1
322 308 1
322 310 1
322 312 1
322 313 1
322 315 1
322 321 1
322 325 1
322 326 1
322 328 1
322 332 1
322 335 1
322 337 1
322 338 1
322 340 1
322 342 1
322 343 1
322 345 1
322 349 1
322 356 1
322 359 1
322 362 1
322 363 1
322 366 1
322 377 1
322 379 1
322 385 1
322 390 1
322 393 1
322 395 1
322 396 1
322 399 1
323 4 1
323 8 1
323 11 1
323 12 1
323 13 1
323 17 1
323 19 1
323 24 1
323 29 1
323 31 1
323 35 1
323 37 1
323 41 1
323 42 1
323 44 1
323 47 1
323 53 1
323 55 1
323 57 1
323 59 1
323 60 1
323 63 1
323 67 1
323 71 1
323 73 1
323 74 1
323 81 1
323 83 1
323 85 1
323 87 1
323 92 1
323 95 1
323 98 1
323 101 1
323 106 1
323 111 1
323 116 1
323 119 1
323 121 1
323 122 1
323 125 1
323 127 1
323 132 1
323 134 1
323 135 1
323 140 1
323 142 1
323 144 1
323 145 1
323 154 1
323 155 1
323 162 1
323 171 1
323 173 1
323 175 1
323 177 1
323 178 1
323 181 1
323 183 1
323 185 1
323 186 1
323 189 1
323 190 1
323 191 1
323 193 1
323 194 1
323 197 1
323 199 1
323 200 1
323 201 1
323 203 1
323 204 1
323 206 1
323 215 1
323 217 1
323 220 1
323 221 1
323 222 1
323 223 1
323 224 1
323 229 1
323 230 1
323 231 1
323 233 1
323 234 1
323 236 1
323 237 1
323 239 1
323 241 1
323 243 1
323 244 1
323 245 1
323 249 1
323 250 1
323 251 1
323 253 1
323 254 1
323 256 1
323 260 1
323 261 1
323 262 1
323 269 1
323 271 1
323 279 1
323 280 1
323 283 1
323 286 1
323 287 1
323 290 1
323 291 1
323 292 1
323 293 1
323 298 1
323 299 1
323 300 1
323 301 1
323 304 1
323 306 1
323 307 1
323 311 1
323 312 1
323 317 1
323 319 1
323 330 1
323 331 1
323 332 1
323 333 1
323 336 1
323 337 1
323 339 1
323 341 1
323 342 1
323 344 1
323 347 1
323 348 1
323 351 1
323 352 1
323 354 1
323 355 1
323 356 1
323 358 1
323 368 1
323 369 1
323 372 1
323 373 1
323 379 1
323 383 1
323 388 1
323 389 1
323 393 1
323 396 1
323 397 1
323 398 1
323 399 1
323 400 1
324 3 1
324 6 1
324 7 1
324 10 1
324 12 1
324 14 1
324 16 1
324 18 1
324 23 1
324 31 1
324 34 1
324 35 1
324 36 1
324 37 1
324 39 1
324 40 1
324 41 1
324 44 1
324 45 1
324 46 1
324 48 1
324 49 1
324 52 1
324 54 1
324 58 1
324 60 1
324 64 1
324 65 1
324 66 1
324 68 1
324 69 1
324 74 1
324 76 1
324 81 1
324 82 1
324 84 1
324 85 1
324 88 1
324 90 1
324 92 1
324 95 1
324 96 1
324 97 1
324 100 1
324 101 1
324 102 1
324 103 1
324 105 1
324 107 1
324 109 1
324 110 1
324 112 1
324 116 1
324 117 1
324 120 1
324 121 1
324 123 1
324 125 1
324 127 1
324 131 1
324 135 1
324 136 1
324 137 1
324 140 1
324 143 1
324 144 1
324 146 1
324 151 1
324 154 1
324 155 1
324 158 1
324 161 1
324 163 1
324 164 1
324 165 1
324 169 1
324 170 1
324 172 1
324 173 1
324 177 1
324 178 1
324 179 1
324 180 1
324 184 1
324 185 1
324 188 1
324 189 1
324 192 1
324 193 1
324 194 1
324 204 1
324 205 1
324 209 1
324 216 1
324 217 1
324 219 1
324 220 1
324 225 1
324 227 1
324 228 1
324 229 1
324 233 1
324 234 1
324 235 1
324 237 1
324 239 1
324 243 1
324 247 1
324 250 1
324 252 1
324 255 1
324 257 1
324 258 1
324 261 1
324 262 1
324 263 1
324 264 1
324 266 1
324 267 1
324 273 1
324 276 1
324 285 1
324 287 1
324 291 1
324 293 1
324 294 1
324 296 1
324 304 1
324 308 1
324 309 1
324 312 1
324 313 1
324 314 1
324 317 1
324 319 1
324 328 1
324 329 1
324 332 1
324 333 1
324 334 1
324 338 1
324 343 1
324 347 1
324 348 1
324 349 1
324 350 1
324 351 1
324 352 1
324 353 1
324 355 1
324 356 1
324 360 1
324 363 1
324 364 1
324 366 1
324 370 1
324 374 1
324 376 1
324 378 1
324 385 1
324 386 1
324 387 1
324 390 1
324 392 1
324 396 1
324 399 1
325 1 1
325 3 1
325 4 1
325 6 1
325 10 1
325 13 1
325 19 1
325 22 1
325 23 1
325 27 1
325 28 1
325 32 1
325 34 1
325 35 1
325 36 1
325 38 1
325 39 1
325 45 1
325 46 1
325 52 1
325 53 1
325 54 1
325 58 1
325 63 1
325 64 1
325 66 1
325 68 1
325 69 1
325 71 1
325 74 1
325 78 1
325 83 1
325 84 1
325 88 1
325 89 1
325 90 1
325 94 1
325 96 1
325 98 1
325 99 1
325 100 1
325 101 1
325 104 1
325 107 1
325 109 1
325 112 1
325 115 1
325 116 1
325 118 1
325 120 1
325 122 1
325 126 1
325 127 1
325 130 1
325 131 1
325 132 1
325 134 1
325 138 1
325 139 1
325 142 1
325 151 1
325 153 1
325 154 1
325 155 1
325 156 1
325 159 1
325 163 1
325 164 1
325 165 1
325 166 1
325 172 1
325 173 1
325 174 1
325 175 1
325 176 1
325 177 1
325 178 1
325 180 1
325 182 1
325 183 1
325 185 1
325 189 1
325 192 1
325 198 1
325 202 1
325 203 1
325 205 1
325 206 1
325 207 1
325 212 1
325 216 1
325 217 1
325 218 1
325 220 1
325 226 1
325 231 1
325 232 1
325 235 1
325 238 1
325 240 1
325 242 1
325 248 1
325 251 1
325 253 1
325 254 1
325 255 1
325 257 1
325 262 1
325 265 1
325 266 1
325 267 1
325 269 1
325 270 1
325 271 1
325 274 1
325 276 1
325 277 1
325 280 1
325 283 1
325 284 1
325 285 1
325 288 1
325 296 1
325 299 1
325 302 1
325 306 1
325 308 1
325 309 1
325 311 1
325 315 1
325 320 1
325 322 1
325 326 1
325 328 1
325 330 1
325 335 1
325 338 1
325 344 1
325 345 1
325 349 1
325 350 1
325 356 1
325 358 1
325 360 1
325 364 1
325 366 1
325 372 1
325 374 1
325 376 1
325 381 1
325 382 1
325 383 1
325 387 1
325 388 1
325 391 1
325 393 1
325 395 1
325 396 1
326 2 1
326 5 1
326 7 1
326 8 1
326 9 1
326 15 1
326 16 1
326 17 1
326 25 1
326 30 1
326 34 1
326 38 1
326 44 1
326 45 1
326 47 1
326 50 1
326 54 1
326 56 1
326 58 1
326 59 1
326 60 1
326 63 1
326 64 1
326 65 1
326 66 1
326 70 1
326 71 1
326 80 1
326 83 1
326 87 1
326 91 1
326 92 1
326 94 1
326 95 1
326 96 1
326 99 1
326 101 1
326 102 1
326 103 1
326 105 1
326 106 1
326 111 1
326 115 1
326 120 1
326 121 1
326 122 1
326 123 1
326 124 1
326 126 1
326 128 1
326 129 1
326 131 1
326 133 1
326 134 1
326 136 1
326 137 1
326 140 1
326 143 1
326 144 1
326 148 1
326 150 1
326 154 1
326 158 1
326 159 1
326 160 1
326 164 1
326 167 1
326 169 1
326 172 1
326 176 1
326 177 1
326 179 1
326 180 1
326 182 1
326 185 1
326 188 1
326 190 1
326 198 1
326 200 1
326 201 1
326 204 1
326 206 1
326 207 1
326 209 1
326 210 1
326 216 1
326 218 1
326 221 1
326 222 1
326 224 1
326 225 1
326 226 1
326 228 1
326 230 1
326 235 1
326 236 1
326 238 1
326 240 1
326 241 1
326 243 1
326 245 1
326 246 1
326 253 1
326 255 1
326 256 1
326 258 1
326 259 1
326 260 1
326 261 1
326 267 1
326 268 1
326 272 1
326 276 1
326 279 1
326 280 1
326 282 1
326 284 1
326 286 1
326 288 1
326 289 1
326 293 1
326 294 1
326 295 1
326 296 1
326 297 1
326 298 1
326 302 1
326 303 1
326 306 1
326 308 1
326 311 1
326 314 1
326 317 1
326 322 1
326 325 1
326 329 1
326 330 1
326 333 1
326 335 1
326 341 1
326 343 1
326 345 1
326 346 1
326 349 1
326 352 1
326 354 1
326 357 1
326 358 1
326 360 1
326 361 1
326 364 1
326 366 1
326 367 1
326 370 1
326 371 1
326 372 1
326 377 1
326 379 1
326 385 1
326 386 1
326 387 1
326 391 1
326 392 1
326 393 1
326 395 1
326 398 1
327 2 1
327 3 1
327 5 1
327 6 1
327 8 1
327 10 1
327 13 1
327 18 1
327 21 1
327 28 1
327 29 1
327 32 1
327 34 1
327 35 1
327 36 1
327 37 1
327 38 1
327 39 1
327 40 1
327 41 1
327 42 1
327 43 1
327 48 1
327 50 1
327 55 1
327 62 1
327 63 1
327 64 1
327 65 1
327 66 1
327 67 1
327 72 1
327 77 1
327 78 1
327 83 1
327 84 1
327 87 1
327 88 1
327 91 1
327 94 1
327 95 1
327 102 1
327 103 1
327 109 1
327 110 1
327 114 1
327 118 1
327 121 1
327 123 1
327 126 1
327 127 1
327 131 1
327 132 1
327 133 1
327 134 1
327 136 1
327 138 1
327 139 1
327 145 1
327 148 1
327 149 1
327 150 1
327 151 1
327 152 1
327 158 1
327 162 1
327 164 1
327 167 1
327 168 1
327 170 1
327 176 1
327 178 1
327 182 1
327 190 1
327 192 1
327 193 1
327 194 1
327 195 1
327 196 1
327 197 1
327 198 1
327 200 1
327 202 1
327 203 1
327 204 1
327 205 1
327 207 1
327 211 1
327 212 1
327 215 1
327 216 1
327 218 1
327 219 1
327 223 1
327 225 1
327 226 1
327 227 1
327 228 1
327 229 1
327 231 1
327 232 1
327 239 1
327 244 1
327 246 1
327 250 1
327 254 1
327 255 1
327 256 1
327 258 1
327 260 1
327 262 1
327 268 1
327 270 1
327 271 1
327 273 1
327 276 1
327 278 1
327 281 1
327 283 1
327 284 1
327 285 1
327 287 1
327 289 1
327 295 1
327 297 1
327 300 1
327 301 1
327 305 1
327 309 1
327 310 1
327 313 1
327 316 1
327 328 1
327 330 1
327 332 1
327 339 1
327 344 1
327 346 1
327 353 1
327 354 1
327 357 1
327 358 1
327 359 1
327 360 1
327 362 1
327 363 1
327 365 1
327 367 1
327 369 1
327 370 1
327 372 1
327 378 1
327 379 1
327 382 1
327 388 1
327 392 1
327 393 1
327 397 1
327 398 1
327 400 1
328 3 1
328 6 1
328 8 1
328 12 1
328 13 1
328 16 1
328 18 1
328 22 1
328 23 1
328 28 1
328 29 1
328 30 1
328 33 1
328 35 1
328 36 1
328 37 1
328 39 1
328 45 1
328 46 1
328 48 1
328 50 1
328 51 1
328 53 1
328 54 1
328 57 1
328 60 1
328 62 1
328 63 1
328 65 1
328 66 1
328 72 1
328 74 1
328 75 1
328 77 1
328 80 1
328 82 1
328 83 1
328 85 1
328 87 1
328 88 1
328 89 1
328 90 1
328 91 1
328 92 1
328 97 1
328 98 1
328 100 1
328 102 1
328 103 1
328 107 1
328 109 1
328 114 1
328 115 1
328 116 1
328 120 1
328 124 1
328 125 1
328 126 1
328 127 1
328 128 1
328 129 1
328 130 1
328 133 1
328 136 1
328 142 1
328 144 1
328 150 1
328 152 1
328 156 1
328 157 1
328 162 1
328 163 1
328 167 1
328 168 1
328 169 1
328 172 1
328 176 1
328 177 1
328 178 1
328 179 1
328 180 1
328 182 1
328 184 1
328 185 1
328 198 1
328 202 1
328 203 1
328 204 1
328 207 1
328 211 1
328 215 1
328 218 1
328 220 1
328 228 1
328 230 1
328 236 1
328 237 1
328 245 1
328 246 1
328 249 1
328 254 1
328 258 1
328 259 1
328 262 1
328 264 1
328 271 1
328 272 1
328 275 1
328 279 1
328 280 1
328 283 1
328 287 1
328 288 1
328 289 1
328 290 1
328 291 1
328 293 1
328 294 1
328 295 1
328 296 1
328 299 1
328 300 1
328 305 1
328 307 1
328 308 1
328 313 1
328 317 1
328 319 1
328 320 1
328 321 1
328 322 1
328 324 1
328 325 1
328 327 1
328 330 1
328 334 1
328 335 1
328 337 1
328 339 1
328 341 1
328 344 1
328 345 1
328 347 1
328 348 1
328 351 1
328 353 1
328 355 1
328 356 1
328 357 1
328 358 1
328 359 1
328 361 1
328 362 1
328 363 1
328 367 1
328 372 1
328 381 1
328 383 1
328 385 1
328 386 1
328 396 1
328 397 1
329 10 1
329 11 1
329 12 1
329 19 1
329 22 1
329 23 1
329 26 1
329 29 1
329 30 1
329 33 1
329 36 1
329 39 1
329 44 1
329 45 1
329 52 1
329 54 1
329 55 1
329 59 1
329 61 1
329 63 1
329 65 1
329 67 1
329 68 1
329 69 1
329 71 1
329 72 1
329 74 1
329 78 1
329 79 1
329 80 1
329 81 1
329 82 1
329 84 1
329 85 1
329 86 1
329 88 1
329 91 1
329 96 1
329 97 1
329 101 1
329 104 1
329 107 1
329 111 1
329 113 1
329 114 1
329 120 1
329 121 1
329 124 1
329 128 1
329 133 1
329 142 1
329 144 1
329 145 1
329 146 1
329 149 1
329 151 1
329 152 1
329 153 1
329 154 1
329 161 1
329 165 1
329 166 1
329 168 1
329 170 1
329 171 1
329 177 1
329 180 1
329 183 1
329 186 1
329 187 1
329 193 1
329 196 1
329 197 1
329 198 1
329 200 1
329 204 1
329 207 1
329 211 1
329 215 1
329 221 1
329 222 1
329 224 1
329 227 1
329 228 1
329 230 1
329 232 1
329 233 1
329 234 1
329 236 1
329 239 1
329 241 1
329 242 1
329 243 1
329 244 1
329 247 1
329 248 1
329 251 1
329 253 1
329 254 1
329 258 1
329 259 1
329 268 1
329 271 1
329 272 1
329 278 1
329 282 1
329 283 1
329 285 1
329 288 1
329 289 1
329 290 1
329 292 1
329 294 1
329 297 1
329 300 1
329 302 1
329 303 1
329 314 1
329 317 1
329 324 1
329 326 1
329 330 1
329 334 1
329 340 1
329 341 1
329 342 1
329 343 1
329 346 1
329 349 1
329 350 1
329 351 1
329 360 1
329 364 1
329 365 1
329 366 1
329 368 1
329 369 1
329 370 1
329 377 1
329 379 1
329 382 1
329 384 1
329 387 1
329 389 1
329 390 1
329 395 1
329 397 1
329 399 1
330 7 1
330 9 1
330 10 1
330 15 1
330 17 1
330 20 1
330 21 1
330 23 1
330 24 1
330 26 1
330 28 1
330 29 1
330 33 1
330 34 1
330 37 1
330 38 1
330 41 1
330 47 1
330 52 1
330 54 1
330 57 1
330 58 1
330 60 1
330 64 1
330 66 1
330 68 1
330 72 1
330 75 1
330 77 1
330 78 1
330 79 1
330 80 1
330 81 1
330 83 1
330 85 1
330 91 1
330 92 1
330 98 1
330 103 1
330 106 1
330 107 1
330 108 1
330 110 1
330 112 1
330 113 1
330 114 1
330 115 1
330 117 1
330 120 1
330 130 1
330 132 1
330 134 1
330 135 1
330 136 1
330 137 1
330 139 1
330 140 1
330 141 1
330 142 1
330 143 1
330 144 1
330 145 1
330 146 1
330 154 1
330 156 1
330 157 1
330 159 1
330 162 1
330 164 1
330 165 1
330 167 1
330 168 1
330 170 1
330 171 1
330 173 1
330 179 1
330 180 1
330 182 1
330 186 1
330 188 1
330 189 1
330 200 1
330 202 1
330 205 1
330 206 1
330 207 1
330 221 1
330 222 1
330 224 1
330 225 1
330 226 1
330 234 1
330 235 1
330 240 1
330 243 1
330 248 1
330 251 1
330 252 1
330 256 1
330 258 1
330 261 1
330 263 1
330 267 1
330 274 1
330 278 1
330 280 1
330 288 1
330 291 1
330 294 1
330 295 1
330 298 1
330 303 1
330 305 1
330 307 1
330 309 1
330 310 1
330 317 1
330 318 1
330 321 1
330 323 1
330 325 1
330 326 1
330 327 1
330 328 1
330 329 1
330 331 1
330 336 1
330 339 1
330 343 1
330 345 1
330 347 1
330 349 1
330 350 1
330 355 1
330 356 1
330 358 1
330 359 1
330 360 1
330 361 1
330 362 1
330 363 1
330 367 1
330 368 1
330 374 1
330 376 1
330 379 1
330 380 1
330 381 1
330 383 1
330 384 1
330 385 1
330 387 1
330 388 1
330 391 1
330 394 1
330 395 1
330 396 1
330 397 1
330 400 1
331 1 1
331 3 1
331 6 1
331 7 1
331 10 1
331 12 1
331 15 1
331 16 1
331 17 1
331 19 1
331 21 1
331 22 1
331 27 1
331 28 1
331 29 1
331 30 1
331 33 1
331 37 1
331 38 1
331 44 1
331 49 1
331 51 1
331 62 1
331 67 1
331 69 1
331 70 1
331 71 1
331 72 1
331 73 1
331 74 1
331 76 1
331 77 1
331 79 1
331 80 1
331 81 1
331 92 1
331 93 1
331 96 1
331 106 1
331 108 1
331 109 1
331 110 1
331 114 1
331 116 1
331 120 1
331 121 1
331 129 1
331 130 1
331 133 1
331 135 1
331 138 1
331 140 1
331 141 1
331 145 1
331 146 1
331 148 1
331 149 1
331 151 1
331 154 1
331 155 1
331 157 1
331 158 1
331 161 1
331 171 1
331 176 1
331 178 1
331 179 1
331 180 1
331 182 1
331 187 1
331 189 1
331 192 1
331 194 1
331 204 1
331 205 1
331 206 1
331 208 1
331 209 1
331 212 1
331 213 1
331 214 1
331 215 1
331 219 1
331 221 1
331 224 1
331 225 1
331 226 1
331 229 1
331 231 1
331 237 1
331 246 1
331 247 1
331 256 1
331 257 1
331 259 1
331 260 1
331 261 1
331 264 1
331 265 1
331 267 1
331 269 1
331 274 1
331 275 1
331 276 1
331 277 1
331 278 1
331 280 1
331 281 1
331 282 1
331 283 1
331 288 1
331 289 1
331 292 1
331 295 1
331 296 1
331 297 1
331 299 1
331 300 1
331 301 1
331 302 1
331 303 1
331 304 1
331 306 1
331 307 1
331 308 1
331 309 1
331 312 1
331 314 1
331 315 1
331 316 1
331 320 1
331 321 1
331 323 1
331 330 1
331 334 1
331 335 1
331 336 1
331 339 1
331 345 1
331 347 1
331 351 1
331 353 1
331 354 1
331 355 1
331 358 1
331 361 1
331 363 1
331 364 1
331 365 1
331 368 1
331 369 1
331 372 1
331 377 1
331 378 1
331 380 1
331 383 1
331 385 1
331 386 1
331 387 1
331 392 1
331 393 1
331 400 1
332 1 1
332 9 1
332 13 1
332 17 1
332 19 1
332 20 1
332 21 1
332 22 1
332 26 1
332 28 1
332 31 1
332 35 1
332 37 1
332 41 1
332 43 1
332 49 1
332 51 1
332 55 1
332 63 1
332 65 1
332 68 1
332 75 1
332 77 1
332 79 1
332 81 1
332 82 1
332 84 1
332 86 1
332 87 1
332 90 1
332 91 1
332 92 1
332 94 1
332 97 1
332 99 1
332 102 1
332 107 1
332 110 1
332 111 1
332 112 1
332 113 1
332 115 1
332 116 1
332 117 1
332 119 1
332 120 1
332 121 1
332 122 1
332 123 1
332 126 1
332 127 1
332 128 1
332 130 1
332 131 1
332 134 1
332 135 1
332 136 1
332 137 1
332 138 1
332 140 1
332 141 1
332 142 1
332 144 1
332 146 1
332 148 1
332 151 1
332 155 1
332 157 1
332 158 1
332 160 1
332 161 1
332 163 1
332 164 1
332 165 1
332 166 1
332 167 1
332 170 1
332 172 1
332 174 1
332 175 1
332 176 1
332 177 1
332 183 1
332 184 1
332 186 1
332 187 1
332 188 1
332 189 1
332 191 1
332 193 1
332 194 1
332 201 1
332 204 1
332 206 1
332 207 1
332 209 1
332 211 1
332 212 1
332 213 1
332 214 1
332 216 1
332 217 1
332 220 1
332 221 1
332 222 1
332 223 1
332 233 1
332 236 1
332 237 1
332 238 1
332 239 1
332 241 1
332 242 1
332 247 1
332 248 1
332 249 1
332 250 1
332 253 1
332 257 1
332 259 1
332 263 1
332 266 1
332 267 1
332 268 1
332 269 1
332 270 1
332 271 1
332 272 1
332 274 1
332 278 1
332 281 1
332 282 1
332 286 1
332 287 1
332 288 1
332 289 1
332 297 1
332 298 1
332 299 1
332 300 1
332 302 1
332 303 1
332 309 1
332 310 1
332 312 1
332 313 1
332 314 1
332 316 1
332 317 1
332 318 1
332 322 1
332 323 1
332 324 1
332 327 1
332 336 1
332 337 1
332 338 1
332 340 1
332 341 1
332 345 1
332 348 1
332 352 1
332 353 1
332 354 1
332 355 1
332 356 1
332 357 1
332 358 1
332 359 1
332 361 1
332 366 1
332 372 1
332 373 1
332 374 1
332 377 1
332 384 1
332 385 1
332 387 1
332 389 1
332 390 1
332 395 1
332 397 1
332 398 1
333 5 1
333 14 1
333 21 1
333 23 1
333 26 1
333 28 1
333 29 1
333 31 1
333 32 1
333 34 1
333 35 1
333 36 1
333 37 1
333 43 1
333 47 1
333 48 1
333 52 1
333 54 1
333 60 1
333 61 1
333 63 1
333 64 1
333 66 1
333 68 1
333 69 1
333 72 1
333 74 1
333 81 1
333 83 1
333 84 1
333 88 1
333 89 1
333 90 1
333 93 1
333 94 1
333 96 1
333 111 1
333 112 1
333 114 1
333 115 1
333 117 1
333 118 1
333 121 1
333 123 1
333 124 1
333 125 1
333 130 1
333 133 1
333 136 1
333 137 1
333 139 1
333 141 1
333 143 1
333 144 1
333 145 1
333 146 1
333 148 1
333 149 1
333 150 1
333 158 1
333 161 1
333 163 1
333 164 1
333 165 1
333 167 1
333 169 1
333 174 1
333 177 1
333 178 1
333 180 1
333 187 1
333 188 1
333 189 1
333 191 1
333 196 1
333 198 1
333 200 1
333 201 1
333 203 1
333 205 1
333 208 1
333 210 1
333 213 1
333 214 1
333 216 1
333 225 1
333 226 1
333 227 1
333 228 1
333 231 1
333 234 1
333 235 1
333 236 1
333 238 1
333 241 1
333 242 1
333 245 1
333 246 1
333 247 1
333 249 1
333 250 1
333 251 1
333 252 1
333 256 1
333 258 1
333 264 1
333 267 1
333 268 1
333 272 1
333 273 1
333 275 1
333 280 1
333 282 1
333 286 1
333 288 1
333 289 1
333 290 1
333 293 1
333 295 1
333 297 1
333 298 1
333 304 1
333 305 1
333 306 1
333 314 1
333 317 1
333 323 1
333 324 1
333 326 1
333 336 1
333 337 1
333 338 1
333 342 1
333 343 1
333 344 1
333 346 1
333 347 1
333 348 1
333 351 1
333 355 1
333 357 1
333 365 1
333 366 1
333 367 1
333 371 1
333 374 1
333 375 1
333 382 1
333 390 1
333 395 1
333 398 1
333 399 1
333 400 1
334 1 1
334 6 1
334 11 1
334 12 1
334 17 1
334 18 1
334 19 1
334 20 1
334 27 1
334 29 1
334 30 1
334 31 1
334 36 1
334 38 1
334 46 1
334 49 1
334 50 1
334 51 1
334 53 1
334 57 1
334 59 1
334 61 1
334 66 1
334 70 1
334 73 1
334 82 1
334 83 1
334 90 1
334 92 1
334 95 1
334 96 1
334 99 1
334 109 1
334 110 1
334 115 1
334 117 1
334 121 1
334 124 1
334 126 1
334 127 1
334 132 1
334 134 1
334 137 1
334 138 1
334 139 1
334 141 1
334 142 1
334 145 1
334 146 1
334 147 1
334 157 1
334 158 1
334 160 1
334 161 1
334 163 1
334 164 1
334 167 1
334 169 1
334 170 1
334 173 1
334 174 1
334 176 1
334 177 1
334 179 1
334 182 1
334 184 1
334 187 1
334 188 1
334 191 1
334 192 1
334 193 1
334 195 1
334 196 1
334 199 1
334 200 1
334 202 1
334 203 1
334 206 1
334 207 1
334 211 1
334 214 1
334 217 1
334 218 1
334 219 1
334 236 1
334 239 1
334 242 1
334 243 1
334 244 1
334 246 1
334 248 1
334 249 1
334 250 1
334 253 1
334 254 1
334 256 1
334 260 1
334 261 1
334 263 1
334 264 1
334 265 1
334 275 1
334 278 1
334 279 1
334 281 1
334 282 1
334 286 1
334 288 1
334 290 1
334 299 1
334 301 1
334 303 1
334 306 1
334 313 1
334 324 1
334 328 1
334 329 1
334 331 1
334 337 1
334 339 1
334 340 1
334 351 1
334 352 1
334 353 1
334 355 1
334 356 1
334 358 1
334 360 1
334 366 1
334 367 1
334 372 1
334 374 1
334 377 1
334 378 1
334 380 1
334 388 1
334 390 1
334 391 1
334 395 1
334 397 1
334 399 1
335 1 1
335 2 1
335 3 1
335 5 1
335 7 1
335 8 1
335 11 1
335 14 1
335 19 1
335 23 1
335 24 1
335 25 1
335 28 1
335 29 1
335 30 1
335 32 1
335 33 1
335 35 1
335 37 1
335 38 1
335 39 1
335 40 1
335 45 1
335 51 1
335 52 1
335 55 1
335 57 1
335 60 1
335 61 1
335 62 1
335 63 1
335 67 1
335 69 1
335 72 1
335 74 1
335 75 1
335 79 1
335 82 1
335 84 1
335 85 1
335 87 1
335 88 1
335 89 1
335 90 1
335 91 1
335 92 1
335 93 1
335 94 1
335 95 1
335 97 1
335 99 1
335 101 1
335 103 1
335 108 1
335 110 1
335 111 1
335 112 1
335 114 1
335 117 1
335 119 1
335 120 1
335 124 1
335 125 1
335 126 1
335 127 1
335 129 1
335 130 1
335 136 1
335 137 1
335 138 1
335 142 1
335 143 1
335 144 1
335 147 1
335 148 1
335 151 1
335 152 1
335 157 1
335 158 1
335 161 1
335 165 1
335 166 1
335 167 1
335 173 1
335 174 1
335 175 1
335 177 1
335 179 1
335 180 1
335 186 1
335 187 1
335 190 1
335 195 1
335 196 1
335 197 1
335 202 1
335 204 1
335 206 1
335 210 1
335 211 1
335 214 1
335 215 1
335 216 1
335 217 1
335 221 1
335 222 1
335 223 1
335 224 1
335 226 1
335 228 1
335 230 1
335 231 1
335 232 1
335 233 1
335 236 1
335 238 1
335 242 1
335 246 1
335 249 1
335 251 1
335 255 1
335 258 1
335 271 1
335 273 1
335 274 1
335 278 1
335 282 1
335 284 1
335 285 1
335 286 1
335 287 1
335 288 1
335 292 1
335 293 1
335 294 1
335 295 1
335 298 1
335 300 1
335 303 1
335 306 1
335 307 1
335 308 1
335 312 1
335 313 1
335 317 1
335 321 1
335 322 1
335 325 1
335 326 1
335 328 1
335 331 1
335 336 1
335 338 1
335 339 1
335 343 1
335 345 1
335 346 1
335 348 1
335 350 1
335 354 1
335 355 1
335 356 1
335 359 1
335 362 1
335 364 1
335 366 1
335 367 1
335 368 1
335 370 1
335 372 1
335 373 1
335 375 1
335 377 1
335 381 1
335 382 1
335 384 1
335 386 1
335 387 1
335 395 1
335 398 1
336 2 1
336 3 1
336 5 1
336 7 1
336 12 1
336 14 1
336 22 1
336 24 1
336 25 1
336 27 1
336 28 1
336 30 1
336 31 1
336 33 1
336 34 1
336 36 1
336 39 1
336 40 1
336 42 1
336 43 1
336 44 1
336 46 1
336 50 1
336 52 1
336 54 1
336 55 1
336 57 1
336 59 1
336 60 1
336 66 1
336 67 1
336 68 1
336 72 1
336 73 1
336 80 1
336 83 1
336 84 1
336 87 1
336 88 1
336 90 1
336 91 1
336 92 1
336 93 1
336 94 1
336 95 1
336 100 1
336 101 1
336 104 1
336 107 1
336 115 1
336 119 1
336 120 1
336 121 1
336 126 1
336 129 1
336 130 1
336 131 1
336 133 1
336 134 1
336 135 1
336 138 1
336 142 1
336 147 1
336 151 1
336 159 1
336 160 1
336 162 1
336 163 1
336 165 1
336 166 1
336 167 1
336 169 1
336 172 1
336 174 1
336 175 1
336 179 1
336 180 1
336 182 1
336 187 1
336 189 1
336 191 1
336 193 1
336 194 1
336 195 1
336 196 1
336 200 1
336 206 1
336 208 1
336 216 1
336 217 1
336 219 1
336 220 1
336 227 1
336 232 1
336 234 1
336 235 1
336 242 1
336 244 1
336 247 1
336 248 1
336 250 1
336 252 1
336 261 1
336 263 1
336 267 1
336 272 1
336 274 1
336 276 1
336 278 1
336 279 1
336 280 1
336 284 1
336 288 1
336 290 1
336 296 1
336 299 1
336 301 1
336 306 1
336 312 1
336 315 1
336 316 1
336 318 1
336 321 1
336 323 1
336 330 1
336 331 1
336 332 1
336 333 1
336 335 1
336 342 1
336 343 1
336 344 1
336 356 1
336 358 1
336 360 1
336 361 1
336 362 1
336 365 1
336 368 1
336 369 1
336 370 1
336 372 1
336 374 1
336 379 1
336 380 1
336 385 1
336 395 1
336 398 1
336 399 1
337 2 1
337 3 1
337 8 1
337 9 1
337 12 1
337 14 1
337 15 1
337 18 1
337 27 1
337 28 1
337 31 1
337 38 1
337 41 1
337 42 1
337 43 1
337 44 1
337 47 1
337 50 1
337 51 1
337 52 1
337 60 1
337 62 1
337 68 1
337 72 1
337 79 1
337 86 1
337 92 1
337 93 1
337 94 1
337 95 1
337 97 1
337 102 1
337 105 1
337 110 1
337 113 1
337 114 1
337 118 1
337 122 1
337 127 1
337 128 1
337 130 1
337 134 1
337 137 1
337 142 1
337 150 1
337 151 1
337 153 1
337 155 1
337 157 1
337 161 1
337 165 1
337 166 1
337 167 1
337 170 1
337 171 1
337 172 1
337 173 1
337 174 1
337 175 1
337 176 1
337 177 1
337 178 1
337 193 1
337 194 1
337 195 1
337 197 1
337 203 1
337 205 1
337 206 1
337 210 1
337 212 1
337 215 1
337 219 1
337 220 1
337 229 1
337 231 1
337 232 1
337 235 1
337 238 1
337 239 1
337 242 1
337 243 1
337 247 1
337 252 1
337 255 1
337 256 1
337 258 1
337 259 1
337 260 1
337 262 1
337 263 1
337 264 1
337 266 1
337 267 1
337 268 1
337 273 1
337 274 1
337 275 1
337 278 1
337 281 1
337 282 1
337 284 1
337 285 1
337 286 1
337 289 1
337 290 1
337 297 1
337 300 1
337 302 1
337 303 1
337 306 1
337 310 1
337 311 1
337 313 1
337 314 1
337 316 1
337 318 1
337 320 1
337 321 1
337 322 1
337 323 1
337 328 1
337 332 1
337 333 1
337 334 1
337 339 1
337 344 1
337 347 1
337 348 1
337 349 1
337 350 1
337 354 1
337 355 1
337 356 1
337 358 1
337 359 1
337 360 1
337 366 1
337 367 1
337 368 1
337 369 1
337 371 1
337 378 1
337 379 1
337 380 1
337 383 1
337 384 1
337 387 1
337 388 1
337 394 1
337 397 1
337 398 1
337 400 1
338 1 1
338 3 1
338 4 1
338 5 1
338 8 1
338 11 1
338 12 1
338 15 1
338 20 1
338 22 1
338 27 1
338 29 1
338 35 1
338 37 1
338 40 1
338 42 1
338 46 1
338 47 1
338 48 1
338 50 1
338 55 1
338 60 1
338 61 1
338 62 1
338 63 1
338 67 1
338 68 1
338 69 1
338 73 1
338 75 1
338 76 1
338 81 1
338 82 1
338 83 1
338 87 1
338 88 1
338 94 1
338 95 1
338 102 1
338 105 1
338 107 1
338 116 1
338 129 1
338 132 1
338 136 1
338 139 1
338 140 1
338 143 1
338 144 1
338 145 1
338 149 1
338 150 1
338 151 1
338 156 1
338 158 1
338 160 1
338 162 1
338 163 1
338 165 1
338 166 1
338 168 1
338 172 1
338 174 1
338 175 1
338 178 1
338 181 1
338 182 1
338 183 1
338 185 1
338 186 1
338 187 1
338 191 1
338 192 1
338 193 1
338 196 1
338 201 1
338 203 1
338 207 1
338 210 1
338 211 1
338 215 1
338 217 1
338 221 1
338 226 1
338 227 1
338 228 1
338 230 1
338 237 1
338 239 1
338 241 1
338 243 1
338 253 1
338 256 1
338 257 1
338 259 1
338 262 1
338 264 1
338 270 1
338 273 1
338 277 1
338 278 1
338 280 1
338 281 1
338 284 1
338 285 1
338 286 1
338 293 1
338 294 1
338 297 1
338 298 1
338 302 1
338 304 1
338 305 1
338 307 1
338 308 1
338 311 1
338 313 1
338 314 1
338 317 1
338 319 1
338 320 1
338 321 1
338 322 1
338 324 1
338 325 1
338 332 1
338 333 1
338 335 1
338 341 1
338 344 1
338 348 1
338 352 1
338 355 1
338 356 1
338 357 1
338 360 1
338 365 1
338 366 1
338 370 1
338 376 1
338 378 1
338 382 1
338 383 1
338 384 1
338 386 1
338 387 1
338 391 1
338 392 1
338 394 1
338 395 1
338 399 1
338 400 1
339 1 1
339 8 1
339 10 1
339 11 1
339 12 1
339 17 1
339 18 1
339 19 1
339 22 1
339 23 1
339 24 1
339 25 1
339 29 1
339 30 1
339 32 1
339 35 1
339 37 1
339 38 1
339 41 1
339 45 1
339 48 1
339 50 1
339 52 1
339 53 1
339 58 1
339 59 1
339 69 1
339 71 1
339 72 1
339 74 1
339 79 1
339 80 1
339 81 1
339 83 1
339 84 1
339 86 1
339 87 1
339 91 1
339 92 1
339 97 1
339 102 1
339 105 1
339 108 1
339 111 1
339 115 1
339 118 1
339 119 1
339 123 1
339 124 1
339 125 1
339 126 1
339 133 1
339 136 1
339 139 1
339 140 1
339 143 1
339 144 1
339 154 1
339 160 1
339 162 1
339 163 1
339 164 1
339 166 1
339 167 1
339 169 1
339 171 1
339 172 1
339 173 1
339 175 1
339 177 1
339 181 1
339 182 1
339 183 1
339 184 1
339 185 1
339 186 1
339 187 1
339 190 1
339 193 1
339 194 1
339 201 1
339 204 1
339 205 1
339 207 1
339 217 1
339 218 1
339 219 1
339 227 1
339 229 1
339 231 1
339 232 1
339 238 1
339 239 1
339 242 1
339 244 1
339 245 1
339 246 1
339 248 1
339 249 1
339 252 1
339 255 1
339 260 1
339 261 1
339 264 1
339 270 1
339 271 1
339 275 1
339 276 1
339 279 1
339 280 1
339 281 1
339 285 1
339 286 1
339 288 1
339 290 1
339 292 1
339 293 1
339 294 1
339 295 1
339 296 1
339 298 1
339 301 1
339 306 1
339 307 1
339 308 1
339 309 1
339 313 1
339 314 1
339 315 1
339 318 1
339 319 1
339 321 1
339 323 1
339 327 1
339 328 1
339 330 1
339 331 1
339 334 1
339 335 1
339 337 1
339 341 1
339 342 1
339 347 1
339 352 1
339 356 1
339 357 1
339 358 1
339 360 1
339 368 1
339 371 1
339 373 1
339 374 1
339 375 1
339 378 1
339 385 1
339 386 1
339 391 1
339 397 1
339 398 1
339 400 1
340 1 1
340 3 1
340 5 1
340 6 1
340 7 1
340 8 1
340 9 1
340 13 1
340 15 1
340 18 1
340 23 1
340 26 1
340 29 1
340 33 1
340 35 1
340 36 1
340 40 1
340 41 1
340 42 1
340 48 1
340 55 1
340 56 1
340 57 1
340 58 1
340 60 1
340 63 1
340 64 1
340 67 1
340 68 1
340 70 1
340 71 1
340 73 1
340 76 1
340 77 1
340 78 1
340 79 1
340 80 1
340 84 1
340 85 1
340 86 1
340 88 1
340 90 1
340 97 1
340 98 1
340 99 1
340 100 1
340 106 1
340 108 1
340 109 1
340 116 1
340 121 1
340 122 1
340 123 1
340 126 1
340 127 1
340 128 1
340 133 1
340 137 1
340 139 1
340 140 1
340 142 1
340 143 1
340 144 1
340 145 1
340 146 1
340 152 1
340 154 1
340 156 1
340 160 1
340 161 1
340 162 1
340 165 1
340 167 1
340 169 1
340 170 1
340 174 1
340 175 1
340 176 1
340 179 1
340 187 1
340 188 1
340 196 1
340 199 1
340 200 1
340 208 1
340 209 1
340 213 1
340 215 1
340 216 1
340 217 1
340 220 1
340 221 1
340 222 1
340 230 1
340 232 1
340 233 1
340 234 1
340 235 1
340 238 1
340 239 1
340 240 1
340 242 1
340 245 1
340 246 1
340 248 1
340 250 1
340 252 1
340 253 1
340 255 1
340 256 1
340 257 1
340 258 1
340 260 1
340 261 1
340 262 1
340 264 1
340 266 1
340 275 1
340 276 1
340 278 1
340 279 1
340 281 1
340 284 1
340 286 1
340 291 1
340 293 1
340 295 1
340 297 1
340 298 1
340 299 1
340 301 1
340 304 1
340 310 1
340 311 1
340 313 1
340 315 1
340 316 1
340 317 1
340 319 1
340 321 1
340 322 1
340 329 1
340 332 1
340 334 1
340 344 1
340 346 1
340 348 1
340 352 1
340 357 1
340 358 1
340 360 1
340 361 1
340 362 1
340 363 1
340 364 1
340 367 1
340 369 1
340 371 1
340 374 1
340 378 1
340 381 1
340 382 1
340 387 1
340 389 1
340 390 1
340 393 1
340 395 1
340 397 1
340 398 1
341 2 1
341 5 1
341 6 1
341 9 1
341 12 1
341 13 1
341 15 1
341 16 1
341 17 1
341 19 1
341 20 1
341 21 1
341 22 1
341 23 1
341 26 1
341 29 1
341 38 1
341 39 1
341 41 1
341 42 1
341 43 1
341 48 1
341 52 1
341 53 1
341 59 1
341 66 1
341 69 1
341 70 1
341 74 1
341 75 1
341 77 1
341 78 1
341 83 1
341 87 1
341 89 1
341 90 1
341 91 1
341 95 1
341 97 1
341 99 1
341 102 1
341 105 1
341 107 1
341 109 1
341 112 1
341 115 1
341 116 1
341 118 1
341 121 1
341 125 1
341 126 1
341 127 1
341 129 1
341 130 1
341 131 1
341 133 1
341 136 1
341 137 1
341 138 1
341 140 1
341 143 1
341 145 1
341 147 1
341 148 1
341 150 1
341 158 1
341 165 1
341 167 1
341 179 1
341 182 1
341 184 1
341 186 1
341 189 1
341 190 1
341 197 1
341 198 1
341 205 1
341 206 1
341 207 1
341 210 1
341 216 1
341 218 1
341 220 1
341 221 1
341 222 1
341 224 1
341 226 1
341 228 1
341 232 1
341 233 1
341 235 1
341 237 1
341 239 1
341 243 1
341 246 1
341 250 1
341 259 1
341 261 1
341 263 1
341 265 1
341 266 1
341 270 1
341 271 1
341 272 1
341 273 1
341 275 1
341 277 1
341 284 1
341 285 1
341 290 1
341 294 1
341 297 1
341 306 1
341 307 1
341 308 1
341 311 1
341 313 1
341 314 1
341 315 1
341 316 1
341 317 1
341 320 1
341 321 1
341 323 1
341 326 1
341 328 1
341 329 1
341 332 1
341 338 1
341 339 1
341 342 1
341 345 1
341 348 1
341 352 1
341 354 1
341 363 1
341 364 1
341 365 1
341 367 1
341 369 1
341 371 1
341 377 1
341 380 1
341 381 1
341 382 1
341 383 1
341 391 1
341 392 1
341 395 1
341 396 1
341 397 1
341 400 1
342 4 1
342 9 1
342 10 1
342 11 1
342 12 1
342 15 1
342 16 1
342 18 1
342 19 1
342 20 1
342 24 1
342 27 1
342 28 1
342 31 1
342 39 1
342 43 1
342 47 1
342 49 1
342 50 1
342 53 1
342 56 1
342 60 1
342 61 1
342 62 1
342 67 1
342 69 1
342 74 1
342 75 1
342 76 1
342 79 1
342 81 1
342 82 1
342 83 1
342 84 1
342 86 1
342 89 1
342 90 1
342 99 1
342 103 1
342 104 1
342 105 1
342 106 1
342 107 1
342 108 1
342 109 1
342 110 1
342 112 1
342 114 1
342 120 1
342 121 1
342 124 1
342 125 1
342 126 1
342 133 1
342 138 1
342 139 1
342 142 1
342 146 1
342 148 1
342 155 1
342 161 1
342 162 1
342 164 1
342 166 1
342 167 1
342 168 1
342 172 1
342 173 1
342 178 1
342 181 1
342 182 1
342 183 1
342 185 1
342 190 1
342 191 1
342 196 1
342 197 1
342 199 1
342 200 1
342 201 1
342 204 1
342 210 1
342 217 1
342 218 1
342 221 1
342 222 1
342 224 1
342 227 1
342 231 1
342 238 1
342 239 1
342 240 1
342 241 1
342 242 1
342 244 1
342 247 1
342 248 1
342 253 1
342 265 1
342 273 1
342 280 1
342 281 1
342 283 1
342 284 1
342 286 1
342 288 1
342 289 1
342 290 1
342 291 1
342 297 1
342 303 1
342 304 1
342 307 1
342 311 1
342 315 1
342 316 1
342 319 1
342 321 1
342 322 1
342 323 1
342 329 1
342 333 1
342 336 1
342 339 1
342 341 1
342 344 1
342 345 1
342 347 1
342 348 1
342 352 1
342 354 1
342 357 1
342 362 1
342 363 1
342 364 1
342 367 1
342 370 1
342 372 1
342 381 1
342 384 1
342 388 1
342 389 1
342 391 1
342 397 1
342 398 1
343 2 1
343 4 1
343 5 1
343 6 1
343 9 1
343 10 1
343 15 1
343 16 1
343 17 1
343 18 1
343 22 1
343 25 1
343 26 1
343 27 1
343 34 1
343 39 1
343 40 1
343 41 1
343 42 1
343 44 1
343 45 1
343 47 1
343 48 1
343 55 1
343 58 1
343 60 1
343 67 1
343 72 1
343 73 1
343 78 1
343 79 1
343 82 1
343 83 1
343 85 1
343 86 1
343 88 1
343 90 1
343 91 1
343 93 1
343 94 1
343 102 1
343 104 1
343 106 1
343 108 1
343 110 1
343 114 1
343 116 1
343 119 1
343 120 1
343 121 1
343 124 1
343 125 1
343 126 1
343 127 1
343 131 1
343 137 1
343 139 1
343 140 1
343 141 1
343 143 1
343 144 1
343 146 1
343 151 1
343 152 1
343 153 1
343 162 1
343 163 1
343 166 1
343 167 1
343 168 1
343 169 1
343 170 1
343 173 1
343 175 1
343 176 1
343 178 1
343 179 1
343 181 1
343 182 1
343 185 1
343 186 1
343 187 1
343 189 1
343 190 1
343 192 1
343 197 1
343 199 1
343 200 1
343 201 1
343 202 1
343 204 1
343 205 1
343 208 1
343 211 1
343 213 1
343 215 1
343 217 1
343 218 1
343 220 1
343 223 1
343 224 1
343 227 1
343 228 1
343 229 1
343 230 1
343 231 1
343 235 1
343 237 1
343 239 1
343 245 1
343 246 1
343 248 1
343 249 1
343 251 1
343 252 1
343 255 1
343 257 1
343 258 1
343 259 1
343 261 1
343 266 1
343 267 1
343 269 1
343 276 1
343 280 1
343 284 1
343 287 1
343 294 1
343 295 1
343 298 1
343 304 1
343 305 1
343 306 1
343 307 1
343 308 1
343 309 1
343 310 1
343 315 1
343 316 1
343 317 1
343 318 1
343 319 1
343 320 1
343 321 1
343 322 1
343 324 1
343 326 1
343 329 1
343 330 1
343 333 1
343 335 1
343 336 1
343 344 1
343 345 1
343 346 1
343 347 1
343 348 1
343 350 1
343 352 1
343 355 1
343 357 1
343 358 1
343 361 1
343 362 1
343 364 1
343 366 1
343 367 1
343 368 1
343 370 1
343 372 1
343 374 1
343 375 1
343 377 1
343 379 1
343 385 1
343 386 1
343 388 1
343 389 1
343 390 1
343 394 1
343 395 1
343 398 1
343 400 1
344 4 1
344 6 1
344 7 1
344 8 1
344 11 1
344 13 1
344 22 1
344 23 1
344 28 1
344 30 1
344 31 1
344 32 1
344 36 1
344 37 1
344 39 1
344 45 1
344 48 1
344 50 1
344 55 1
344 58 1
344 59 1
344 60 1
344 63 1
344 64 1
344 67 1
344 69 1
344 71 1
344 74 1
344 79 1
344 80 1
344 88 1
344 89 1
344 91 1
344 94 1
344 95 1
344 98 1
344 99 1
344 103 1
344 104 1
344 105 1
344 108 1
344 115 1
344 116 1
344 117 1
344 118 1
344 119 1
344 120 1
344 125 1
344 128 1
344 133 1
344 134 1
344 137 1
344 138 1
344 141 1
344 143 1
344 144 1
344 146 1
344 148 1
344 153 1
344 155 1
344 161 1
344 162 1
344 163 1
344 167 1
344 170 1
344 171 1
344 172 1
344 174 1
344 176 1
344 178 1
344 179 1
344 186 1
344 191 1
344 197 1
344 198 1
344 199 1
344 200 1
344 204 1
344 206 1
344 209 1
344 213 1
344 216 1
344 221 1
344 223 1
344 225 1
344 229 1
344 230 1
344 231 1
344 237 1
344 240 1
344 243 1
344 245 1
344 248 1
344 255 1
344 257 1
344 262 1
344 263 1
344 265 1
344 267 1
344 268 1
344 269 1
344 271 1
344 272 1
344 286 1
344 287 1
344 288 1
344 289 1
344 292 1
344 293 1
344 297 1
344 298 1
344 303 1
344 305 1
344 312 1
344 313 1
344 314 1
344 318 1
344 319 1
344 321 1
344 323 1
344 325 1
344 327 1
344 328 1
344 333 1
344 336 1
344 337 1
344 338 1
344 340 1
344 342 1
344 343 1
344 345 1
344 348 1
344 349 1
344 351 1
344 355 1
344 361 1
344 363 1
344 368 1
344 371 1
344 374 1
344 380 1
344 383 1
344 385 1
344 386 1
344 387 1
344 388 1
344 389 1
344 391 1
344 395 1
344 398 1
344 400 1
345 1 1
345 3 1
345 5 1
345 6 1
345 10 1
345 11 1
345 12 1
345 13 1
345 21 1
345 29 1
345 30 1
345 37 1
345 48 1
345 54 1
345 59 1
345 60 1
345 61 1
345 63 1
345 64 1
345 68 1
345 69 1
345 70 1
345 77 1
345 85 1
345 86 1
345 87 1
345 88 1
345 93 1
345 96 1
345 98 1
345 106 1
345 108 1
345 110 1
345 111 1
345 113 1
345 115 1
345 117 1
345 118 1
345 120 1
345 122 1
345 123 1
345 130 1
345 134 1
345 135 1
345 136 1
345 137 1
345 139 1
345 143 1
345 146 1
345 147 1
345 150 1
345 151 1
345 154 1
345 157 1
345 161 1
345 163 1
345 164 1
345 165 1
345 172 1
345 173 1
345 176 1
345 178 1
345 180 1
345 188 1
345 193 1
345 195 1
345 196 1
345 197 1
345 198 1
345 200 1
345 203 1
345 205 1
345 206 1
345 209 1
345 210 1
345 211 1
345 212 1
345 213 1
345 214 1
345 215 1
345 220 1
345 223 1
345 224 1
345 226 1
345 228 1
345 229 1
345 232 1
345 236 1
345 237 1
345 238 1
345 241 1
345 243 1
345 247 1
345 248 1
345 250 1
345 252 1
345 255 1
345 256 1
345 257 1
345 260 1
345 261 1
345 263 1
345 266 1
345 274 1
345 275 1
345 276 1
345 277 1
345 281 1
345 282 1
345 285 1
345 290 1
345 292 1
345 294 1
345 297 1
345 299 1
345 306 1
345 307 1
345 310 1
345 313 1
345 315 1
345 316 1
345 319 1
345 321 1
345 322 1
345 325 1
345 326 1
345 328 1
345 330 1
345 331 1
345 332 1
345 335 1
345 341 1
345 342 1
345 343 1
345 344 1
345 347 1
345 349 1
345 351 1
345 353 1
345 356 1
345 357 1
345 358 1
345 367 1
345 369 1
345 371 1
345 373 1
345 376 1
345 377 1
345 378 1
345 380 1
345 384 1
345 385 1
345 389 1
345 390 1
345 391 1
345 393 1
345 394 1
345 395 1
345 396 1
345 397 1
345 398 1
345 399 1
346 1 1
346 6 1
346 7 1
346 10 1
346 17 1
346 20 1
346 22 1
346 25 1
346 28 1
346 30 1
346 32 1
346 33 1
346 39 1
346 43 1
346 46 1
346 50 1
346 51 1
346 52 1
346 62 1
346 63 1
346 65 1
346 73 1
346 75 1
346 76 1
346 81 1
346 82 1
346 83 1
346 84 1
346 86 1
346 87 1
346 88 1
346 91 1
346 92 1
346 93 1
346 95 1
346 96 1
346 97 1
346 99 1
346 100 1
346 102 1
346 103 1
346 104 1
346 106 1
346 110 1
346 113 1
346 117 1
346 122 1
346 126 1
346 127 1
346 128 1
346 131 1
346 136 1
346 142 1
346 145 1
346 146 1
346 149 1
346 150 1
346 151 1
346 154 1
346 156 1
346 161 1
346 162 1
346 166 1
346 168 1
346 176 1
346 178 1
346 181 1
346 182 1
346 183 1
346 184 1
346 190 1
346 191 1
346 193 1
346 195 1
346 197 1
346 199 1
346 201 1
346 202 1
346 204 1
346 206 1
346 207 1
346 208 1
346 210 1
346 211 1
346 213 1
346 215 1
346 216 1
346 219 1
346 220 1
346 224 1
346 225 1
346 227 1
346 229 1
346 231 1
346 247 1
346 249 1
346 252 1
346 254 1
346 259 1
346 260 1
346 261 1
346 262 1
346 264 1
346 267 1
346 272 1
346 275 1
346 278 1
346 279 1
346 282 1
346 285 1
346 289 1
346 292 1
346 293 1
346 295 1
346 300 1
346 301 1
346 304 1
346 308 1
346 317 1
346 320 1
346 326 1
346 327 1
346 329 1
346 333 1
346 335 1
346 340 1
346 343 1
346 351 1
346 355 1
346 357 1
346 359 1
346 362 1
346 367 1
346 368 1
346 370 1
346 379 1
346 381 1
346 382 1
346 386 1
346 387 1
346 390 1
346 391 1
346 395 1
346 396 1
346 399 1
347 6 1
347 8 1
347 12 1
347 15 1
347 16 1
347 18 1
347 21 1
347 22 1
347 23 1
347 24 1
347 25 1
347 26 1
347 27 1
347 28 1
347 32 1
347 35 1
347 37 1
347 39 1
347 40 1
347 41 1
347 42 1
347 47 1
347 49 1
347 50 1
347 53 1
347 54 1
347 55 1
347 57 1
347 59 1
347 60 1
347 67 1
347 69 1
347 71 1
347 73 1
347 74 1
347 75 1
347 78 1
347 82 1
347 86 1
347 87 1
347 92 1
347 94 1
347 96 1
347 98 1
347 99 1
347 102 1
347 105 1
347 109 1
347 110 1
347 111 1
347 112 1
347 118 1
347 124 1
347 133 1
347 137 1
347 138 1
347 139 1
347 143 1
347 146 1
347 147 1
347 153 1
347 154 1
347 158 1
347 163 1
347 165 1
347 167 1
347 169 1
347 171 1
347 174 1
347 175 1
347 178 1
347 181 1
347 184 1
347 185 1
347 186 1
347 190 1
347 193 1
347 194 1
347 198 1
347 199 1
347 200 1
347 201 1
347 204 1
347 205 1
347 206 1
347 210 1
347 211 1
347 213 1
347 215 1
347 217 1
347 220 1
347 221 1
347 223 1
347 225 1
347 226 1
347 228 1
347 233 1
347 235 1
347 236 1
347 238 1
347 241 1
347 242 1
347 245 1
347 246 1
347 248 1
347 249 1
347 251 1
347 252 1
347 254 1
347 257 1
347 258 1
347 263 1
347 264 1
347 268 1
347 270 1
347 272 1
347 273 1
347 274 1
347 276 1
347 281 1
347 286 1
347 288 1
347 289 1
347 290 1
347 296 1
347 300 1
347 302 1
347 305 1
347 307 1
347 310 1
347 311 1
347 312 1
347 315 1
347 316 1
347 319 1
347 321 1
347 323 1
347 324 1
347 328 1
347 330 1
347 331 1
347 333 1
347 337 1
347 339 1
347 342 1
347 343 1
347 345 1
347 350 1
347 351 1
347 354 1
347 357 1
347 358 1
347 359 1
347 360 1
347 362 1
347 364 1
347 368 1
347 370 1
347 371 1
347 372 1
347 375 1
347 376 1
347 377 1
347 378 1
347 380 1
347 386 1
347 387 1
347 391 1
347 395 1
347 397 1
347 398 1
347 399 1
348 2 1
348 4 1
348 8 1
348 9 1
348 10 1
348 11 1
348 16 1
348 17 1
348 18 1
348 21 1
348 22 1
348 26 1
348 27 1
348 28 1
348 30 1
348 32 1
348 35 1
348 37 1
348 38 1
348 39 1
348 42 1
348 45 1
348 48 1
348 51 1
348 54 1
348 60 1
348 63 1
348 65 1
348 67 1
348 70 1
348 72 1
348 73 1
348 77 1
348 79 1
348 81 1
348 82 1
348 83 1
348 91 1
348 92 1
348 93 1
348 94 1
348 98 1
348 104 1
348 105 1
348 107 1
348 108 1
348 111 1
348 113 1
348 115 1
348 122 1
348 124 1
348 125 1
348 126 1
348 129 1
348 131 1
348 132 1
348 137 1
348 140 1
348 141 1
348 142 1
348 143 1
348 146 1
348 149 1
348 157 1
348 162 1
348 164 1
348 167 1
348 168 1
348 170 1
348 171 1
348 172 1
348 174 1
348 175 1
348 179 1
348 184 1
348 185 1
348 187 1
348 189 1
348 190 1
348 191 1
348 192 1
348 195 1
348 197 1
348 201 1
348 202 1
348 203 1
348 204 1
348 205 1
348 206 1
348 209 1
348 210 1
348 213 1
348 214 1
348 215 1
348 220 1
348 221 1
348 224 1
348 228 1
348 229 1
348 233 1
348 235 1
348 237 1
348 238 1
348 242 1
348 247 1
348 252 1
348 254 1
348 255 1
348 256 1
348 257 1
348 259 1
348 260 1
348 261 1
348 262 1
348 265 1
348 266 1
348 270 1
348 275 1
348 276 1
348 277 1
348 285 1
348 291 1
348 293 1
348 295 1
348 298 1
348 299 1
348 304 1
348 306 1
348 307 1
348 308 1
348 310 1
348 312 1
348 313 1
348 314 1
348 317 1
348 323 1
348 324 1
348 328 1
348 332 1
348 333 1
348 335 1
348 337 1
348 338 1
348 340 1
348 341 1
348 342 1
348 343 1
348 344 1
348 349 1
348 352 1
348 353 1
348 355 1
348 358 1
348 359 1
348 362 1
348 364 1
348 365 1
348 366 1
348 368 1
348 375 1
348 376 1
348 378 1
348 379 1
348 380 1
348 383 1
348 384 1
348 385 1
348 386 1
348 387 1
348 388 1
348 394 1
348 395 1
348 396 1
348 400 1
349 2 1
349 3 1
349 4 1
349 11 1
349 14 1
349 21 1
349 22 1
349 24 1
349 26 1
349 27 1
349 28 1
349 31 1
349 36 1
349 40 1
349 45 1
349 49 1
349 50 1
349 52 1
349 53 1
349 54 1
349 59 1
349 61 1
349 67 1
349 72 1
349 73 1
349 75 1
349 76 1
349 77 1
349 83 1
349 87 1
349 90 1
349 92 1
349 93 1
349 99 1
349 103 1
349 110 1
349 111 1
349 113 1
349 114 1
349 115 1
349 121 1
349 122 1
349 124 1
349 128 1
349 129 1
349 132 1
349 137 1
349 140 1
349 141 1
349 143 1
349 144 1
349 145 1
349 146 1
349 147 1
349 148 1
349 150 1
349 153 1
349 154 1
349 157 1
349 158 1
349 159 1
349 162 1
349 163 1
349 167 1
349 168 1
349 171 1
349 173 1
349 180 1
349 182 1
349 185 1
349 186 1
349 188 1
349 192 1
349 195 1
349 209 1
349 210 1
349 211 1
349 213 1
349 215 1
349 218 1
349 219 1
349 224 1
349 225 1
349 227 1
349 235 1
349 236 1
349 237 1
349 240 1
349 241 1
349 244 1
349 247 1
349 248 1
349 249 1
349 254 1
349 255 1
349 256 1
349 266 1
349 267 1
349 269 1
349 271 1
349 275 1
349 277 1
349 281 1
349 282 1
349 286 1
349 287 1
349 289 1
349 290 1
349 293 1
349 297 1
349 300 1
349 302 1
349 308 1
349 311 1
349 315 1
349 316 1
349 317 1
349 319 1
349 321 1
349 322 1
349 324 1
349 325 1
349 326 1
349 329 1
349 330 1
349 337 1
349 344 1
349 345 1
349 348 1
349 350 1
349 351 1
349 354 1
349 356 1
349 357 1
349 358 1
349 359 1
349 363 1
349 367 1
349 369 1
349 371 1
349 372 1
349 373 1
349 375 1
349 377 1
349 380 1
349 382 1
349 384 1
349 387 1
349 388 1
349 389 1
349 390 1
349 391 1
349 394 1
350 5 1
350 8 1
350 15 1
350 16 1
350 19 1
350 22 1
350 23 1
350 24 1
350 26 1
350 29 1
350 31 1
350 46 1
350 58 1
350 59 1
350 60 1
350 63 1
350 68 1
350 73 1
350 76 1
350 77 1
350 78 1
350 79 1
350 85 1
350 88 1
350 95 1
350 96 1
350 97 1
350 100 1
350 102 1
350 103 1
350 104 1
350 105 1
350 106 1
350 112 1
350 114 1
350 115 1
350 118 1
350 121 1
350 123 1
350 124 1
350 126 1
350 128 1
350 130 1
350 135 1
350 136 1
350 140 1
350 141 1
350 144 1
350 147 1
350 148 1
350 150 1
350 151 1
350 153 1
350 156 1
350 157 1
350 160 1
350 165 1
350 166 1
350 168 1
350 171 1
350 179 1
350 183 1
350 184 1
350 186 1
350 187 1
350 188 1
350 189 1
350 190 1
350 191 1
350 192 1
350 193 1
350 194 1
350 201 1
350 203 1
350 204 1
350 205 1
350 206 1
350 208 1
350 210 1
350 212 1
350 214 1
350 219 1
350 222 1
350 226 1
350 229 1
350 232 1
350 235 1
350 240 1
350 241 1
350 242 1
350 244 1
350 248 1
350 250 1
350 251 1
350 252 1
350 254 1
350 259 1
350 270 1
350 273 1
350 274 1
350 277 1
350 278 1
350 279 1
350 281 1
350 282 1
350 283 1
350 284 1
350 287 1
350 295 1
350 303 1
350 305 1
350 306 1
350 309 1
350 321 1
350 324 1
350 325 1
350 329 1
350 330 1
350 335 1
350 337 1
350 343 1
350 347 1
350 349 1
350 351 1
350 352 1
350 353 1
350 356 1
350 357 1
350 359 1
350 361 1
350 362 1
350 370 1
350 373 1
350 375 1
350 377 1
350 381 1
350 383 1
350 384 1
350 385 1
350 386 1
350 394 1
350 395 1
350 396 1
350 397 1
350 400 1
351 2 1
351 3 1
351 5 1
351 10 1
351 11 1
351 14 1
351 16 1
351 17 1
351 18 1
351 21 1
351 22 1
351 25 1
351 29 1
351 32 1
351 33 1
351 36 1
351 38 1
351 39 1
351 43 1
351 55 1
351 57 1
351 60 1
351 62 1
351 65 1
351 71 1
351 72 1
351 74 1
351 75 1
351 76 1
351 78 1
351 81 1
351 84 1
351 85 1
351 86 1
351 87 1
351 88 1
351 90 1
351 92 1
351 94 1
351 95 1
351 99 1
351 101 1
351 102 1
351 106 1
351 107 1
351 108 1
351 110 1
351 113 1
351 116 1
351 120 1
351 121 1
351 122 1
351 123 1
351 124 1
351 126 1
351 129 1
351 131 1
351 135 1
351 140 1
351 141 1
351 142 1
351 143 1
351 145 1
351 147 1
351 151 1
351 152 1
351 155 1
351 157 1
351 160 1
351 161 1
351 165 1
351 166 1
351 167 1
351 173 1
351 175 1
351 176 1
351 177 1
351 180 1
351 182 1
351 186 1
351 187 1
351 188 1
351 192 1
351 195 1
351 199 1
351 205 1
351 206 1
351 209 1
351 213 1
351 214 1
351 215 1
351 223 1
351 224 1
351 230 1
351 234 1
351 235 1
351 240 1
351 241 1
351 242 1
351 244 1
351 248 1
351 253 1
351 255 1
351 260 1
351 261 1
351 268 1
351 269 1
351 270 1
351 271 1
351 274 1
351 276 1
351 277 1
351 279 1
351 281 1
351 286 1
351 287 1
351 288 1
351 289 1
351 291 1
351 294 1
351 295 1
351 296 1
351 299 1
351 301 1
351 303 1
351 314 1
351 315 1
351 317 1
351 318 1
351 323 1
351 324 1
351 328 1
351 329 1
351 331 1
351 333 1
351 334 1
351 344 1
351 345 1
351 346 1
351 347 1
351 349 1
351 350 1
351 353 1
351 364 1
351 366 1
351 369 1
351 370 1
351 371 1
351 372 1
351 373 1
351 374 1
351 375 1
351 376 1
351 379 1
351 380 1
351 383 1
351 386 1
351 387 1
351 388 1
351 389 1
351 390 1
351 392 1
351 395 1
351 397 1
351 399 1
351 400 1
352 3 1
352 4 1
352 5 1
352 6 1
352 10 1
352 14 1
352 16 1
352 19 1
352 20 1
352 23 1
352 24 1
352 25 1
352 30 1
352 31 1
352 35 1
352 44 1
352 46 1
352 48 1
352 53 1
352 54 1
352 58 1
352 60 1
352 61 1
352 63 1
352 65 1
352 67 1
352 69 1
352 77 1
352 80 1
352 82 1
352 83 1
352 85 1
352 89 1
352 92 1
352 95 1
352 96 1
352 100 1
352 102 1
352 106 1
352 109 1
352 110 1
352 111 1
352 112 1
352 115 1
352 117 1
352 119 1
352 122 1
352 126 1
352 128 1
352 132 1
352 135 1
352 136 1
352 138 1
352 139 1
352 140 1
352 145 1
352 147 1
352 148 1
352 149 1
352 152 1
352 153 1
352 155 1
352 157 1
352 160 1
352 162 1
352 164 1
352 170 1
352 174 1
352 180 1
352 187 1
352 191 1
352 194 1
352 195 1
352 196 1
352 200 1
352 203 1
352 206 1
352 208 1
352 211 1
352 212 1
352 213 1
352 214 1
352 216 1
352 217 1
352 222 1
352 224 1
352 226 1
352 229 1
352 230 1
352 231 1
352 233 1
352 235 1
352 242 1
352 245 1
352 248 1
352 249 1
352 250 1
352 253 1
352 258 1
352 260 1
352 262 1
352 264 1
352 265 1
352 268 1
352 272 1
352 273 1
352 275 1
352 278 1
352 284 1
352 288 1
352 290 1
352 293 1
352 294 1
352 297 1
352 300 1
352 301 1
352 302 1
352 303 1
352 310 1
352 316 1
352 318 1
352 319 1
352 320 1
352 321 1
352 323 1
352 324 1
352 326 1
352 332 1
352 334 1
352 338 1
352 339 1
352 340 1
352 341 1
352 342 1
352 343 1
352 348 1
352 350 1
352 355 1
352 356 1
352 357 1
352 361 1
352 363 1
352 366 1
352 367 1
352 368 1
352 373 1
352 374 1
352 376 1
352 380 1
352 382 1
352 385 1
352 389 1
352 391 1
352 393 1
352 394 1
352 400 1
353 2 1
353 4 1
353 5 1
353 9 1
353 14 1
353 17 1
353 22 1
353 23 1
353 25 1
353 26 1
353 27 1
353 33 1
353 43 1
353 49 1
353 50 1
353 55 1
353 59 1
353 65 1
353 67 1
353 68 1
353 72 1
353 74 1
353 76 1
353 81 1
353 84 1
353 88 1
353 93 1
353 95 1
353 98 1
353 99 1
353 101 1
353 102 1
353 106 1
353 108 1
353 111 1
353 117 1
353 118 1
353 123 1
353 124 1
353 131 1
353 134 1
353 135 1
353 138 1
353 139 1
353 143 1
353 144 1
353 146 1
353 147 1
353 148 1
353 149 1
353 150 1
353 151 1
353 152 1
353 154 1
353 156 1
353 158 1
353 162 1
353 164 1
353 166 1
353 167 1
353 170 1
353 171 1
353 172 1
353 176 1
353 177 1
353 178 1
353 182 1
353 186 1
353 187 1
353 188 1
353 191 1
353 194 1
353 195 1
353 198 1
353 201 1
353 204 1
353 206 1
353 216 1
353 217 1
353 220 1
353 221 1
353 222 1
353 224 1
353 227 1
353 229 1
353 234 1
353 236 1
353 238 1
353 240 1
353 242 1
353 244 1
353 247 1
353 248 1
353 257 1
353 259 1
353 264 1
353 270 1
353 273 1
353 274 1
353 282 1
353 284 1
353 286 1
353 291 1
353 292 1
353 295 1
353 304 1
353 305 1
353 306 1
353 308 1
353 314 1
353 318 1
353 324 1
353 327 1
353 328 1
353 331 1
353 332 1
353 334 1
353 345 1
353 348 1
353 350 1
353 351 1
353 355 1
353 357 1
353 359 1
353 360 1
353 363 1
353 366 1
353 367 1
353 368 1
353 369 1
353 370 1
353 373 1
353 375 1
353 376 1
353 377 1
353 378 1
353 379 1
353 380 1
353 383 1
353 387 1
353 388 1
353 389 1
353 396 1
353 397 1
353 399 1
353 400 1
354 1 1
354 5 1
354 7 1
354 8 1
354 11 1
354 14 1
354 15 1
354 17 1
354 27 1
354 28 1
354 31 1
354 33 1
354 46 1
354 48 1
354 49 1
354 50 1
354 51 1
354 53 1
354 55 1
354 56 1
354 58 1
354 59 1
354 60 1
354 62 1
354 64 1
354 66 1
354 67 1
354 77 1
354 80 1
354 82 1
354 83 1
354 85 1
354 87 1
354 93 1
354 94 1
354 104 1
354 106 1
354 108 1
354 109 1
354 113 1
354 115 1
354 119 1
354 123 1
354 124 1
354 126 1
354 129 1
354 130 1
354 133 1
354 134 1
354 136 1
354 139 1
354 143 1
354 150 1
354 151 1
354 153 1
354 154 1
354 155 1
354 157 1
354 160 1
354 167 1
354 169 1
354 171 1
354 172 1
354 174 1
354 175 1
354 177 1
354 178 1
354 184 1
354 190 1
354 194 1
354 196 1
354 200 1
354 201 1
354 204 1
354 207 1
354 209 1
354 215 1
354 217 1
354 220 1
354 221 1
354 224 1
354 225 1
354 228 1
354 232 1
354 235 1
354 236 1
354 240 1
354 242 1
354 244 1
354 252 1
354 260 1
354 263 1
354 265 1
354 266 1
354 267 1
354 268 1
354 269 1
354 271 1
354 272 1
354 273 1
354 279 1
354 281 1
354 283 1
354 284 1
354 286 1
354 290 1
354 294 1
354 304 1
354 305 1
354 306 1
354 310 1
354 311 1
354 314 1
354 320 1
354 323 1
354 326 1
354 327 1
354 331 1
354 332 1
354 335 1
354 337 1
354 341 1
354 342 1
354 347 1
354 349 1
354 355 1
354 363 1
354 364 1
354 367 1
354 370 1
354 372 1
354 376 1
354 378 1
354 379 1
354 380 1
354 382 1
354 384 1
354 387 1
354 388 1
354 392 1
354 395 1
354 396 1
354 399 1
355 1 1
355 4 1
355 6 1
355 7 1
355 8 1
355 9 1
355 10 1
355 13 1
355 14 1
355 16 1
355 20 1
355 21 1
355 23 1
355 31 1
355 36 1
355 37 1
355 42 1
355 43 1
355 45 1
355 47 1
355 52 1
355 55 1
355 56 1
355 59 1
355 60 1
355 63 1
355 72 1
355 76 1
355 77 1
355 79 1
355 85 1
355 86 1
355 89 1
355 90 1
355 92 1
355 93 1
355 97 1
355 99 1
355 100 1
355 108 1
355 111 1
355 112 1
355 116 1
355 118 1
355 120 1
355 121 1
355 122 1
355 123 1
355 124 1
355 125 1
355 127 1
355 129 1
355 134 1
355 138 1
355 147 1
355 149 1
355 151 1
355 152 1
355 153 1
355 158 1
355 162 1
355 167 1
355 168 1
355 172 1
355 173 1
355 174 1
355 178 1
355 180 1
355 182 1
355 183 1
355 186 1
355 188 1
355 189 1
355 191 1
355 193 1
355 198 1
355 200 1
355 201 1
355 202 1
355 203 1
355 204 1
355 205 1
355 207 1
355 212 1
355 213 1
355 215 1
355 216 1
355 219 1
355 222 1
355 223 1
355 226 1
355 232 1
355 234 1
355 238 1
355 248 1
355 249 1
355 250 1
355 254 1
355 256 1
355 257 1
355 258 1
355 260 1
355 262 1
355 263 1
355 268 1
355 269 1
355 272 1
355 277 1
355 280 1
355 281 1
355 284 1
355 285 1
355 287 1
355 289 1
355 290 1
355 292 1
355 295 1
355 302 1
355 303 1
355 308 1
355 310 1
355 311 1
355 312 1
355 313 1
355 318 1
355 319 1
355 321 1
355 323 1
355 324 1
355 328 1
355 330 1
355 331 1
355 332 1
355 333 1
355 334 1
355 335 1
355 337 1
355 338 1
355 343 1
355 344 1
355 346 1
355 348 1
355 352 1
355 353 1
355 354 1
355 356 1
355 357 1
355 358 1
355 359 1
355 361 1
355 362 1
355 363 1
355 364 1
355 370 1
355 373 1
355 375 1
355 376 1
355 377 1
355 378 1
355 380 1
355 381 1
355 382 1
355 383 1
355 388 1
355 389 1
355 391 1
355 392 1
355 394 1
355 398 1
356 1 1
356 2 1
356 3 1
356 9 1
356 10 1
356 11 1
356 13 1
356 19 1
356 22 1
356 25 1
356 29 1
356 32 1
356 33 1
356 35 1
356 36 1
356 37 1
356 38 1
356 40 1
356 42 1
356 44 1
356 45 1
356 48 1
356 49 1
356 53 1
356 55 1
356 56 1
356 58 1
356 60 1
356 63 1
356 65 1
356 67 1
356 70 1
356 71 1
356 72 1
356 74 1
356 75 1
356 76 1
356 77 1
356 78 1
356 79 1
356 83 1
356 85 1
356 86 1
356 94 1
356 95 1
356 100 1
356 105 1
356 110 1
356 112 1
356 113 1
356 116 1
356 117 1
356 119 1
356 121 1
356 122 1
356 127 1
356 130 1
356 133 1
356 139 1
356 140 1
356 141 1
356 148 1
356 151 1
356 152 1
356 153 1
356 159 1
356 167 1
356 169 1
356 170 1
356 171 1
356 174 1
356 176 1
356 178 1
356 184 1
356 185 1
356 186 1
356 188 1
356 195 1
356 200 1
356 201 1
356 202 1
356 204 1
356 206 1
356 209 1
356 210 1
356 211 1
356 214 1
356 215 1
356 218 1
356 224 1
356 233 1
356 234 1
356 237 1
356 239 1
356 240 1
356 245 1
356 247 1
356 248 1
356 250 1
356 259 1
356 261 1
356 264 1
356 265 1
356 266 1
356 268 1
356 269 1
356 271 1
356 273 1
356 274 1
356 276 1
356 279 1
356 280 1
356 282 1
356 289 1
356 292 1
356 293 1
356 294 1
356 299 1
356 301 1
356 303 1
356 304 1
356 305 1
356 306 1
356 307 1
356 308 1
356 309 1
356 310 1
356 312 1
356 315 1
356 316 1
356 317 1
356 319 1
356 322 1
356 323 1
356 324 1
356 325 1
356 328 1
356 330 1
356 332 1
356 334 1
356 335 1
356 336 1
356 337 1
356 338 1
356 339 1
356 345 1
356 349 1
356 350 1
356 352 1
356 355 1
356 358 1
356 360 1
356 363 1
356 368 1
356 370 1
356 371 1
356 375 1
356 376 1
356 377 1
356 378 1
356 380 1
356 381 1
356 387 1
356 388 1
356 392 1
356 393 1
356 395 1
356 397 1
356 398 1
357 1 1
357 2 1
357 3 1
357 5 1
357 8 1
357 9 1
357 10 1
357 12 1
357 13 1
357 15 1
357 18 1
357 27 1
357 29 1
357 31 1
357 34 1
357 36 1
357 40 1
357 41 1
357 43 1
357 44 1
357 45 1
357 46 1
357 47 1
357 50 1
357 63 1
357 64 1
357 65 1
357 67 1
357 69 1
357 73 1
357 75 1
357 76 1
357 77 1
357 78 1
357 81 1
357 83 1
357 84 1
357 86 1
357 87 1
357 92 1
357 96 1
357 97 1
357 99 1
357 102 1
357 104 1
357 108 1
357 110 1
357 112 1
357 115 1
357 116 1
357 117 1
357 120 1
357 121 1
357 122 1
357 125 1
357 126 1
357 127 1
357 128 1
357 129 1
357 131 1
357 133 1
357 139 1
357 140 1
357 141 1
357 142 1
357 144 1
357 145 1
357 147 1
357 157 1
357 162 1
357 167 1
357 168 1
357 169 1
357 170 1
357 171 1
357 173 1
357 176 1
357 178 1
357 179 1
357 181 1
357 185 1
357 186 1
357 187 1
357 191 1
357 193 1
357 196 1
357 198 1
357 204 1
357 206 1
357 208 1
357 210 1
357 211 1
357 213 1
357 214 1
357 217 1
357 230 1
357 231 1
357 235 1
357 236 1
357 240 1
357 241 1
357 242 1
357 243 1
357 245 1
357 246 1
357 247 1
357 248 1
357 249 1
357 250 1
357 255 1
357 256 1
357 257 1
357 260 1
357 261 1
357 262 1
357 265 1
357 267 1
357 269 1
357 273 1
357 275 1
357 277 1
357 281 1
357 282 1
357 284 1
357 290 1
357 291 1
357 292 1
357 294 1
357 296 1
357 297 1
357 298 1
357 301 1
357 302 1
357 304 1
357 309 1
357 311 1
357 313 1
357 316 1
357 319 1
357 321 1
357 326 1
357 327 1
357 328 1
357 332 1
357 333 1
357 338 1
357 339 1
357 340 1
357 342 1
357 343 1
357 345 1
357 346 1
357 347 1
357 349 1
357 350 1
357 352 1
357 353 1
357 355 1
357 362 1
357 364 1
357 372 1
357 375 1
357 384 1
357 385 1
357 388 1
357 396 1
357 397 1
357 400 1
358 1 1
358 4 1
358 5 1
358 10 1
358 18 1
358 21 1
358 22 1
358 28 1
358 29 1
358 32 1
358 36 1
358 37 1
358 38 1
358 40 1
358 41 1
358 47 1
358 51 1
358 52 1
358 53 1
358 56 1
358 64 1
358 65 1
358 66 1
358 69 1
358 70 1
358 72 1
358 76 1
358 78 1
358 80 1
358 81 1
358 82 1
358 83 1
358 90 1
358 91 1
358 96 1
358 97 1
358 98 1
358 100 1
358 101 1
358 106 1
358 110 1
358 112 1
358 113 1
358 116 1
358 120 1
358 126 1
358 127 1
358 129 1
358 130 1
358 131 1
358 132 1
358 134 1
358 135 1
358 138 1
358 141 1
358 144 1
358 145 1
358 148 1
358 153 1
358 156 1
358 157 1
358 158 1
358 161 1
358 168 1
358 170 1
358 174 1
358 176 1
358 177 1
358 178 1
358 180 1
358 182 1
358 184 1
358 185 1
358 187 1
358 189 1
358 190 1
358 192 1
358 195 1
358 197 1
358 198 1
358 199 1
358 202 1
358 204 1
358 207 1
358 209 1
358 210 1
358 216 1
358 222 1
358 224 1
358 229 1
358 237 1
358 238 1
358 240 1
358 244 1
358 245 1
358 247 1
358 250 1
358 261 1
358 262 1
358 264 1
358 269 1
358 270 1
358 273 1
358 277 1
358 279 1
358 281 1
358 286 1
358 287 1
358 289 1
358 292 1
358 293 1
358 294 1
358 296 1
358 300 1
358 301 1
358 308 1
358 313 1
358 319 1
358 320 1
358 321 1
358 323 1
358 325 1
358 326 1
358 327 1
358 328 1
358 330 1
358 331 1
358 332 1
358 334 1
358 336 1
358 337 1
358 339 1
358 340 1
358 343 1
358 345 1
358 347 1
358 348 1
358 349 1
358 355 1
358 356 1
358 360 1
358 362 1
358 365 1
358 369 1
358 372 1
358 373 1
358 374 1
358 375 1
358 376 1
358 377 1
358 379 1
358 380 1
358 381 1
358 383 1
358 385 1
358 386 1
358 388 1
358 389 1
358 390 1
358 395 1
358 400 1
359 7 1
359 8 1
359 10 1
359 12 1
359 13 1
359 14 1
359 15 1
359 20 1
359 22 1
359 30 1
359 31 1
359 32 1
359 35 1
359 43 1
359 47 1
359 50 1
359 52 1
359 53 1
359 54 1
359 56 1
359 64 1
359 68 1
359 70 1
359 73 1
359 75 1
359 76 1
359 77 1
359 81 1
359 82 1
359 85 1
359 89 1
359 91 1
359 96 1
359 97 1
359 99 1
359 103 1
359 108 1
359 113 1
359 114 1
359 115 1
359 118 1
359 119 1
359 121 1
359 122 1
359 123 1
359 127 1
359 128 1
359 131 1
359 133 1
359 135 1
359 136 1
359 147 1
359 149 1
359 151 1
359 153 1
359 154 1
359 155 1
359 156 1
359 157 1
359 160 1
359 165 1
359 173 1
359 177 1
359 178 1
359 179 1
359 180 1
359 181 1
359 182 1
359 186 1
359 189 1
359 191 1
359 192 1
359 193 1
359 198 1
359 199 1
359 200 1
359 201 1
359 202 1
359 203 1
359 205 1
359 211 1
359 213 1
359 216 1
359 218 1
359 219 1
359 222 1
359 223 1
359 226 1
359 228 1
359 229 1
359 232 1
359 235 1
359 243 1
359 244 1
359 246 1
359 251 1
359 252 1
359 255 1
359 256 1
359 257 1
359 258 1
359 261 1
359 266 1
359 267 1
359 271 1
359 274 1
359 277 1
359 278 1
359 279 1
359 280 1
359 286 1
359 287 1
359 289 1
359 295 1
359 301 1
359 307 1
359 313 1
359 315 1
359 316 1
359 317 1
359 321 1
359 322 1
359 327 1
359 328 1
359 330 1
359 332 1
359 335 1
359 337 1
359 346 1
359 347 1
359 348 1
359 349 1
359 350 1
359 353 1
359 355 1
359 363 1
359 364 1
359 365 1
359 370 1
359 374 1
359 376 1
359 377 1
359 378 1
359 379 1
359 382 1
359 390 1
359 393 1
359 394 1
359 395 1
359 398 1
360 5 1
360 6 1
360 7 1
360 8 1
360 12 1
360 13 1
360 18 1
360 21 1
360 23 1
360 25 1
360 29 1
360 32 1
360 35 1
360 36 1
360 37 1
360 39 1
360 41 1
360 44 1
360 47 1
360 49 1
360 50 1
360 57 1
360 59 1
360 60 1
360 61 1
360 63 1
360 64 1
360 65 1
360 67 1
360 70 1
360 71 1
360 72 1
360 75 1
360 76 1
360 77 1
360 78 1
360 79 1
360 80 1
360 81 1
360 82 1
360 83 1
360 89 1
360 90 1
360 91 1
360 94 1
360 98 1
360 103 1
360 104 1
360 105 1
360 107 1
360 108 1
360 112 1
360 113 1
360 116 1
360 117 1
360 120 1
360 123 1
360 129 1
360 130 1
360 133 1
360 135 1
360 136 1
360 137 1
360 138 1
360 141 1
360 145 1
360 153 1
360 156 1
360 158 1
360 166 1
360 169 1
360 173 1
360 174 1
360 175 1
360 180 1
360 184 1
360 186 1
360 192 1
360 194 1
360 197 1
360 198 1
360 201 1
360 202 1
360 206 1
360 208 1
360 209 1
360 212 1
360 213 1
360 215 1
360 217 1
360 220 1
360 221 1
360 223 1
360 226 1
360 228 1
360 229 1
360 230 1
360 233 1
360 237 1
360 240 1
360 241 1
360 248 1
360 249 1
360 250 1
360 252 1
360 255 1
360 256 1
360 259 1
360 260 1
360 261 1
360 268 1
360 274 1
360 278 1
360 279 1
360 283 1
360 286 1
360 288 1
360 290 1
360 291 1
360 292 1
360 294 1
360 295 1
360 296 1
360 299 1
360 303 1
360 305 1
360 310 1
360 316 1
360 317 1
360 321 1
360 324 1
360 325 1
360 326 1
360 327 1
360 329 1
360 330 1
360 334 1
360 336 1
360 337 1
360 338 1
360 339 1
360 340 1
360 347 1
360 353 1
360 356 1
360 358 1
360 361 1
360 362 1
360 363 1
360 364 1
360 365 1
360 366 1
360 367 1
360 368 1
360 372 1
360 379 1
360 382 1
360 385 1
360 386 1
360 389 1
360 394 1
360 397 1
360 400 1
361 1 1
361 2 1
361 5 1
361 8 1
361 10 1
361 12 1
361 13 1
361 15 1
361 21 1
361 23 1
361 24 1
361 26 1
361 27 1
361 33 1
361 35 1
361 39 1
361 42 1
361 48 1
361 50 1
361 52 1
361 53 1
361 60 1
361 63 1
361 71 1
361 72 1
361 74 1
361 76 1
361 82 1
361 86 1
361 89 1
361 93 1
361 95 1
361 97 1
361 98 1
361 99 1
361 100 1
361 101 1
361 102 1
361 103 1
361 111 1
361 112 1
361 114 1
361 115 1
361 116 1
361 119 1
361 120 1
361 122 1
361 125 1
361 131 1
361 134 1
361 135 1
361 138 1
361 140 1
361 141 1
361 142 1
361 143 1
361 144 1
361 147 1
361 148 1
361 149 1
361 150 1
361 154 1
361 156 1
361 161 1
361 162 1
361 166 1
361 168 1
361 170 1
361 173 1
361 175 1
361 177 1
361 182 1
361 184 1
361 189 1
361 190 1
361 193 1
361 195 1
361 197 1
361 200 1
361 205 1
361 207 1
361 209 1
361 210 1
361 211 1
361 212 1
361 213 1
361 215 1
361 216 1
361 217 1
361 218 1
361 219 1
361 221 1
361 223 1
361 224 1
361 225 1
361 228 1
361 229 1
361 232 1
361 233 1
361 234 1
361 237 1
361 239 1
361 240 1
361 241 1
361 244 1
361 246 1
361 247 1
361 248 1
361 250 1
361 253 1
361 255 1
361 256 1
361 259 1
361 262 1
361 265 1
361 268 1
361 269 1
361 270 1
361 272 1
361 273 1
361 274 1
361 275 1
361 277 1
361 279 1
361 281 1
361 283 1
361 286 1
361 288 1
361 289 1
361 293 1
361 294 1
361 299 1
361 301 1
361 303 1
361 305 1
361 309 1
361 310 1
361 319 1
361 321 1
361 326 1
361 328 1
361 330 1
361 331 1
361 332 1
361 336 1
361 340 1
361 343 1
361 344 1
361 350 1
361 352 1
361 355 1
361 360 1
361 362 1
361 364 1
361 366 1
361 372 1
361 374 1
361 378 1
361 380 1
361 381 1
361 382 1
361 389 1
361 393 1
361 398 1
361 399 1
362 3 1
362 5 1
362 11 1
362 17 1
362 18 1
362 22 1
362 23 1
362 28 1
362 31 1
362 37 1
362 38 1
362 40 1
362 43 1
362 44 1
362 56 1
362 59 1
362 66 1
362 67 1
362 68 1
362 71 1
362 75 1
362 77 1
362 79 1
362 80 1
362 81 1
362 83 1
362 86 1
362 94 1
362 95 1
362 98 1
362 101 1
362 105 1
362 112 1
362 113 1
362 114 1
362 115 1
362 117 1
362 120 1
362 122 1
362 127 1
362 128 1
362 132 1
362 137 1
362 139 1
362 140 1
362 144 1
362 146 1
362 148 1
362 151 1
362 156 1
362 157 1
362 160 1
362 164 1
362 167 1
362 170 1
362 171 1
362 172 1
362 173 1
362 174 1
362 181 1
362 182 1
362 184 1
362 185 1
362 187 1
362 188 1
362 190 1
362 201 1
362 202 1
362 203 1
362 205 1
362 208 1
362 210 1
362 211 1
362 214 1
362 215 1
362 216 1
362 218 1
362 219 1
362 220 1
362 221 1
362 222 1
362 223 1
362 225 1
362 226 1
362 228 1
362 229 1
362 230 1
362 231 1
362 236 1
362 239 1
362 243 1
362 245 1
362 246 1
362 247 1
362 248 1
362 252 1
362 254 1
362 256 1
362 264 1
362 268 1
362 269 1
362 271 1
362 278 1
362 283 1
362 287 1
362 289 1
362 291 1
362 295 1
362 298 1
362 299 1
362 303 1
362 312 1
362 315 1
362 318 1
362 320 1
362 322 1
362 327 1
362 328 1
362 330 1
362 335 1
362 336 1
362 340 1
362 342 1
362 343 1
362 346 1
362 347 1
362 348 1
362 350 1
362 355 1
362 357 1
362 358 1
362 360 1
362 361 1
362 366 1
362 370 1
362 373 1
362 375 1
362 376 1
362 377 1
362 379 1
362 380 1
362 381 1
362 385 1
362 389 1
362 391 1
362 392 1
362 394 1
362 395 1
362 399 1
362 400 1
363 6 1
363 9 1
363 15 1
363 16 1
363 21 1
363 24 1
363 25 1
363 26 1
363 31 1
363 32 1
363 35 1
363 37 1
363 41 1
363 44 1
363 45 1
363 48 1
363 50 1
363 52 1
363 56 1
363 57 1
363 58 1
363 59 1
363 65 1
363 66 1
363 68 1
363 69 1
363 70 1
363 72 1
363 77 1
363 78 1
363 80 1
363 81 1
363 84 1
363 85 1
363 92 1
363 98 1
363 99 1
363 100 1
363 101 1
363 102 1
363 103 1
363 105 1
363 107 1
363 111 1
363 112 1
363 120 1
363 121 1
363 122 1
363 125 1
363 126 1
363 128 1
363 129 1
363 130 1
363 131 1
363 135 1
363 141 1
363 142 1
363 146 1
363 147 1
363 155 1
363 157 1
363 158 1
363 161 1
363 163 1
363 164 1
363 165 1
363 167 1
363 169 1
363 172 1
363 175 1
363 176 1
363 177 1
363 179 1
363 186 1
363 187 1
363 189 1
363 192 1
363 195 1
363 198 1
363 199 1
363 200 1
363 201 1
363 203 1
363 204 1
363 207 1
363 212 1
363 214 1
363 221 1
363 226 1
363 228 1
363 230 1
363 234 1
363 241 1
363 246 1
363 251 1
363 255 1
363 258 1
363 260 1
363 261 1
363 262 1
363 264 1
363 265 1
363 266 1
363 267 1
363 268 1
363 270 1
363 275 1
363 280 1
363 282 1
363 283 1
363 286 1
363 291 1
363 294 1
363 295 1
363 296 1
363 300 1
363 301 1
363 302 1
363 303 1
363 307 1
363 308 1
363 309 1
363 310 1
363 311 1
363 312 1
363 314 1
363 315 1
363 319 1
363 320 1
363 322 1
363 324 1
363 327 1
363 328 1
363 330 1
363 331 1
363 340 1
363 341 1
363 342 1
363 344 1
363 349 1
363 352 1
363 353 1
363 354 1
363 355 1
363 356 1
363 359 1
363 360 1
363 368 1
363 371 1
363 372 1
363 373 1
363 374 1
363 386 1
363 389 1
363 390 1
363 391 1
363 392 1
363 397 1
363 398 1
363 400 1
364 2 1
364 7 1
364 8 1
364 10 1
364 12 1
364 14 1
364 15 1
364 17 1
364 18 1
364 19 1
364 23 1
364 24 1
364 25 1
364 26 1
364 27 1
364 29 1
364 32 1
364 35 1
364 39 1
364 40 1
364 41 1
364 42 1
364 43 1
364 44 1
364 45 1
364 49 1
364 53 1
364 55 1
364 57 1
364 62 1
364 63 1
364 67 1
364 71 1
364 72 1
364 73 1
364 76 1
364 79 1
364 89 1
364 90 1
364 91 1
364 98 1
364 100 1
364 101 1
364 107 1
364 113 1
364 120 1
364 125 1
364 128 1
364 129 1
364 131 1
364 136 1
364 139 1
364 141 1
364 143 1
364 145 1
364 147 1
364 150 1
364 153 1
364 155 1
364 157 1
364 159 1
364 162 1
364 168 1
364 169 1
364 174 1
364 179 1
364 181 1
364 182 1
364 183 1
364 185 1
364 186 1
364 189 1
364 190 1
364 191 1
364 192 1
364 195 1
364 198 1
364 199 1
364 201 1
364 202 1
364 203 1
364 207 1
364 208 1
364 209 1
364 210 1
364 212 1
364 214 1
364 215 1
364 219 1
364 220 1
364 224 1
364 225 1
364 226 1
364 229 1
364 233 1
364 235 1
364 236 1
364 240 1
364 246 1
364 247 1
364 248 1
364 251 1
364 253 1
364 255 1
364 257 1
364 258 1
364 261 1
364 263 1
364 264 1
364 265 1
364 267 1
364 282 1
364 285 1
364 286 1
364 289 1
364 290 1
364 291 1
364 293 1
364 296 1
364 298 1
364 299 1
364 301 1
364 302 1
364 304 1
364 305 1
364 314 1
364 315 1
364 320 1
364 321 1
364 324 1
364 325 1
364 326 1
364 329 1
364 331 1
364 335 1
364 340 1
364 341 1
364 342 1
364 343 1
364 347 1
364 348 1
364 351 1
364 354 1
364 355 1
364 357 1
364 359 1
364 360 1
364 361 1
364 366 1
364 367 1
364 368 1
364 369 1
364 373 1
364 374 1
364 375 1
364 376 1
364 377 1
364 380 1
364 385 1
364 386 1
364 387 1
364 388 1
364 392 1
364 393 1
364 395 1
364 399 1
364 400 1
365 1 1
365 2 1
365 3 1
365 13 1
365 14 1
365 17 1
365 19 1
365 21 1
365 23 1
365 24 1
365 26 1
365 27 1
365 28 1
365 30 1
365 31 1
365 35 1
365 38 1
365 40 1
365 42 1
365 43 1
365 45 1
365 46 1
365 50 1
365 52 1
365 53 1
365 55 1
365 56 1
365 60 1
365 62 1
365 64 1
365 65 1
365 69 1
365 77 1
365 83 1
365 84 1
365 85 1
365 86 1
365 90 1
365 97 1
365 99 1
365 100 1
365 101 1
365 102 1
365 103 1
365 105 1
365 107 1
365 111 1
365 113 1
365 115 1
365 124 1
365 129 1
365 136 1
365 138 1
365 140 1
365 142 1
365 144 1
365 147 1
365 149 1
365 153 1
365 156 1
365 159 1
365 160 1
365 163 1
365 167 1
365 168 1
365 169 1
365 170 1
365 171 1
365 174 1
365 175 1
365 176 1
365 177 1
365 186 1
365 188 1
365 190 1
365 191 1
365 195 1
365 200 1
365 201 1
365 202 1
365 203 1
365 204 1
365 205 1
365 206 1
365 208 1
365 217 1
365 220 1
365 222 1
365 225 1
365 229 1
365 230 1
365 231 1
365 232 1
365 238 1
365 240 1
365 244 1
365 245 1
365 250 1
365 251 1
365 254 1
365 255 1
365 256 1
365 259 1
365 263 1
365 270 1
365 272 1
365 274 1
365 275 1
365 277 1
365 279 1
365 284 1
365 286 1
365 290 1
365 295 1
365 296 1
365 298 1
365 299 1
365 300 1
365 307 1
365 308 1
365 315 1
365 320 1
365 321 1
365 327 1
365 329 1
365 331 1
365 333 1
365 336 1
365 338 1
365 341 1
365 348 1
365 358 1
365 359 1
365 360 1
365 367 1
365 368 1
365 369 1
365 370 1
365 371 1
365 372 1
365 373 1
365 374 1
365 376 1
365 377 1
365 384 1
365 387 1
365 388 1
365 389 1
365 391 1
365 393 1
365 394 1
365 396 1
365 399 1
365 400 1
366 1 1
366 3 1
366 4 1
366 9 1
366 14 1
366 15 1
366 16 1
366 17 1
366 18 1
366 22 1
366 23 1
366 27 1
366 32 1
366 34 1
366 35 1
366 36 1
366 37 1
366 39 1
366 47 1
366 50 1
366 52 1
366 54 1
366 56 1
366 59 1
366 60 1
366 64 1
366 66 1
366 70 1
366 71 1
366 79 1
366 82 1
366 85 1
366 86 1
366 88 1
366 89 1
366 90 1
366 92 1
366 96 1
366 98 1
366 100 1
366 101 1
366 104 1
366 105 1
366 107 1
366 111 1
366 112 1
366 114 1
366 115 1
366 123 1
366 127 1
366 130 1
366 133 1
366 134 1
366 143 1
366 146 1
366 150 1
366 152 1
366 159 1
366 161 1
366 163 1
366 165 1
366 166 1
366 167 1
366 170 1
366 177 1
366 179 1
366 183 1
366 187 1
366 188 1
366 189 1
366 192 1
366 194 1
366 198 1
366 202 1
366 203 1
366 205 1
366 207 1
366 209 1
366 215 1
366 218 1
366 219 1
366 229 1
366 233 1
366 235 1
366 238 1
366 240 1
366 241 1
366 244 1
366 245 1
366 246 1
366 247 1
366 248 1
366 252 1
366 254 1
366 255 1
366 256 1
366 259 1
366 260 1
366 261 1
366 265 1
366 266 1
366 267 1
366 268 1
366 272 1
366 273 1
366 275 1
366 280 1
366 283 1
366 284 1
366 285 1
366 288 1
366 289 1
366 291 1
366 292 1
366 297 1
366 298 1
366 301 1
366 303 1
366 306 1
366 307 1
366 308 1
366 309 1
366 310 1
366 311 1
366 315 1
366 319 1
366 321 1
366 322 1
366 324 1
366 325 1
366 326 1
366 329 1
366 332 1
366 333 1
366 334 1
366 335 1
366 337 1
366 338 1
366 343 1
366 348 1
366 351 1
366 352 1
366 353 1
366 360 1
366 361 1
366 362 1
366 364 1
366 368 1
366 372 1
366 376 1
366 378 1
366 381 1
366 383 1
366 384 1
366 387 1
366 388 1
366 389 1
366 391 1
366 394 1
366 399 1
367 3 1
367 4 1
367 5 1
367 6 1
367 16 1
367 26 1
367 36 1
367 39 1
367 40 1
367 41 1
367 42 1
367 43 1
367 44 1
367 45 1
367 49 1
367 52 1
367 53 1
367 58 1
367 60 1
367 62 1
367 63 1
367 65 1
367 67 1
367 73 1
367 75 1
367 76 1
367 77 1
367 80 1
367 82 1
367 83 1
367 85 1
367 87 1
367 88 1
367 90 1
367 93 1
367 94 1
367 96 1
367 99 1
367 100 1
367 101 1
367 107 1
367 110 1
367 111 1
367 113 1
367 114 1
367 116 1
367 117 1
367 118 1
367 119 1
367 121 1
367 123 1
367 124 1
367 125 1
367 129 1
367 130 1
367 131 1
367 132 1
367 137 1
367 138 1
367 139 1
367 141 1
367 149 1
367 150 1
367 152 1
367 153 1
367 162 1
367 167 1
367 170 1
367 173 1
367 174 1
367 176 1
367 177 1
367 183 1
367 188 1
367 189 1
367 190 1
367 194 1
367 196 1
367 199 1
367 201 1
367 202 1
367 203 1
367 204 1
367 212 1
367 213 1
367 214 1
367 216 1
367 217 1
367 221 1
367 222 1
367 225 1
367 226 1
367 230 1
367 235 1
367 236 1
367 237 1
367 238 1
367 239 1
367 240 1
367 241 1
367 242 1
367 246 1
367 252 1
367 253 1
367 256 1
367 260 1
367 264 1
367 265 1
367 269 1
367 271 1
367 274 1
367 278 1
367 281 1
367 282 1
367 287 1
367 288 1
367 289 1
367 290 1
367 292 1
367 297 1
367 298 1
367 303 1
367 306 1
367 310 1
367 311 1
367 314 1
367 318 1
367 319 1
367 326 1
367 327 1
367 328 1
367 330 1
367 333 1
367 334 1
367 335 1
367 337 1
367 340 1
367 341 1
367 342 1
367 343 1
367 345 1
367 346 1
367 349 1
367 352 1
367 353 1
367 354 1
367 360 1
367 364 1
367 365 1
367 368 1
367 371 1
367 373 1
367 374 1
367 376 1
367 378 1
367 383 1
367 385 1
367 389 1
367 390 1
367 394 1
367 395 1
367 399 1
367 400 1
368 1 1
368 2 1
368 4 1
368 5 1
368 7 1
368 8 1
368 10 1
368 12 1
368 14 1
368 17 1
368 21 1
368 22 1
368 24 1
368 29 1
368 32 1
368 34 1
368 35 1
368 36 1
368 38 1
368 40 1
368 41 1
368 42 1
368 44 1
368 46 1
368 51 1
368 54 1
368 57 1
368 68 1
368 69 1
368 70 1
368 71 1
368 72 1
368 73 1
368 74 1
368 76 1
368 80 1
368 86 1
368 87 1
368 88 1
368 90 1
368 94 1
368 97 1
368 98 1
368 99 1
368 100 1
368 102 1
368 103 1
368 105 1
368 107 1
368 108 1
368 110 1
368 112 1
368 117 1
368 121 1
368 123 1
368 126 1
368 131 1
368 135 1
368 139 1
368 140 1
368 144 1
368 145 1
368 150 1
368 151 1
368 153 1
368 156 1
368 162 1
368 164 1
368 166 1
368 167 1
368 170 1
368 172 1
368 173 1
368 174 1
368 179 1
368 183 1
368 184 1
368 185 1
368 188 1
368 189 1
368 191 1
368 192 1
368 195 1
368 196 1
368 206 1
368 207 1
368 208 1
368 209 1
368 211 1
368 215 1
368 217 1
368 224 1
368 229 1
368 230 1
368 231 1
368 232 1
368 237 1
368 242 1
368 243 1
368 244 1
368 246 1
368 247 1
368 249 1
368 250 1
368 251 1
368 253 1
368 263 1
368 267 1
368 270 1
368 271 1
368 274 1
368 278 1
368 281 1
368 282 1
368 283 1
368 284 1
368 286 1
368 288 1
368 293 1
368 294 1
368 295 1
368 296 1
368 297 1
368 299 1
368 300 1
368 303 1
368 307 1
368 310 1
368 311 1
368 317 1
368 318 1
368 321 1
368 323 1
368 329 1
368 330 1
368 331 1
368 335 1
368 336 1
368 337 1
368 339 1
368 343 1
368 344 1
368 346 1
368 347 1
368 348 1
368 352 1
368 353 1
368 356 1
368 360 1
368 363 1
368 364 1
368 365 1
368 366 1
368 367 1
368 369 1
368 373 1
368 374 1
368 376 1
368 379 1
368 383 1
368 385 1
368 386 1
368 387 1
368 391 1
368 392 1
368 394 1
368 397 1
368 398 1
368 399 1
369 1 1
369 3 1
369 4 1
369 5 1
369 6 1
369 7 1
369 8 1
369 9 1
369 11 1
369 12 1
369 15 1
369 18 1
369 22 1
369 23 1
369 25 1
369 29 1
369 31 1
369 32 1
369 34 1
369 35 1
369 37 1
369 41 1
369 44 1
369 48 1
369 50 1
369 51 1
369 52 1
369 53 1
369 54 1
369 58 1
369 59 1
369 61 1
369 65 1
369 68 1
369 69 1
369 72 1
369 74 1
369 80 1
369 81 1
369 83 1
369 88 1
369 91 1
369 92 1
369 93 1
369 96 1
369 100 1
369 101 1
369 103 1
369 105 1
369 109 1
369 110 1
369 111 1
369 118 1
369 119 1
369 122 1
369 125 1
369 129 1
369 130 1
369 136 1
369 137 1
369 141 1
369 150 1
369 151 1
369 152 1
369 155 1
369 160 1
369 162 1
369 164 1
369 165 1
369 167 1
369 170 1
369 171 1
369 174 1
369 177 1
369 180 1
369 181 1
369 183 1
369 185 1
369 194 1
369 195 1
369 198 1
369 200 1
369 204 1
369 211 1
369 212 1
369 216 1
369 218 1
369 219 1
369 220 1
369 221 1
369 224 1
369 227 1
369 229 1
369 231 1
369 232 1
369 235 1
369 237 1
369 241 1
369 244 1
369 246 1
369 256 1
369 257 1
369 259 1
369 261 1
369 265 1
369 267 1
369 270 1
369 271 1
369 272 1
369 275 1
369 279 1
369 280 1
369 281 1
369 283 1
369 284 1
369 288 1
369 295 1
369 296 1
369 297 1
369 298 1
369 299 1
369 303 1
369 308 1
369 313 1
369 315 1
369 317 1
369 323 1
369 327 1
369 329 1
369 331 1
369 336 1
369 337 1
369 340 1
369 341 1
369 345 1
369 349 1
369 351 1
369 353 1
369 358 1
369 364 1
369 365 1
369 368 1
369 372 1
369 373 1
369 375 1
369 376 1
369 379 1
369 382 1
369 383 1
369 385 1
369 387 1
369 396 1
369 397 1
369 398 1
369 399 1
370 1 1
370 2 1
370 3 1
370 5 1
370 8 1
370 9 1
370 11 1
370 15 1
370 18 1
370 19 1
370 21 1
370 22 1
370 23 1
370 25 1
370 29 1
370 30 1
370 31 1
370 35 1
370 36 1
370 39 1
370 40 1
370 41 1
370 42 1
370 53 1
370 55 1
370 56 1
370 57 1
370 61 1
370 67 1
370 72 1
370 73 1
370 77 1
370 78 1
370 80 1
370 81 1
370 82 1
370 85 1
370 87 1
370 90 1
370 98 1
370 103 1
370 108 1
370 110 1
370 111 1
370 126 1
370 127 1
370 130 1
370 132 1
370 134 1
370 140 1
370 144 1
370 145 1
370 147 1
370 148 1
370 149 1
370 150 1
370 152 1
370 161 1
370 163 1
370 175 1
370 178 1
370 179 1
370 180 1
370 181 1
370 182 1
370 183 1
370 186 1
370 191 1
370 193 1
370 196 1
370 197 1
370 199 1
370 201 1
370 203 1
370 204 1
370 207 1
370 210 1
370 218 1
370 220 1
370 222 1
370 230 1
370 231 1
370 236 1
370 237 1
370 238 1
370 245 1
370 247 1
370 249 1
370 250 1
370 254 1
370 256 1
370 258 1
370 259 1
370 260 1
370 261 1
370 264 1
370 269 1
370 275 1
370 278 1
370 279 1
370 282 1
370 284 1
370 285 1
370 286 1
370 289 1
370 290 1
370 291 1
370 296 1
370 297 1
370 298 1
370 300 1
370 303 1
370 305 1
370 308 1
370 309 1
370 310 1
370 313 1
370 314 1
370 316 1
370 317 1
370 320 1
370 321 1
370 324 1
370 326 1
370 327 1
370 329 1
370 335 1
370 336 1
370 338 1
370 342 1
370 343 1
370 346 1
370 347 1
370 350 1
370 351 1
370 353 1
370 354 1
370 355 1
370 356 1
370 359 1
370 362 1
370 365 1
370 371 1
370 372 1
370 373 1
370 378 1
370 379 1
370 382 1
370 384 1
370 388 1
370 389 1
370 390 1
370 392 1
370 393 1
370 399 1
371 1 1
371 5 1
371 6 1
371 10 1
371 12 1
371 13 1
371 14 1
371 16 1
371 19 1
371 20 1
371 22 1
371 29 1
371 31 1
371 34 1
371 35 1
371 37 1
371 42 1
371 44 1
371 45 1
371 47 1
371 48 1
371 49 1
371 50 1
371 51 1
371 54 1
371 57 1
371 59 1
371 62 1
371 66 1
371 67 1
371 70 1
371 71 1
371 73 1
371 78 1
371 79 1
371 80 1
371 82 1
371 86 1
371 88 1
371 89 1
371 91 1
371 93 1
371 95 1
371 99 1
371 100 1
371 101 1
371 102 1
371 103 1
371 105 1
371 108 1
371 109 1
371 111 1
371 112 1
371 114 1
371 121 1
371 122 1
371 129 1
371 134 1
371 135 1
371 138 1
371 140 1
371 142 1
371 143 1
371 146 1
371 149 1
371 150 1
371 151 1
371 156 1
371 159 1
371 161 1
371 164 1
371 165 1
371 167 1
371 175 1
371 177 1
371 180 1
371 182 1
371 184 1
371 185 1
371 192 1
371 195 1
371 196 1
371 203 1
371 204 1
371 208 1
371 212 1
371 213 1
371 218 1
371 220 1
371 221 1
371 226 1
371 228 1
371 233 1
371 236 1
371 241 1
371 246 1
371 254 1
371 261 1
371 262 1
371 264 1
371 267 1
371 270 1
371 272 1
371 277 1
371 278 1
371 279 1
371 280 1
371 281 1
371 282 1
371 283 1
371 288 1
371 289 1
371 292 1
371 293 1
371 294 1
371 295 1
371 297 1
371 298 1
371 304 1
371 305 1
371 307 1
371 311 1
371 313 1
371 314 1
371 316 1
371 317 1
371 326 1
371 333 1
371 337 1
371 339 1
371 340 1
371 341 1
371 344 1
371 345 1
371 347 1
371 349 1
371 351 1
371 356 1
371 363 1
371 365 1
371 367 1
371 370 1
371 372 1
371 373 1
371 376 1
371 381 1
371 386 1
371 389 1
371 391 1
371 392 1
371 394 1
371 399 1
372 1 1
372 5 1
372 10 1
372 12 1
372 17 1
372 22 1
372 25 1
372 26 1
372 27 1
372 31 1
372 35 1
372 40 1
372 45 1
372 48 1
372 49 1
372 50 1
372 52 1
372 54 1
372 59 1
372 62 1
372 63 1
372 64 1
372 69 1
372 73 1
372 78 1
372 81 1
372 84 1
372 85 1
372 86 1
372 87 1
372 88 1
372 90 1
372 92 1
372 94 1
372 97 1
372 100 1
372 104 1
372 106 1
372 107 1
372 108 1
372 109 1
372 110 1
372 111 1
372 112 1
372 113 1
372 115 1
372 116 1
372 117 1
372 119 1
372 124 1
372 126 1
372 129 1
372 140 1
372 142 1
372 145 1
372 146 1
372 148 1
372 149 1
372 151 1
372 156 1
372 157 1
372 158 1
372 160 1
372 161 1
372 162 1
372 163 1
372 167 1
372 168 1
372 174 1
372 178 1
372 182 1
372 184 1
372 188 1
372 189 1
372 192 1
372 198 1
372 199 1
372 200 1
372 201 1
372 203 1
372 208 1
372 212 1
372 213 1
372 217 1
372 219 1
372 221 1
372 222 1
372 223 1
372 225 1
372 226 1
372 229 1
372 231 1
372 233 1
372 234 1
372 237 1
372 238 1
372 239 1
372 240 1
372 241 1
372 242 1
372 243 1
372 246 1
372 251 1
372 252 1
372 255 1
372 257 1
372 259 1
372 260 1
372 262 1
372 264 1
372 265 1
372 269 1
372 273 1
372 274 1
372 278 1
372 284 1
372 285 1
372 286 1
372 287 1
372 290 1
372 297 1
372 298 1
372 301 1
372 302 1
372 303 1
372 306 1
372 307 1
372 309 1
372 315 1
372 316 1
372 320 1
372 321 1
372 323 1
372 325 1
372 326 1
372 327 1
372 328 1
372 331 1
372 332 1
372 334 1
372 335 1
372 336 1
372 342 1
372 343 1
372 347 1
372 349 1
372 351 1
372 354 1
372 357 1
372 358 1
372 360 1
372 361 1
372 363 1
372 365 1
372 366 1
372 369 1
372 370 1
372 371 1
372 373 1
372 377 1
372 380 1
372 382 1
372 385 1
372 389 1
372 390 1
372 395 1
372 396 1
372 397 1
372 399 1
373 2 1
373 3 1
373 6 1
373 11 1
373 12 1
373 15 1
373 16 1
373 18 1
373 23 1
373 24 1
373 26 1
373 29 1
373 31 1
373 32 1
373 34 1
373 35 1
373 40 1
373 43 1
373 48 1
373 50 1
373 52 1
373 54 1
373 55 1
373 57 1
373 58 1
373 59 1
373 60 1
373 61 1
373 66 1
373 69 1
373 71 1
373 77 1
373 78 1
373 80 1
373 83 1
373 84 1
373 87 1
373 89 1
373 90 1
373 91 1
373 94 1
373 96 1
373 98 1
373 99 1
373 100 1
373 101 1
373 103 1
373 105 1
373 106 1
373 107 1
373 108 1
373 109 1
373 111 1
373 113 1
373 118 1
373 119 1
373 126 1
373 131 1
373 132 1
373 136 1
373 138 1
373 142 1
373 145 1
373 146 1
373 147 1
373 149 1
373 150 1
373 151 1
373 153 1
373 160 1
373 165 1
373 167 1
373 168 1
373 169 1
373 170 1
373 171 1
373 172 1
373 173 1
373 177 1
373 181 1
373 183 1
373 184 1
373 197 1
373 199 1
373 202 1
373 204 1
373 205 1
373 207 1
373 211 1
373 216 1
373 221 1
373 225 1
373 229 1
373 230 1
373 235 1
373 236 1
373 237 1
373 240 1
373 242 1
373 244 1
373 245 1
373 246 1
373 249 1
373 250 1
373 252 1
373 253 1
373 254 1
373 255 1
373 256 1
373 257 1
373 260 1
373 261 1
373 263 1
373 265 1
373 267 1
373 273 1
373 274 1
373 275 1
373 282 1
373 285 1
373 288 1
373 289 1
373 298 1
373 299 1
373 304 1
373 305 1
373 306 1
373 307 1
373 309 1
373 311 1
373 312 1
373 313 1
373 316 1
373 318 1
373 319 1
373 320 1
373 323 1
373 332 1
373 335 1
373 339 1
373 345 1
373 349 1
373 350 1
373 351 1
373 352 1
373 353 1
373 355 1
373 358 1
373 362 1
373 363 1
373 364 1
373 365 1
373 367 1
373 368 1
373 369 1
373 370 1
373 371 1
373 372 1
373 376 1
373 379 1
373 380 1
373 381 1
373 383 1
373 384 1
373 385 1
373 386 1
373 391 1
373 393 1
373 395 1
373 399 1
374 2 1
374 6 1
374 10 1
374 13 1
374 14 1
374 23 1
374 24 1
374 31 1
374 32 1
374 33 1
374 36 1
374 43 1
374 44 1
374 46 1
374 50 1
374 52 1
374 54 1
374 56 1
374 60 1
374 62 1
374 63 1
374 65 1
374 66 1
374 67 1
374 68 1
374 69 1
374 70 1
374 74 1
374 79 1
374 81 1
374 84 1
374 85 1
374 87 1
374 88 1
374 94 1
374 95 1
374 100 1
374 108 1
374 117 1
374 119 1
374 121 1
374 123 1
374 126 1
374 128 1
374 132 1
374 133 1
374 135 1
374 137 1
374 139 1
374 140 1
374 141 1
374 143 1
374 149 1
374 150 1
374 151 1
374 156 1
374 157 1
374 158 1
374 161 1
374 163 1
374 164 1
374 165 1
374 166 1
374 171 1
374 172 1
374 175 1
374 176 1
374 177 1
374 178 1
374 183 1
374 184 1
374 190 1
374 192 1
374 193 1
374 194 1
374 195 1
374 197 1
374 205 1
374 208 1
374 209 1
374 212 1
374 214 1
374 215 1
374 217 1
374 219 1
374 221 1
374 223 1
374 226 1
374 227 1
374 233 1
374 237 1
374 238 1
374 241 1
374 246 1
374 249 1
374 250 1
374 253 1
374 255 1
374 256 1
374 257 1
374 259 1
374 261 1
374 263 1
374 264 1
374 265 1
374 267 1
374 271 1
374 272 1
374 274 1
374 276 1
374 278 1
374 280 1
374 282 1
374 285 1
374 286 1
374 290 1
374 291 1
374 292 1
374 293 1
374 295 1
374 296 1
374 299 1
374 305 1
374 307 1
374 308 1
374 310 1
374 313 1
374 314 1
374 316 1
374 319 1
374 324 1
374 325 1
374 330 1
374 332 1
374 333 1
374 334 1
374 336 1
374 339 1
374 340 1
374 343 1
374 344 1
374 351 1
374 352 1
374 358 1
374 359 1
374 361 1
374 363 1
374 364 1
374 365 1
374 367 1
374 368 1
374 378 1
374 381 1
374 384 1
374 385 1
374 386 1
374 387 1
374 388 1
374 392 1
374 394 1
374 396 1
374 397 1
374 398 1
374 400 1
375 1 1
375 2 1
375 5 1
375 11 1
375 12 1
375 13 1
375 15 1
375 16 1
375 18 1
375 20 1
375 25 1
375 27 1
375 33 1
375 37 1
375 39 1
375 41 1
375 42 1
375 43 1
375 45 1
375 47 1
375 48 1
375 51 1
375 52 1
375 53 1
375 56 1
375 61 1
375 66 1
375 67 1
375 69 1
375 75 1
375 77 1
375 78 1
375 80 1
375 81 1
375 84 1
375 86 1
375 92 1
375 96 1
375 104 1
375 105 1
375 108 1
375 109 1
375 110 1
375 111 1
375 113 1
375 114 1
375 118 1
375 120 1
375 128 1
375 132 1
375 139 1
375 142 1
375 143 1
375 147 1
375 148 1
375 149 1
375 153 1
375 155 1
375 156 1
375 157 1
375 159 1
375 160 1
375 162 1
375 167 1
375 171 1
375 172 1
375 174 1
375 175 1
375 184 1
375 185 1
375 189 1
375 196 1
375 199 1
375 202 1
375 205 1
375 210 1
375 214 1
375 215 1
375 217 1
375 220 1
375 221 1
375 222 1
375 224 1
375 225 1
375 226 1
375 227 1
375 233 1
375 236 1
375 238 1
375 239 1
375 242 1
375 243 1
375 255 1
375 256 1
375 257 1
375 262 1
375 263 1
375 264 1
375 268 1
375 271 1
375 273 1
375 274 1
375 276 1
375 280 1
375 282 1
375 288 1
375 296 1
375 297 1
375 306 1
375 313 1
375 316 1
375 317 1
375 318 1
375 319 1
375 320 1
375 333 1
375 335 1
375 339 1
375 343 1
375 347 1
375 348 1
375 349 1
375 350 1
375 351 1
375 353 1
375 355 1
375 356 1
375 357 1
375 358 1
375 362 1
375 364 1
375 369 1
375 379 1
375 382 1
375 384 1
375 385 1
375 388 1
375 392 1
375 393 1
375 396 1
375 397 1
376 1 1
376 3 1
376 9 1
376 13 1
376 14 1
376 16 1
376 19 1
376 26 1
376 28 1
376 29 1
376 30 1
376 31 1
376 33 1
376 34 1
376 37 1
376 38 1
376 41 1
376 42 1
376 44 1
376 46 1
376 47 1
376 48 1
376 50 1
376 51 1
376 53 1
376 54 1
376 56 1
376 57 1
376 63 1
376 64 1
376 65 1
376 66 1
376 68 1
376 69 1
376 70 1
376 71 1
376 72 1
376 73 1
376 75 1
376 76 1
376 77 1
376 79 1
376 86 1
376 89 1
376 90 1
376 92 1
376 93 1
376 94 1
376 97 1
376 98 1
376 100 1
376 102 1
376 103 1
376 107 1
376 108 1
376 112 1
376 113 1
376 114 1
376 115 1
376 116 1
376 118 1
376 122 1
376 123 1
376 126 1
376 129 1
376 130 1
376 134 1
376 135 1
376 136 1
376 141 1
376 142 1
376 143 1
376 145 1
376 148 1
376 149 1
376 154 1
376 157 1
376 160 1
376 162 1
376 164 1
376 166 1
376 168 1
376 171 1
376 174 1
376 176 1
376 177 1
376 179 1
376 180 1
376 181 1
376 185 1
376 189 1
376 190 1
376 193 1
376 194 1
376 195 1
376 198 1
376 204 1
376 205 1
376 206 1
376 207 1
376 211 1
376 212 1
376 214 1
376 216 1
376 218 1
376 221 1
376 222 1
376 223 1
376 226 1
376 227 1
376 233 1
376 235 1
376 237 1
376 238 1
376 240 1
376 241 1
376 245 1
376 246 1
376 251 1
376 255 1
376 259 1
376 261 1
376 262 1
376 263 1
376 266 1
376 269 1
376 274 1
376 277 1
376 281 1
376 284 1
376 285 1
376 287 1
376 289 1
376 290 1
376 295 1
376 298 1
376 300 1
376 303 1
376 304 1
376 306 1
376 307 1
376 309 1
376 324 1
376 325 1
376 330 1
376 338 1
376 345 1
376 347 1
376 348 1
376 351 1
376 352 1
376 353 1
376 354 1
376 355 1
376 356 1
376 358 1
376 359 1
376 362 1
376 364 1
376 365 1
376 366 1
376 367 1
376 368 1
376 369 1
376 371 1
376 373 1
376 377 1
376 379 1
376 380 1
376 383 1
376 388 1
376 389 1
376 390 1
376 391 1
376 397 1
376 399 1
376 400 1
377 2 1
377 3 1
377 9 1
377 10 1
377 19 1
377 20 1
377 23 1
377 27 1
377 30 1
377 32 1
377 37 1
377 40 1
377 42 1
377 43 1
377 48 1
377 51 1
377 52 1
377 53 1
377 57 1
377 61 1
377 67 1
377 75 1
377 76 1
377 77 1
377 78 1
377 79 1
377 82 1
377 84 1
377 86 1
377 93 1
377 97 1
377 99 1
377 101 1
377 102 1
377 104 1
377 105 1
377 106 1
377 108 1
377 109 1
377 112 1
377 114 1
377 120 1
377 121 1
377 125 1
377 126 1
377 127 1
377 129 1
377 131 1
377 142 1
377 143 1
377 144 1
377 149 1
377 151 1
377 153 1
377 155 1
377 157 1
377 158 1
377 159 1
377 164 1
377 167 1
377 170 1
377 172 1
377 174 1
377 176 1
377 177 1
377 178 1
377 179 1
377 180 1
377 183 1
377 184 1
377 186 1
377 188 1
377 190 1
377 191 1
377 192 1
377 193 1
377 194 1
377 196 1
377 198 1
377 203 1
377 205 1
377 211 1
377 214 1
377 217 1
377 218 1
377 222 1
377 224 1
377 225 1
377 226 1
377 231 1
377 232 1
377 235 1
377 236 1
377 239 1
377 243 1
377 248 1
377 254 1
377 256 1
377 258 1
377 263 1
377 264 1
377 267 1
377 268 1
377 269 1
377 271 1
377 272 1
377 276 1
377 277 1
377 278 1
377 280 1
377 281 1
377 283 1
377 290 1
377 292 1
377 293 1
377 294 1
377 296 1
377 299 1
377 304 1
377 305 1
377 307 1
377 312 1
377 315 1
377 317 1
377 318 1
377 322 1
377 326 1
377 329 1
377 331 1
377 332 1
377 334 1
377 335 1
377 341 1
377 343 1
377 345 1
377 347 1
377 349 1
377 350 1
377 353 1
377 355 1
377 356 1
377 358 1
377 359 1
377 362 1
377 364 1
377 365 1
377 372 1
377 376 1
377 383 1
377 384 1
377 386 1
377 388 1
377 391 1
377 394 1
378 1 1
378 2 1
378 3 1
378 4 1
378 5 1
378 8 1
378 9 1
378 10 1
378 11 1
378 12 1
378 13 1
378 19 1
378 25 1
378 26 1
378 27 1
378 29 1
378 31 1
378 33 1
378 40 1
378 41 1
378 43 1
378 44 1
378 47 1
378 50 1
378 53 1
378 54 1
378 55 1
378 57 1
378 58 1
378 59 1
378 63 1
378 64 1
378 68 1
378 70 1
378 75 1
378 77 1
378 79 1
378 82 1
378 83 1
378 85 1
378 89 1
378 91 1
378 93 1
378 95 1
378 96 1
378 98 1
378 100 1
378 104 1
378 107 1
378 112 1
378 113 1
378 114 1
378 120 1
378 123 1
378 125 1
378 130 1
378 134 1
378 136 1
378 138 1
378 139 1
378 141 1
378 142 1
378 143 1
378 147 1
378 151 1
378 152 1
378 153 1
378 154 1
378 159 1
378 161 1
378 168 1
378 171 1
378 172 1
378 175 1
378 176 1
378 178 1
378 179 1
378 180 1
378 181 1
378 184 1
378 185 1
378 191 1
378 193 1
378 202 1
378 203 1
378 205 1
378 211 1
378 213 1
378 214 1
378 216 1
378 218 1
378 222 1
378 224 1
378 227 1
378 230 1
378 232 1
378 236 1
378 237 1
378 242 1
378 247 1
378 251 1
378 254 1
378 256 1
378 257 1
378 258 1
378 261 1
378 265 1
378 266 1
378 267 1
378 270 1
378 275 1
378 276 1
378 278 1
378 279 1
378 282 1
378 287 1
378 290 1
378 291 1
378 292 1
378 297 1
378 299 1
378 300 1
378 301 1
378 303 1
378 304 1
378 305 1
378 310 1
378 311 1
378 312 1
378 316 1
378 317 1
378 320 1
378 321 1
378 324 1
378 327 1
378 331 1
378 334 1
378 337 1
378 338 1
378 339 1
378 340 1
378 345 1
378 347 1
378 348 1
378 353 1
378 354 1
378 355 1
378 356 1
378 359 1
378 361 1
378 366 1
378 367 1
378 370 1
378 374 1
378 390 1
378 391 1
378 392 1
378 394 1
378 397 1
378 398 1
379 6 1
379 8 1
379 11 1
379 12 1
379 16 1
379 17 1
379 21 1
379 22 1
379 24 1
379 25 1
379 26 1
379 27 1
379 30 1
379 33 1
379 37 1
379 45 1
379 47 1
379 49 1
379 51 1
379 53 1
379 55 1
379 56 1
379 62 1
379 63 1
379 66 1
379 67 1
379 68 1
379 70 1
379 72 1
379 73 1
379 74 1
379 75 1
379 84 1
379 87 1
379 88 1
379 91 1
379 96 1
379 97 1
379 102 1
379 103 1
379 104 1
379 105 1
379 107 1
379 108 1
379 114 1
379 117 1
379 118 1
379 120 1
379 121 1
379 127 1
379 128 1
379 129 1
379 130 1
379 132 1
379 135 1
379 137 1
379 138 1
379 139 1
379 141 1
379 142 1
379 144 1
379 149 1
379 150 1
379 152 1
379 158 1
379 167 1
379 172 1
379 175 1
379 177 1
379 178 1
379 184 1
379 185 1
379 189 1
379 192 1
379 194 1
379 195 1
379 197 1
379 198 1
379 199 1
379 202 1
379 206 1
379 207 1
379 208 1
379 212 1
379 215 1
379 216 1
379 220 1
379 222 1
379 226 1
379 227 1
379 228 1
379 230 1
379 232 1
379 233 1
379 234 1
379 235 1
379 237 1
379 238 1
379 242 1
379 248 1
379 255 1
379 257 1
379 258 1
379 260 1
379 263 1
379 268 1
379 271 1
379 273 1
379 274 1
379 276 1
379 285 1
379 287 1
379 293 1
379 294 1
379 296 1
379 299 1
379 301 1
379 306 1
379 309 1
379 310 1
379 311 1
379 315 1
379 316 1
379 321 1
379 322 1
379 323 1
379 326 1
379 327 1
379 329 1
379 330 1
379 336 1
379 337 1
379 343 1
379 346 1
379 348 1
379 351 1
379 353 1
379 354 1
379 358 1
379 359 1
379 360 1
379 362 1
379 368 1
379 369 1
379 370 1
379 373 1
379 375 1
379 376 1
379 384 1
379 386 1
379 388 1
379 389 1
379 392 1
379 394 1
379 397 1
380 9 1
380 10 1
380 16 1
380 19 1
380 23 1
380 30 1
380 31 1
380 33 1
380 34 1
380 35 1
380 38 1
380 39 1
380 42 1
380 44 1
380 51 1
380 54 1
380 57 1
380 61 1
380 63 1
380 65 1
380 66 1
380 67 1
380 68 1
380 70 1
380 74 1
380 76 1
380 78 1
380 79 1
380 82 1
380 88 1
380 89 1
380 92 1
380 93 1
380 95 1
380 99 1
380 100 1
380 102 1
380 103 1
380 106 1
380 107 1
380 108 1
380 111 1
380 113 1
380 117 1
380 119 1
380 122 1
380 124 1
380 125 1
380 127 1
380 131 1
380 135 1
380 136 1
380 137 1
380 142 1
380 147 1
380 149 1
380 150 1
380 152 1
380 155 1
380 156 1
380 157 1
380 163 1
380 167 1
380 171 1
380 173 1
380 175 1
380 177 1
380 178 1
380 179 1
380 183 1
380 184 1
380 185 1
380 186 1
380 188 1
380 191 1
380 193 1
380 196 1
380 198 1
380 201 1
380 203 1
380 206 1
380 210 1
380 211 1
380 215 1
380 218 1
380 220 1
380 223 1
380 225 1
380 226 1
380 234 1
380 235 1
380 236 1
380 239 1
380 240 1
380 241 1
380 244 1
380 245 1
380 246 1
380 248 1
380 250 1
380 251 1
380 253 1
380 255 1
380 260 1
380 263 1
380 264 1
380 270 1
380 273 1
380 274 1
380 278 1
380 279 1
380 281 1
380 287 1
380 297 1
380 299 1
380 300 1
380 306 1
380 307 1
380 308 1
380 310 1
380 312 1
380 314 1
380 317 1
380 319 1
380 321 1
380 330 1
380 331 1
380 334 1
380 336 1
380 337 1
380 341 1
380 344 1
380 345 1
380 347 1
380 348 1
380 349 1
380 351 1
380 352 1
380 353 1
380 354 1
380 355 1
380 356 1
380 358 1
380 361 1
380 362 1
380 364 1
380 372 1
380 373 1
380 376 1
380 382 1
380 386 1
380 387 1
380 388 1
380 389 1
380 393 1
380 397 1
380 398 1
380 399 1
381 7 1
381 8 1
381 10 1
381 13 1
381 19 1
381 25 1
381 26 1
381 27 1
381 29 1
381 31 1
381 33 1
381 35 1
381 36 1
381 41 1
381 42 1
381 43 1
381 44 1
381 45 1
381 48 1
381 49 1
381 54 1
381 55 1
381 61 1
381 62 1
381 64 1
381 68 1
381 69 1
381 70 1
381 73 1
381 74 1
381 76 1
381 78 1
381 82 1
381 85 1
381 89 1
381 91 1
381 93 1
381 96 1
381 97 1
381 98 1
381 99 1
381 102 1
381 103 1
381 105 1
381 110 1
381 115 1
381 116 1
381 118 1
381 119 1
381 120 1
381 121 1
381 128 1
381 133 1
381 134 1
381 139 1
381 140 1
381 141 1
381 142 1
381 144 1
381 148 1
381 153 1
381 154 1
381 156 1
381 157 1
381 160 1
381 165 1
381 169 1
381 172 1
381 174 1
381 176 1
381 178 1
381 180 1
381 181 1
381 182 1
381 184 1
381 185 1
381 187 1
381 192 1
381 194 1
381 196 1
381 198 1
381 199 1
381 205 1
381 207 1
381 211 1
381 214 1
381 216 1
381 219 1
381 221 1
381 222 1
381 223 1
381 224 1
381 225 1
381 226 1
381 228 1
381 231 1
381 233 1
381 234 1
381 237 1
381 241 1
381 242 1
381 243 1
381 244 1
381 245 1
381 250 1
381 251 1
381 252 1
381 257 1
381 259 1
381 262 1
381 265 1
381 271 1
381 280 1
381 283 1
381 287 1
381 292 1
381 297 1
381 299 1
381 303 1
381 305 1
381 309 1
381 310 1
381 312 1
381 313 1
381 314 1
381 320 1
381 325 1
381 328 1
381 330 1
381 335 1
381 340 1
381 341 1
381 342 1
381 346 1
381 350 1
381 355 1
381 356 1
381 358 1
381 361 1
381 362 1
381 366 1
381 371 1
381 373 1
381 374 1
381 385 1
381 386 1
381 388 1
381 390 1
381 393 1
381 397 1
381 399 1
381 400 1
382 4 1
382 6 1
382 8 1
382 11 1
382 12 1
382 15 1
382 17 1
382 21 1
382 22 1
382 23 1
382 24 1
382 26 1
382 27 1
382 32 1
382 34 1
382 36 1
382 41 1
382 44 1
382 49 1
382 50 1
382 51 1
382 56 1
382 57 1
382 58 1
382 63 1
382 65 1
382 66 1
382 67 1
382 68 1
382 69 1
382 75 1
382 78 1
382 81 1
382 84 1
382 85 1
382 86 1
382 90 1
382 98 1
382 99 1
382 101 1
382 102 1
382 104 1
382 110 1
382 111 1
382 113 1
382 114 1
382 115 1
382 119 1
382 121 1
382 122 1
382 125 1
382 126 1
382 127 1
382 129 1
382 130 1
382 132 1
382 138 1
382 145 1
382 149 1
382 150 1
382 152 1
382 153 1
382 154 1
382 156 1
382 159 1
382 160 1
382 161 1
382 163 1
382 165 1
382 168 1
382 169 1
382 174 1
382 178 1
382 182 1
382 186 1
382 193 1
382 197 1
382 201 1
382 202 1
382 204 1
382 207 1
382 208 1
382 210 1
382 211 1
382 212 1
382 213 1
382 215 1
382 218 1
382 221 1
382 223 1
382 225 1
382 227 1
382 231 1
382 232 1
382 233 1
382 234 1
382 239 1
382 244 1
382 245 1
382 247 1
382 248 1
382 252 1
382 253 1
382 257 1
382 258 1
382 259 1
382 260 1
382 261 1
382 262 1
382 266 1
382 267 1
382 268 1
382 273 1
382 275 1
382 277 1
382 278 1
382 280 1
382 281 1
382 282 1
382 284 1
382 288 1
382 291 1
382 296 1
382 299 1
382 300 1
382 301 1
382 306 1
382 309 1
382 316 1
382 317 1
382 318 1
382 320 1
382 325 1
382 327 1
382 329 1
382 333 1
382 335 1
382 338 1
382 340 1
382 341 1
382 346 1
382 349 1
382 352 1
382 354 1
382 355 1
382 359 1
382 360 1
382 361 1
382 369 1
382 370 1
382 372 1
382 375 1
382 380 1
382 384 1
382 385 1
382 386 1
382 389 1
382 391 1
382 393 1
382 397 1
382 398 1
383 6 1
383 9 1
383 10 1
383 11 1
383 12 1
383 16 1
383 18 1
383 19 1
383 21 1
383 22 1
383 26 1
383 30 1
383 31 1
383 32 1
383 33 1
383 34 1
383 35 1
383 36 1
383 37 1
383 40 1
383 41 1
383 42 1
383 45 1
383 46 1
383 48 1
383 51 1
383 54 1
383 61 1
383 63 1
383 64 1
383 68 1
383 70 1
383 71 1
383 72 1
383 73 1
383 78 1
383 83 1
383 90 1
383 92 1
383 100 1
383 104 1
383 111 1
383 118 1
383 119 1
383 122 1
383 124 1
383 125 1
383 126 1
383 137 1
383 138 1
383 139 1
383 144 1
383 151 1
383 152 1
383 153 1
383 156 1
383 161 1
383 163 1
383 168 1
383 169 1
383 171 1
383 173 1
383 177 1
383 180 1
383 181 1
383 182 1
383 184 1
383 185 1
383 189 1
383 191 1
383 194 1
383 198 1
383 200 1
383 201 1
383 202 1
383 206 1
383 208 1
383 209 1
383 210 1
383 212 1
383 215 1
383 219 1
383 223 1
383 224 1
383 227 1
383 230 1
383 235 1
383 238 1
383 242 1
383 245 1
383 246 1
383 249 1
383 252 1
383 255 1
383 256 1
383 263 1
383 264 1
383 265 1
383 268 1
383 269 1
383 274 1
383 276 1
383 279 1
383 282 1
383 284 1
383 286 1
383 287 1
383 289 1
383 290 1
383 291 1
383 292 1
383 295 1
383 299 1
383 304 1
383 305 1
383 307 1
383 309 1
383 313 1
383 318 1
383 319 1
383 320 1
383 321 1
383 323 1
383 325 1
383 328 1
383 330 1
383 331 1
383 337 1
383 338 1
383 341 1
383 344 1
383 348 1
383 350 1
383 351 1
383 353 1
383 355 1
383 358 1
383 366 1
383 367 1
383 368 1
383 369 1
383 373 1
383 376 1
383 377 1
383 386 1
383 387 1
383 388 1
383 391 1
383 394 1
383 398 1
384 7 1
384 15 1
384 16 1
384 17 1
384 18 1
384 19 1
384 23 1
384 25 1
384 26 1
384 27 1
384 30 1
384 31 1
384 32 1
384 33 1
384 40 1
384 41 1
384 44 1
384 47 1
384 48 1
384 52 1
384 55 1
384 56 1
384 59 1
384 62 1
384 63 1
384 69 1
384 72 1
384 74 1
384 78 1
384 79 1
384 80 1
384 82 1
384 83 1
384 84 1
384 85 1
384 90 1
384 91 1
384 93 1
384 97 1
384 100 1
384 104 1
384 106 1
384 107 1
384 109 1
384 113 1
384 117 1
384 121 1
384 125 1
384 129 1
384 130 1
384 131 1
384 133 1
384 135 1
384 136 1
384 137 1
384 138 1
384 140 1
384 142 1
384 143 1
384 150 1
384 151 1
384 156 1
384 157 1
384 158 1
384 160 1
384 161 1
384 162 1
384 164 1
384 167 1
384 168 1
384 169 1
384 170 1
384 172 1
384 173 1
384 174 1
384 175 1
384 183 1
384 184 1
384 195 1
384 197 1
384 205 1
384 206 1
384 210 1
384 211 1
384 212 1
384 214 1
384 215 1
384 217 1
384 218 1
384 219 1
384 221 1
384 223 1
384 229 1
384 230 1
384 234 1
384 235 1
384 243 1
384 244 1
384 246 1
384 248 1
384 251 1
384 255 1
384 257 1
384 265 1
384 273 1
384 274 1
384 275 1
384 282 1
384 287 1
384 290 1
384 294 1
384 295 1
384 296 1
384 297 1
384 298 1
384 299 1
384 302 1
384 304 1
384 305 1
384 309 1
384 310 1
384 311 1
384 312 1
384 316 1
384 318 1
384 320 1
384 321 1
384 329 1
384 330 1
384 332 1
384 335 1
384 337 1
384 338 1
384 342 1
384 345 1
384 348 1
384 349 1
384 350 1
384 354 1
384 357 1
384 365 1
384 366 1
384 370 1
384 373 1
384 374 1
384 375 1
384 377 1
384 379 1
384 382 1
384 385 1
384 388 1
384 391 1
384 392 1
384 394 1
384 396 1
385 2 1
385 3 1
385 5 1
385 9 1
385 13 1
385 14 1
385 16 1
385 17 1
385 18 1
385 24 1
385 27 1
385 28 1
385 34 1
385 41 1
385 46 1
385 48 1
385 50 1
385 52 1
385 56 1
385 57 1
385 58 1
385 59 1
385 60 1
385 61 1
385 62 1
385 63 1
385 68 1
385 70 1
385 74 1
385 80 1
385 81 1
385 82 1
385 83 1
385 86 1
385 87 1
385 91 1
385 92 1
385 94 1
385 97 1
385 98 1
385 99 1
385 105 1
385 107 1
385 111 1
385 113 1
385 116 1
385 117 1
385 119 1
385 122 1
385 125 1
385 127 1
385 128 1
385 131 1
385 133 1
385 135 1
385 136 1
385 144 1
385 147 1
385 148 1
385 149 1
385 151 1
385 152 1
385 153 1
385 158 1
385 161 1
385 164 1
385 165 1
385 166 1
385 167 1
385 168 1
385 169 1
385 173 1
385 174 1
385 180 1
385 182 1
385 185 1
385 186 1
385 188 1
385 191 1
385 195 1
385 197 1
385 198 1
385 206 1
385 207 1
385 213 1
385 217 1
385 222 1
385 225 1
385 226 1
385 229 1
385 230 1
385 231 1
385 234 1
385 244 1
385 246 1
385 249 1
385 250 1
385 252 1
385 257 1
385 258 1
385 261 1
385 266 1
385 267 1
385 268 1
385 270 1
385 274 1
385 276 1
385 278 1
385 279 1
385 283 1
385 285 1
385 289 1
385 291 1
385 294 1
385 295 1
385 296 1
385 297 1
385 299 1
385 301 1
385 305 1
385 308 1
385 310 1
385 314 1
385 315 1
385 317 1
385 319 1
385 321 1
385 322 1
385 324 1
385 326 1
385 328 1
385 330 1
385 331 1
385 332 1
385 336 1
385 339 1
385 343 1
385 344 1
385 345 1
385 348 1
385 350 1
385 352 1
385 357 1
385 358 1
385 360 1
385 362 1
385 364 1
385 367 1
385 368 1
385 369 1
385 372 1
385 373 1
385 374 1
385 375 1
385 381 1
385 382 1
385 384 1
385 386 1
385 387 1
385 388 1
385 389 1
385 390 1
385 391 1
385 392 1
385 398 1
386 5 1
386 6 1
386 7 1
386 11 1
386 15 1
386 16 1
386 21 1
386 22 1
386 23 1
386 25 1
386 30 1
386 31 1
386 32 1
386 34 1
386 36 1
386 39 1
386 42 1
386 43 1
386 47 1
386 48 1
386 51 1
386 53 1
386 55 1
386 58 1
386 59 1
386 60 1
386 61 1
386 62 1
386 63 1
386 65 1
386 66 1
386 69 1
386 70 1
386 73 1
386 74 1
386 75 1
386 80 1
386 81 1
386 86 1
386 87 1
386 89 1
386 90 1
386 95 1
386 96 1
386 99 1
386 101 1
386 103 1
386 104 1
386 105 1
386 106 1
386 107 1
386 109 1
386 116 1
386 117 1
386 119 1
386 121 1
386 125 1
386 129 1
386 133 1
386 136 1
386 139 1
386 141 1
386 143 1
386 144 1
386 151 1
386 153 1
386 154 1
386 155 1
386 156 1
386 157 1
386 163 1
386 166 1
386 167 1
386 168 1
386 170 1
386 171 1
386 173 1
386 175 1
386 178 1
386 179 1
386 184 1
386 186 1
386 189 1
386 192 1
386 193 1
386 194 1
386 199 1
386 200 1
386 202 1
386 204 1
386 205 1
386 207 1
386 209 1
386 210 1
386 212 1
386 216 1
386 218 1
386 222 1
386 232 1
386 236 1
386 237 1
386 239 1
386 243 1
386 248 1
386 249 1
386 250 1
386 251 1
386 254 1
386 256 1
386 257 1
386 258 1
386 262 1
386 263 1
386 265 1
386 268 1
386 269 1
386 271 1
386 272 1
386 275 1
386 279 1
386 282 1
386 288 1
386 289 1
386 291 1
386 293 1
386 296 1
386 297 1
386 300 1
386 303 1
386 310 1
386 316 1
386 318 1
386 324 1
386 326 1
386 328 1
386 331 1
386 335 1
386 338 1
386 339 1
386 343 1
386 344 1
386 346 1
386 347 1
386 348 1
386 350 1
386 351 1
386 358 1
386 360 1
386 363 1
386 364 1
386 368 1
386 371 1
386 373 1
386 374 1
386 377 1
386 379 1
386 380 1
386 381 1
386 382 1
386 383 1
386 385 1
386 388 1
386 392 1
386 397 1
386 399 1
386 400 1
387 3 1
387 6 1
387 8 1
387 9 1
387 12 1
387 19 1
387 20 1
387 27 1
387 28 1
387 29 1
387 34 1
387 35 1
387 36 1
387 39 1
387 42 1
387 44 1
387 46 1
387 48 1
387 54 1
387 55 1
387 56 1
387 57 1
387 59 1
387 62 1
387 64 1
387 73 1
387 74 1
387 76 1
387 77 1
387 79 1
387 87 1
387 89 1
387 91 1
387 94 1
387 100 1
387 103 1
387 105 1
387 106 1
387 108 1
387 116 1
387 118 1
387 123 1
387 124 1
387 126 1
387 129 1
387 131 1
387 135 1
387 137 1
387 143 1
387 144 1
387 145 1
387 150 1
387 151 1
387 152 1
387 155 1
387 157 1
387 159 1
387 161 1
387 162 1
387 163 1
387 165 1
387 166 1
387 167 1
387 172 1
387 173 1
387 174 1
387 178 1
387 180 1
387 181 1
387 185 1
387 187 1
387 188 1
387 190 1
387 192 1
387 195 1
387 197 1
387 203 1
387 206 1
387 207 1
387 210 1
387 214 1
387 216 1
387 220 1
387 221 1
387 223 1
387 224 1
387 233 1
387 235 1
387 237 1
387 238 1
387 241 1
387 242 1
387 243 1
387 245 1
387 249 1
387 250 1
387 251 1
387 252 1
387 254 1
387 255 1
387 259 1
387 263 1
387 267 1
387 268 1
387 269 1
387 270 1
387 271 1
387 273 1
387 274 1
387 275 1
387 279 1
387 281 1
387 285 1
387 289 1
387 290 1
387 292 1
387 293 1
387 294 1
387 301 1
387 305 1
387 306 1
387 307 1
387 309 1
387 310 1
387 311 1
387 314 1
387 315 1
387 316 1
387 320 1
387 324 1
387 325 1
387 326 1
387 329 1
387 330 1
387 331 1
387 332 1
387 335 1
387 337 1
387 338 1
387 340 1
387 344 1
387 346 1
387 347 1
387 348 1
387 349 1
387 351 1
387 353 1
387 354 1
387 356 1
387 364 1
387 365 1
387 366 1
387 368 1
387 369 1
387 374 1
387 380 1
387 383 1
387 385 1
387 391 1
387 392 1
387 395 1
387 399 1
388 1 1
388 2 1
388 3 1
388 8 1
388 9 1
388 11 1
388 12 1
388 13 1
388 14 1
388 15 1
388 16 1
388 18 1
388 19 1
388 20 1
388 22 1
388 23 1
388 29 1
388 32 1
388 33 1
388 34 1
388 37 1
388 40 1
388 43 1
388 47 1
388 51 1
388 54 1
388 55 1
388 65 1
388 66 1
388 71 1
388 72 1
388 74 1
388 76 1
388 77 1
388 80 1
388 81 1
388 82 1
388 84 1
388 85 1
388 87 1
388 88 1
388 92 1
388 94 1
388 95 1
388 96 1
388 98 1
388 99 1
388 100 1
388 101 1
388 112 1
388 117 1
388 119 1
388 121 1
388 123 1
388 124 1
388 132 1
388 133 1
388 135 1
388 140 1
388 141 1
388 142 1
388 144 1
388 152 1
388 154 1
388 157 1
388 158 1
388 159 1
388 160 1
388 164 1
388 167 1
388 168 1
388 170 1
388 172 1
388 173 1
388 179 1
388 181 1
388 183 1
388 187 1
388 194 1
388 195 1
388 200 1
388 203 1
388 204 1
388 206 1
388 208 1
388 210 1
388 211 1
388 215 1
388 217 1
388 218 1
388 220 1
388 222 1
388 225 1
388 226 1
388 227 1
388 230 1
388 235 1
388 236 1
388 237 1
388 238 1
388 239 1
388 240 1
388 241 1
388 243 1
388 244 1
388 245 1
388 251 1
388 257 1
388 258 1
388 261 1
388 262 1
388 265 1
388 266 1
388 267 1
388 270 1
388 272 1
388 273 1
388 275 1
388 277 1
388 280 1
388 282 1
388 286 1
388 292 1
388 296 1
388 297 1
388 300 1
388 301 1
388 303 1
388 304 1
388 306 1
388 307 1
388 310 1
388 311 1
388 316 1
388 317 1
388 318 1
388 320 1
388 321 1
388 323 1
388 325 1
388 327 1
388 330 1
388 334 1
388 337 1
388 342 1
388 343 1
388 344 1
388 348 1
388 349 1
388 351 1
388 353 1
388 354 1
388 355 1
388 356 1
388 357 1
388 358 1
388 364 1
388 365 1
388 366 1
388 370 1
388 374 1
388 375 1
388 376 1
388 377 1
388 379 1
388 380 1
388 381 1
388 383 1
388 384 1
388 385 1
388 386 1
388 394 1
388 397 1
388 398 1
388 399 1
389 3 1
389 5 1
389 7 1
389 8 1
389 11 1
389 12 1
389 16 1
389 17 1
389 18 1
389 20 1
389 21 1
389 22 1
389 24 1
389 25 1
389 28 1
389 43 1
389 44 1
389 45 1
389 49 1
389 50 1
389 60 1
389 62 1
389 63 1
389 67 1
389 68 1
389 76 1
389 77 1
389 78 1
389 79 1
389 80 1
389 81 1
389 82 1
389 84 1
389 86 1
389 87 1
389 92 1
389 98 1
389 101 1
389 102 1
389 107 1
389 109 1
389 116 1
389 121 1
389 122 1
389 123 1
389 124 1
389 126 1
389 133 1
389 134 1
389 143 1
389 144 1
389 150 1
389 152 1
389 154 1
389 155 1
389 156 1
389 162 1
389 163 1
389 164 1
389 165 1
389 166 1
389 167 1
389 168 1
389 170 1
389 171 1
389 172 1
389 173 1
389 174 1
389 175 1
389 176 1
389 178 1
389 183 1
389 189 1
389 191 1
389 197 1
389 198 1
389 201 1
389 202 1
389 203 1
389 204 1
389 205 1
389 208 1
389 213 1
389 214 1
389 215 1
389 224 1
389 228 1
389 229 1
389 231 1
389 239 1
389 248 1
389 252 1
389 255 1
389 260 1
389 261 1
389 271 1
389 276 1
389 280 1
389 286 1
389 289 1
389 292 1
389 293 1
389 299 1
389 301 1
389 302 1
389 303 1
389 304 1
389 306 1
389 309 1
389 316 1
389 317 1
389 321 1
389 323 1
389 329 1
389 332 1
389 340 1
389 342 1
389 343 1
389 344 1
389 345 1
389 349 1
389 351 1
389 352 1
389 353 1
389 355 1
389 358 1
389 360 1
389 361 1
389 362 1
389 363 1
389 365 1
389 366 1
389 367 1
389 370 1
389 371 1
389 372 1
389 376 1
389 379 1
389 380 1
389 382 1
389 385 1
389 395 1
389 396 1
389 398 1
390 2 1
390 3 1
390 7 1
390 8 1
390 11 1
390 12 1
390 13 1
390 14 1
390 22 1
390 23 1
390 25 1
390 26 1
390 27 1
390 30 1
390 32 1
390 35 1
390 41 1
390 42 1
390 44 1
390 47 1
390 52 1
390 53 1
390 54 1
390 55 1
390 56 1
390 59 1
390 61 1
390 62 1
390 65 1
390 67 1
390 69 1
390 70 1
390 72 1
390 74 1
390 75 1
390 77 1
390 82 1
390 83 1
390 86 1
390 87 1
390 91 1
390 94 1
390 95 1
390 99 1
390 101 1
390 102 1
390 103 1
390 104 1
390 106 1
390 114 1
390 116 1
390 121 1
390 122 1
390 123 1
390 124 1
390 128 1
390 131 1
390 132 1
390 134 1
390 136 1
390 139 1
390 140 1
390 141 1
390 142 1
390 143 1
390 144 1
390 146 1
390 147 1
390 148 1
390 149 1
390 152 1
390 153 1
390 156 1
390 161 1
390 162 1
390 168 1
390 171 1
390 172 1
390 175 1
390 176 1
390 180 1
390 181 1
390 182 1
390 183 1
390 184 1
390 185 1
390 187 1
390 188 1
390 191 1
390 192 1
390 197 1
390 198 1
390 199 1
390 200 1
390 201 1
390 203 1
390 208 1
390 210 1
390 211 1
390 213 1
390 215 1
390 216 1
390 217 1
390 218 1
390 221 1
390 222 1
390 223 1
390 225 1
390 226 1
390 237 1
390 240 1
390 246 1
390 247 1
390 248 1
390 250 1
390 256 1
390 260 1
390 264 1
390 270 1
390 272 1
390 273 1
390 279 1
390 282 1
390 283 1
390 285 1
390 286 1
390 288 1
390 292 1
390 293 1
390 294 1
390 296 1
390 297 1
390 299 1
390 302 1
390 303 1
390 308 1
390 309 1
390 315 1
390 318 1
390 320 1
390 322 1
390 324 1
390 329 1
390 332 1
390 333 1
390 334 1
390 340 1
390 343 1
390 345 1
390 346 1
390 349 1
390 351 1
390 358 1
390 359 1
390 363 1
390 367 1
390 370 1
390 372 1
390 376 1
390 378 1
390 381 1
390 385 1
390 391 1
391 1 1
391 2 1
391 5 1
391 7 1
391 9 1
391 12 1
391 13 1
391 14 1
391 16 1
391 19 1
391 20 1
391 21 1
391 24 1
391 28 1
391 31 1
391 33 1
391 35 1
391 36 1
391 39 1
391 41 1
391 42 1
391 45 1
391 47 1
391 48 1
391 50 1
391 52 1
391 54 1
391 55 1
391 56 1
391 57 1
391 58 1
391 60 1
391 62 1
391 63 1
391 65 1
391 69 1
391 72 1
391 76 1
391 78 1
391 88 1
391 89 1
391 92 1
391 97 1
391 102 1
391 103 1
391 104 1
391 105 1
391 111 1
391 113 1
391 114 1
391 116 1
391 117 1
391 125 1
391 126 1
391 127 1
391 129 1
391 131 1
391 133 1
391 134 1
391 135 1
391 136 1
391 140 1
391 142 1
391 151 1
391 153 1
391 154 1
391 156 1
391 158 1
391 159 1
391 160 1
391 161 1
391 165 1
391 167 1
391 171 1
391 174 1
391 175 1
391 178 1
391 185 1
391 187 1
391 188 1
391 189 1
391 194 1
391 197 1
391 200 1
391 202 1
391 205 1
391 206 1
391 207 1
391 209 1
391 211 1
391 214 1
391 215 1
391 218 1
391 224 1
391 225 1
391 226 1
391 227 1
391 229 1
391 232 1
391 234 1
391 235 1
391 237 1
391 242 1
391 244 1
391 245 1
391 250 1
391 252 1
391 253 1
391 254 1
391 259 1
391 261 1
391 262 1
391 266 1
391 268 1
391 269 1
391 272 1
391 273 1
391 283 1
391 284 1
391 291 1
391 296 1
391 297 1
391 302 1
391 305 1
391 310 1
391 313 1
391 314 1
391 316 1
391 317 1
391 318 1
391 321 1
391 325 1
391 326 1
391 330 1
391 334 1
391 338 1
391 339 1
391 341 1
391 342 1
391 344 1
391 345 1
391 346 1
391 347 1
391 349 1
391 352 1
391 355 1
391 362 1
391 363 1
391 365 1
391 366 1
391 368 1
391 371 1
391 373 1
391 376 1
391 377 1
391 378 1
391 382 1
391 383 1
391 384 1
391 385 1
391 387 1
391 390 1
391 393 1
391 394 1
391 397 1
391 399 1
392 2 1
392 3 1
392 4 1
392 8 1
392 9 1
392 10 1
392 12 1
392 18 1
392 22 1
392 24 1
392 25 1
392 27 1
392 34 1
392 37 1
392 38 1
392 43 1
392 48 1
392 52 1
392 56 1
392 58 1
392 59 1
392 63 1
392 65 1
392 66 1
392 72 1
392 74 1
392 75 1
392 77 1
392 81 1
392 84 1
392 85 1
392 91 1
392 92 1
392 94 1
392 96 1
392 97 1
392 98 1
392 100 1
392 101 1
392 104 1
392 106 1
392 112 1
392 113 1
392 116 1
392 119 1
392 120 1
392 121 1
392 124 1
392 129 1
392 131 1
392 132 1
392 135 1
392 138 1
392 141 1
392 146 1
392 148 1
392 149 1
392 150 1
392 152 1
392 153 1
392 159 1
392 160 1
392 161 1
392 164 1
392 165 1
392 168 1
392 170 1
392 171 1
392 176 1
392 177 1
392 182 1
392 183 1
392 185 1
392 186 1
392 190 1
392 192 1
392 195 1
392 196 1
392 197 1
392 199 1
392 200 1
392 201 1
392 202 1
392 204 1
392 205 1
392 212 1
392 213 1
392 216 1
392 217 1
392 218 1
392 224 1
392 226 1
392 231 1
392 232 1
392 236 1
392 241 1
392 246 1
392 249 1
392 254 1
392 255 1
392 256 1
392 258 1
392 260 1
392 267 1
392 268 1
392 269 1
392 270 1
392 275 1
392 276 1
392 277 1
392 278 1
392 280 1
392 284 1
392 290 1
392 291 1
392 294 1
392 297 1
392 299 1
392 303 1
392 304 1
392 307 1
392 308 1
392 309 1
392 310 1
392 311 1
392 313 1
392 315 1
392 316 1
392 318 1
392 320 1
392 324 1
392 326 1
392 327 1
392 331 1
392 338 1
392 341 1
392 351 1
392 354 1
392 355 1
392 356 1
392 362 1
392 363 1
392 364 1
392 368 1
392 370 1
392 371 1
392 374 1
392 375 1
392 378 1
392 379 1
392 384 1
392 385 1
392 386 1
392 387 1
392 396 1
392 397 1
392 400 1
393 5 1
393 7 1
393 8 1
393 15 1
393 16 1
393 20 1
393 22 1
393 25 1
393 26 1
393 29 1
393 33 1
393 38 1
393 39 1
393 49 1
393 51 1
393 53 1
393 54 1
393 57 1
393 61 1
393 64 1
393 66 1
393 67 1
393 70 1
393 72 1
393 73 1
393 74 1
393 76 1
393 78 1
393 81 1
393 82 1
393 85 1
393 89 1
393 90 1
393 91 1
393 93 1
393 94 1
393 99 1
393 100 1
393 104 1
393 107 1
393 108 1
393 109 1
393 112 1
393 113 1
393 114 1
393 116 1
393 118 1
393 119 1
393 120 1
393 126 1
393 127 1
393 130 1
393 135 1
393 136 1
393 139 1
393 140 1
393 141 1
393 146 1
393 148 1
393 151 1
393 152 1
393 153 1
393 155 1
393 160 1
393 161 1
393 163 1
393 164 1
393 170 1
393 174 1
393 176 1
393 178 1
393 179 1
393 180 1
393 182 1
393 183 1
393 184 1
393 185 1
393 187 1
393 188 1
393 191 1
393 196 1
393 197 1
393 199 1
393 203 1
393 204 1
393 208 1
393 209 1
393 214 1
393 222 1
393 225 1
393 234 1
393 236 1
393 239 1
393 240 1
393 243 1
393 244 1
393 245 1
393 246 1
393 250 1
393 251 1
393 257 1
393 267 1
393 272 1
393 274 1
393 276 1
393 278 1
393 280 1
393 283 1
393 285 1
393 288 1
393 291 1
393 294 1
393 295 1
393 298 1
393 301 1
393 303 1
393 304 1
393 306 1
393 308 1
393 309 1
393 311 1
393 317 1
393 318 1
393 319 1
393 321 1
393 322 1
393 323 1
393 325 1
393 326 1
393 327 1
393 331 1
393 340 1
393 345 1
393 352 1
393 356 1
393 359 1
393 361 1
393 364 1
393 365 1
393 370 1
393 373 1
393 375 1
393 380 1
393 381 1
393 382 1
393 391 1
393 395 1
393 400 1
394 2 1
394 8 1
394 10 1
394 12 1
394 15 1
394 16 1
394 18 1
394 23 1
394 24 1
394 25 1
394 27 1
394 28 1
394 32 1
394 34 1
394 35 1
394 39 1
394 40 1
394 43 1
394 48 1
394 49 1
394 51 1
394 52 1
394 53 1
394 56 1
394 58 1
394 59 1
394 60 1
394 61 1
394 62 1
394 63 1
394 66 1
394 67 1
394 68 1
394 73 1
394 77 1
394 79 1
394 80 1
394 82 1
394 83 1
394 85 1
394 89 1
394 92 1
394 94 1
394 95 1
394 101 1
394 102 1
394 105 1
394 112 1
394 113 1
394 127 1
394 129 1
394 132 1
394 133 1
394 134 1
394 135 1
394 138 1
394 139 1
394 140 1
394 144 1
394 146 1
394 149 1
394 154 1
394 155 1
394 164 1
394 166 1
394 170 1
394 172 1
394 174 1
394 176 1
394 179 1
394 181 1
394 186 1
394 193 1
394 196 1
394 202 1
394 204 1
394 207 1
394 208 1
394 214 1
394 216 1
394 217 1
394 220 1
394 222 1
394 224 1
394 228 1
394 230 1
394 231 1
394 232 1
394 235 1
394 236 1
394 237 1
394 241 1
394 250 1
394 254 1
394 255 1
394 263 1
394 269 1
394 270 1
394 272 1
394 275 1
394 276 1
394 285 1
394 286 1
394 287 1
394 290 1
394 296 1
394 298 1
394 299 1
394 302 1
394 305 1
394 306 1
394 308 1
394 309 1
394 312 1
394 314 1
394 330 1
394 337 1
394 338 1
394 343 1
394 345 1
394 348 1
394 349 1
394 350 1
394 352 1
394 355 1
394 359 1
394 360 1
394 362 1
394 365 1
394 366 1
394 367 1
394 368 1
394 371 1
394 374 1
394 377 1
394 378 1
394 379 1
394 383 1
394 384 1
394 388 1
394 391 1
394 395 1
394 396 1
394 400 1
395 1 1
395 5 1
395 8 1
395 12 1
395 14 1
395 15 1
395 16 1
395 18 1
395 26 1
395 30 1
395 34 1
395 37 1
395 40 1
395 41 1
395 45 1
395 46 1
395 49 1
395 51 1
395 52 1
395 54 1
395 58 1
395 59 1
395 67 1
395 71 1
395 75 1
395 77 1
395 78 1
395 83 1
395 84 1
395 85 1
395 86 1
395 89 1
395 90 1
395 95 1
395 100 1
395 101 1
395 102 1
395 104 1
395 106 1
395 107 1
395 108 1
395 109 1
395 111 1
395 114 1
395 117 1
395 123 1
395 124 1
395 126 1
395 128 1
395 129 1
395 132 1
395 136 1
395 138 1
395 139 1
395 142 1
395 143 1
395 146 1
395 147 1
395 150 1
395 151 1
395 153 1
395 154 1
395 155 1
395 159 1
395 160 1
395 161 1
395 163 1
395 166 1
395 167 1
395 169 1
395 170 1
395 174 1
395 177 1
395 178 1
395 181 1
395 183 1
395 184 1
395 185 1
395 190 1
395 191 1
395 195 1
395 201 1
395 202 1
395 208 1
395 210 1
395 211 1
395 212 1
395 213 1
395 215 1
395 216 1
395 221 1
395 223 1
395 225 1
395 226 1
395 229 1
395 230 1
395 231 1
395 232 1
395 234 1
395 236 1
395 237 1
395 238 1
395 239 1
395 240 1
395 243 1
395 245 1
395 249 1
395 250 1
395 255 1
395 256 1
395 257 1
395 258 1
395 259 1
395 260 1
395 261 1
395 262 1
395 263 1
395 265 1
395 270 1
395 272 1
395 276 1
395 279 1
395 281 1
395 283 1
395 284 1
395 285 1
395 287 1
395 288 1
395 293 1
395 294 1
395 295 1
395 296 1
395 300 1
395 303 1
395 306 1
395 308 1
395 309 1
395 310 1
395 311 1
395 312 1
395 315 1
395 318 1
395 319 1
395 322 1
395 325 1
395 326 1
395 329 1
395 330 1
395 332 1
395 333 1
395 334 1
395 335 1
395 336 1
395 338 1
395 340 1
395 341 1
395 343 1
395 344 1
395 345 1
395 346 1
395 347 1
395 348 1
395 350 1
395 351 1
395 354 1
395 356 1
395 358 1
395 359 1
395 362 1
395 364 1
395 367 1
395 372 1
395 373 1
395 387 1
395 389 1
395 393 1
395 394 1
395 396 1
395 397 1
395 399 1
395 400 1
396 2 1
396 4 1
396 6 1
396 7 1
396 13 1
396 14 1
396 19 1
396 26 1
396 30 1
396 34 1
396 35 1
396 42 1
396 43 1
396 44 1
396 45 1
396 49 1
396 51 1
396 52 1
396 60 1
396 61 1
396 66 1
396 67 1
396 71 1
396 73 1
396 75 1
396 77 1
396 79 1
396 81 1
396 82 1
396 84 1
396 87 1
396 94 1
396 97 1
396 99 1
396 107 1
396 111 1
396 113 1
396 116 1
396 120 1
396 121 1
396 123 1
396 124 1
396 129 1
396 130 1
396 133 1
396 134 1
396 135 1
396 136 1
396 137 1
396 138 1
396 139 1
396 142 1
396 143 1
396 152 1
396 154 1
396 156 1
396 159 1
396 161 1
396 163 1
396 173 1
396 177 1
396 180 1
396 188 1
396 191 1
396 192 1
396 194 1
396 196 1
396 200 1
396 203 1
396 205 1
396 206 1
396 208 1
396 209 1
396 211 1
396 212 1
396 214 1
396 220 1
396 221 1
396 222 1
396 223 1
396 225 1
396 226 1
396 228 1
396 230 1
396 231 1
396 232 1
396 238 1
396 244 1
396 249 1
396 252 1
396 256 1
396 257 1
396 261 1
396 262 1
396 270 1
396 273 1
396 276 1
396 279 1
396 280 1
396 282 1
396 283 1
396 284 1
396 285 1
396 286 1
396 287 1
396 291 1
396 292 1
396 293 1
396 295 1
396 298 1
396 300 1
396 301 1
396 303 1
396 304 1
396 308 1
396 309 1
396 313 1
396 314 1
396 320 1
396 321 1
396 322 1
396 323 1
396 324 1
396 325 1
396 328 1
396 330 1
396 341 1
396 345 1
396 346 1
396 348 1
396 350 1
396 353 1
396 354 1
396 357 1
396 365 1
396 369 1
396 372 1
396 374 1
396 375 1
396 384 1
396 389 1
396 392 1
396 394 1
396 395 1
396 398 1
396 399 1
397 1 1
397 2 1
397 3 1
397 5 1
397 6 1
397 20 1
397 25 1
397 28 1
397 37 1
397 39 1
397 40 1
397 43 1
397 44 1
397 45 1
397 54 1
397 57 1
397 59 1
397 64 1
397 67 1
397 68 1
397 69 1
397 70 1
397 74 1
397 77 1
397 78 1
397 80 1
397 81 1
397 82 1
397 83 1
397 88 1
397 89 1
397 90 1
397 99 1
397 102 1
397 103 1
397 104 1
397 107 1
397 108 1
397 113 1
397 115 1
397 116 1
397 118 1
397 119 1
397 120 1
397 121 1
397 123 1
397 124 1
397 131 1
397 133 1
397 134 1
397 136 1
397 137 1
397 138 1
397 139 1
397 140 1
397 141 1
397 142 1
397 145 1
397 153 1
397 158 1
397 163 1
397 164 1
397 165 1
397 168 1
397 171 1
397 173 1
397 176 1
397 177 1
397 180 1
397 184 1
397 185 1
397 188 1
397 192 1
397 193 1
397 194 1
397 195 1
397 196 1
397 210 1
397 212 1
397 216 1
397 217 1
397 218 1
397 220 1
397 222 1
397 224 1
397 225 1
397 228 1
397 233 1
397 235 1
397 236 1
397 237 1
397 239 1
397 240 1
397 241 1
397 247 1
397 248 1
397 251 1
397 253 1
397 254 1
397 255 1
397 262 1
397 263 1
397 266 1
397 267 1
397 271 1
397 276 1
397 278 1
397 279 1
397 280 1
397 282 1
397 284 1
397 285 1
397 286 1
397 290 1
397 292 1
397 302 1
397 304 1
397 307 1
397 309 1
397 311 1
397 312 1
397 313 1
397 318 1
397 323 1
397 327 1
397 328 1
397 329 1
397 330 1
397 332 1
397 334 1
397 337 1
397 339 1
397 340 1
397 341 1
397 342 1
397 345 1
397 347 1
397 350 1
397 351 1
397 353 1
397 356 1
397 357 1
397 360 1
397 363 1
397 368 1
397 369 1
397 372 1
397 374 1
397 375 1
397 376 1
397 378 1
397 379 1
397 380 1
397 381 1
397 382 1
397 386 1
397 388 1
397 391 1
397 392 1
397 395 1
398 1 1
398 3 1
398 4 1
398 6 1
398 11 1
398 12 1
398 14 1
398 19 1
398 24 1
398 26 1
398 27 1
398 28 1
398 31 1
398 37 1
398 39 1
398 40 1
398 41 1
398 42 1
398 44 1
398 48 1
398 50 1
398 52 1
398 53 1
398 54 1
398 57 1
398 58 1
398 59 1
398 64 1
398 66 1
398 70 1
398 73 1
398 74 1
398 75 1
398 78 1
398 81 1
398 90 1
398 91 1
398 93 1
398 95 1
398 98 1
398 99 1
398 100 1
398 101 1
398 102 1
398 104 1
398 108 1
398 111 1
398 112 1
398 113 1
398 115 1
398 116 1
398 121 1
398 125 1
398 127 1
398 137 1
398 140 1
398 141 1
398 144 1
398 146 1
398 147 1
398 149 1
398 153 1
398 158 1
398 160 1
398 161 1
398 163 1
398 164 1
398 165 1
398 169 1
398 170 1
398 175 1
398 177 1
398 181 1
398 182 1
398 188 1
398 189 1
398 191 1
398 192 1
398 200 1
398 202 1
398 203 1
398 205 1
398 207 1
398 211 1
398 214 1
398 217 1
398 220 1
398 227 1
398 230 1
398 235 1
398 240 1
398 242 1
398 244 1
398 246 1
398 247 1
398 249 1
398 251 1
398 255 1
398 258 1
398 261 1
398 265 1
398 266 1
398 267 1
398 269 1
398 270 1
398 271 1
398 275 1
398 276 1
398 277 1
398 279 1
398 282 1
398 283 1
398 284 1
398 286 1
398 288 1
398 289 1
398 291 1
398 293 1
398 297 1
398 299 1
398 304 1
398 306 1
398 310 1
398 315 1
398 316 1
398 317 1
398 323 1
398 326 1
398 327 1
398 332 1
398 333 1
398 335 1
398 336 1
398 337 1
398 339 1
398 340 1
398 342 1
398 343 1
398 344 1
398 345 1
398 347 1
398 355 1
398 356 1
398 359 1
398 361 1
398 363 1
398 368 1
398 369 1
398 374 1
398 378 1
398 380 1
398 382 1
398 383 1
398 385 1
398 388 1
398 389 1
398 396 1
398 400 1
399 3 1
399 4 1
399 6 1
399 10 1
399 11 1
399 13 1
399 14 1
399 16 1
399 24 1
399 25 1
399 27 1
399 29 1
399 32 1
399 33 1
399 34 1
399 37 1
399 40 1
399 41 1
399 44 1
399 53 1
399 54 1
399 57 1
399 61 1
399 62 1
399 63 1
399 65 1
399 70 1
399 71 1
399 73 1
399 78 1
399 82 1
399 83 1
399 84 1
399 87 1
399 89 1
399 90 1
399 93 1
399 94 1
399 97 1
399 100 1
399 107 1
399 108 1
399 110 1
399 117 1
399 118 1
399 120 1
399 121 1
399 124 1
399 129 1
399 131 1
399 135 1
399 138 1
399 142 1
399 144 1
399 146 1
399 147 1
399 148 1
399 151 1
399 157 1
399 158 1
399 159 1
399 160 1
399 166 1
399 167 1
399 172 1
399 175 1
399 186 1
399 191 1
399 192 1
399 194 1
399 199 1
399 202 1
399 207 1
399 209 1
399 210 1
399 211 1
399 213 1
399 216 1
399 225 1
399 230 1
399 231 1
399 233 1
399 235 1
399 236 1
399 242 1
399 244 1
399 251 1
399 253 1
399 254 1
399 259 1
399 260 1
399 261 1
399 262 1
399 263 1
399 266 1
399 268 1
399 273 1
399 274 1
399 277 1
399 278 1
399 281 1
399 282 1
399 286 1
399 290 1
399 291 1
399 293 1
399 295 1
399 296 1
399 297 1
399 301 1
399 303 1
399 304 1
399 306 1
399 308 1
399 309 1
399 311 1
399 312 1
399 313 1
399 314 1
399 319 1
399 320 1
399 322 1
399 323 1
399 324 1
399 329 1
399 333 1
399 334 1
399 336 1
399 338 1
399 345 1
399 346 1
399 347 1
399 351 1
399 353 1
399 354 1
399 361 1
399 362 1
399 364 1
399 365 1
399 366 1
399 367 1
399 368 1
399 369 1
399 370 1
399 371 1
399 372 1
399 373 1
399 376 1
399 380 1
399 381 1
399 386 1
399 387 1
399 388 1
399 391 1
399 395 1
399 396 1
400 1 1
400 2 1
400 3 1
400 4 1
400 10 1
400 11 1
400 14 1
400 15 1
400 19 1
400 23 1
400 24 1
400 25 1
400 26 1
400 29 1
400 31 1
400 34 1
400 36 1
400 38 1
400 40 1
400 41 1
400 43 1
400 45 1
400 46 1
400 47 1
400 51 1
400 52 1
400 54 1
400 57 1
400 59 1
400 60 1
400 62 1
400 66 1
400 68 1
400 70 1
400 74 1
400 76 1
400 78 1
400 82 1
400 84 1
400 86 1
400 88 1
400 89 1
400 90 1
400 91 1
400 93 1
400 94 1
400 95 1
400 96 1
400 97 1
400 100 1
400 102 1
400 104 1
400 107 1
400 108 1
400 112 1
400 113 1
400 115 1
400 125 1
400 126 1
400 129 1
400 130 1
400 131 1
400 132 1
400 133 1
400 134 1
400 136 1
400 137 1
400 140 1
400 144 1
400 146 1
400 149 1
400 150 1
400 151 1
400 152 1
400 154 1
400 155 1
400 156 1
400 163 1
400 166 1
400 168 1
400 171 1
400 175 1
400 177 1
400 179 1
400 186 1
400 189 1
400 190 1
400 193 1
400 194 1
400 198 1
400 200 1
400 202 1
400 203 1
400 204 1
400 205 1
400 207 1
400 208 1
400 213 1
400 217 1
400 224 1
400 230 1
400 235 1
400 238 1
400 239 1
400 243 1
400 245 1
400 256 1
400 257 1
400 260 1
400 261 1
400 263 1
400 264 1
400 266 1
400 267 1
400 268 1
400 270 1
400 272 1
400 278 1
400 279 1
400 281 1
400 286 1
400 287 1
400 288 1
400 290 1
400 292 1
400 293 1
400 298 1
400 300 1
400 302 1
400 312 1
400 313 1
400 314 1
400 316 1
400 320 1
400 323 1
400 327 1
400 330 1
400 331 1
400 333 1
400 337 1
400 338 1
400 339 1
400 341 1
400 343 1
400 344 1
400 348 1
400 350 1
400 351 1
400 352 1
400 353 1
400 357 1
400 358 1
400 360 1
400 362 1
400 363 1
400 364 1
400 365 1
400 367 1
400 374 1
400 376 1
400 381 1
400 386 1
400 392 1
400 393 1
400 394 1
400 395 1
400 398 1
