%%MatrixMarket matrix coordinate integer general
%
600 600 72290
1 10 1
1 26 1
1 28 1
1 41 1
1 52 1
1 58 1
1 63 1
1 65 1
1 67 1
1 85 1
1 86 1
1 98 1
1 113 1
1 114 1
1 115 1
1 116 1
1 117 1
1 118 1
1 120 1
1 122 1
1 129 1
1 135 1
1 140 1
1 143 1
1 144 1
1 151 1
1 156 1
1 157 1
1 161 1
1 162 1
1 164 1
1 186 1
1 189 1
1 194 1
1 199 1
1 200 1
1 202 1
1 205 1
1 208 1
1 214 1
1 217 1
1 222 1
1 224 1
1 232 1
1 234 1
1 235 1
1 241 1
1 249 1
1 260 1
1 261 1
1 276 1
1 278 1
1 282 1
1 284 1
1 287 1
1 288 1
1 301 1
1 307 1
1 308 1
1 318 1
1 320 1
1 324 1
1 334 1
1 337 1
1 347 1
1 349 1
1 354 1
1 360 1
1 363 1
1 365 1
1 366 1
1 367 1
1 382 1
1 384 1
1 385 1
1 389 1
1 402 1
1 404 1
1 407 1
1 413 1
1 418 1
1 424 1
1 428 1
1 433 1
1 434 1
1 437 1
1 439 1
1 445 1
1 447 1
1 449 1
1 456 1
1 457 1
1 462 1
1 472 1
1 476 1
1 486 1
1 487 1
1 492 1
1 496 1
1 501 1
1 526 1
1 528 1
1 533 1
1 544 1
1 557 1
1 558 1
1 560 1
1 563 1
1 570 1
1 571 1
1 572 1
1 582 1
1 584 1
1 588 1
1 589 1
1 594 1
1 598 1
2 5 1
2 9 1
2 18 1
2 20 1
2 22 1
2 23 1
2 24 1
2 26 1
2 44 1
2 49 1
2 53 1
2 56 1
2 59 1
2 60 1
2 62 1
2 81 1
2 83 1
2 87 1
2 88 1
2 100 1
2 104 1
2 114 1
2 125 1
2 131 1
2 133 1
2 139 1
2 141 1
2 151 1
2 152 1
2 155 1
2 157 1
2 175 1
2 188 1
2 190 1
2 195 1
2 201 1
2 205 1
2 207 1
2 212 1
2 214 1
2 223 1
2 240 1
2 241 1
2 244 1
2 245 1
2 246 1
2 254 1
2 255 1
2 257 1
2 258 1
2 260 1
2 264 1
2 269 1
2 270 1
2 272 1
2 276 1
2 281 1
2 297 1
2 299 1
2 315 1
2 317 1
2 324 1
2 327 1
2 331 1
2 336 1
2 339 1
2 350 1
2 360 1
2 361 1
2 369 1
2 370 1
2 371 1
2 372 1
2 385 1
2 394 1
2 397 1
2 406 1
2 407 1
2 417 1
2 419 1
2 425 1
2 434 1
2 443 1
2 444 1
2 446 1
2 457 1
2 462 1
2 463 1
2 464 1
2 468 1
2 474 1
2 479 1
2 482 1
2 485 1
2 492 1
2 493 1
2 494 1
2 505 1
2 510 1
2 517 1
2 520 1
2 529 1
2 554 1
2 565 1
2 566 1
2 572 1
2 573 1
2 578 1
2 579 1
2 586 1
2 589 1
3 4 1
3 7 1
3 8 1
3 14 1
3 16 1
3 20 1
3 23 1
3 24 1
3 30 1
3 31 1
3 33 1
3 34 1
3 43 1
3 46 1
3 59 1
3 64 1
3 65 1
3 77 1
3 78 1
3 81 1
3 89 1
3 97 1
3 100 1
3 106 1
3 111 1
3 115 1
3 117 1
3 118 1
3 123 1
3 126 1
3 127 1
3 151 1
3 160 1
3 164 1
3 171 1
3 175 1
3 176 1
3 180 1
3 181 1
3 188 1
3 199 1
3 208 1
3 211 1
3 216 1
3 224 1
3 225 1
3 228 1
3 233 1
3 244 1
3 245 1
3 246 1
3 250 1
3 251 1
3 268 1
3 271 1
3 278 1
3 280 1
3 283 1
3 298 1
3 305 1
3 308 1
3 321 1
3 322 1
3 323 1
3 326 1
3 327 1
3 328 1
3 334 1
3 339 1
3 345 1
3 351 1
3 355 1
3 358 1
3 359 1
3 366 1
3 375 1
3 380 1
3 388 1
3 389 1
3 391 1
3 392 1
3 395 1
3 400 1
3 408 1
3 411 1
3 424 1
3 425 1
3 437 1
3 438 1
3 441 1
3 445 1
3 448 1
3 449 1
3 450 1
3 452 1
3 455 1
3 457 1
3 459 1
3 460 1
3 467 1
3 469 1
3 472 1
3 480 1
3 485 1
3 487 1
3 493 1
3 507 1
3 515 1
3 516 1
3 520 1
3 524 1
3 526 1
3 542 1
3 543 1
3 545 1
3 548 1
3 560 1
3 564 1
3 566 1
3 575 1
3 588 1
3 596 1
3 598 1
3 599 1
3 600 1
4 3 1
4 10 1
4 13 1
4 16 1
4 23 1
4 24 1
4 27 1
4 30 1
4 35 1
4 38 1
4 39 1
4 41 1
4 42 1
4 43 1
4 44 1
4 47 1
4 51 1
4 54 1
4 57 1
4 59 1
4 61 1
4 63 1
4 64 1
4 66 1
4 72 1
4 80 1
4 83 1
4 90 1
4 93 1
4 95 1
4 101 1
4 104 1
4 116 1
4 118 1
4 123 1
4 137 1
4 139 1
4 142 1
4 148 1
4 156 1
4 169 1
4 173 1
4 178 1
4 180 1
4 185 1
4 195 1
4 196 1
4 205 1
4 208 1
4 213 1
4 214 1
4 215 1
4 222 1
4 228 1
4 233 1
4 235 1
4 242 1
4 245 1
4 249 1
4 253 1
4 257 1
4 263 1
4 268 1
4 269 1
4 274 1
4 275 1
4 279 1
4 280 1
4 281 1
4 282 1
4 285 1
4 287 1
4 294 1
4 297 1
4 310 1
4 312 1
4 316 1
4 319 1
4 324 1
4 327 1
4 330 1
4 331 1
4 333 1
4 338 1
4 349 1
4 353 1
4 355 1
4 356 1
4 365 1
4 366 1
4 367 1
4 369 1
4 371 1
4 374 1
4 375 1
4 382 1
4 386 1
4 392 1
4 396 1
4 400 1
4 403 1
4 412 1
4 413 1
4 415 1
4 422 1
4 426 1
4 432 1
4 437 1
4 442 1
4 448 1
4 457 1
4 458 1
4 459 1
4 462 1
4 463 1
4 466 1
4 473 1
4 478 1
4 484 1
4 491 1
4 494 1
4 497 1
4 499 1
4 505 1
4 508 1
4 510 1
4 517 1
4 519 1
4 539 1
4 546 1
4 551 1
4 557 1
4 559 1
4 560 1
4 566 1
4 577 1
4 578 1
4 580 1
4 585 1
4 587 1
4 593 1
4 596 1
4 599 1
5 2 1
5 6 1
5 16 1
5 41 1
5 43 1
5 49 1
5 58 1
5 60 1
5 66 1
5 72 1
5 76 1
5 86 1
5 88 1
5 106 1
5 112 1
5 119 1
5 121 1
5 122 1
5 129 1
5 134 1
5 144 1
5 149 1
5 150 1
5 156 1
5 165 1
5 173 1
5 175 1
5 178 1
5 179 1
5 190 1
5 194 1
5 195 1
5 203 1
5 204 1
5 227 1
5 232 1
5 249 1
5 251 1
5 253 1
5 259 1
5 264 1
5 274 1
5 278 1
5 288 1
5 291 1
5 294 1
5 297 1
5 303 1
5 304 1
5 306 1
5 307 1
5 309 1
5 321 1
5 326 1
5 328 1
5 329 1
5 330 1
5 360 1
5 365 1
5 368 1
5 379 1
5 380 1
5 384 1
5 397 1
5 407 1
5 417 1
5 418 1
5 421 1
5 427 1
5 428 1
5 432 1
5 433 1
5 443 1
5 446 1
5 454 1
5 455 1
5 457 1
5 459 1
5 461 1
5 465 1
5 477 1
5 489 1
5 496 1
5 497 1
5 500 1
5 501 1
5 511 1
5 513 1
5 514 1
5 520 1
5 523 1
5 529 1
5 531 1
5 543 1
5 549 1
5 552 1
5 553 1
5 566 1
5 568 1
5 572 1
5 574 1
5 577 1
5 587 1
5 593 1
5 594 1
6 5 1
6 14 1
6 15 1
6 18 1
6 30 1
6 32 1
6 38 1
6 49 1
6 53 1
6 54 1
6 61 1
6 72 1
6 73 1
6 82 1
6 83 1
6 84 1
6 86 1
6 97 1
6 101 1
6 102 1
6 104 1
6 106 1
6 115 1
6 118 1
6 127 1
6 134 1
6 139 1
6 140 1
6 146 1
6 152 1
6 155 1
6 157 1
6 158 1
6 161 1
6 186 1
6 194 1
6 196 1
6 204 1
6 210 1
6 217 1
6 218 1
6 219 1
6 228 1
6 229 1
6 230 1
6 239 1
6 243 1
6 250 1
6 258 1
6 264 1
6 268 1
6 269 1
6 275 1
6 277 1
6 286 1
6 287 1
6 291 1
6 300 1
6 302 1
6 303 1
6 307 1
6 309 1
6 311 1
6 313 1
6 331 1
6 339 1
6 341 1
6 350 1
6 352 1
6 353 1
6 359 1
6 362 1
6 363 1
6 366 1
6 370 1
6 373 1
6 378 1
6 382 1
6 388 1
6 398 1
6 399 1
6 403 1
6 409 1
6 413 1
6 415 1
6 418 1
6 419 1
6 421 1
6 426 1
6 430 1
6 433 1
6 436 1
6 437 1
6 439 1
6 440 1
6 442 1
6 445 1
6 448 1
6 453 1
6 455 1
6 459 1
6 460 1
6 461 1
6 463 1
6 465 1
6 467 1
6 476 1
6 480 1
6 488 1
6 507 1
6 512 1
6 514 1
6 516 1
6 525 1
6 526 1
6 528 1
6 533 1
6 534 1
6 536 1
6 538 1
6 541 1
6 542 1
6 553 1
6 566 1
6 577 1
6 581 1
6 582 1
6 600 1
7 3 1
7 16 1
7 17 1
7 21 1
7 32 1
7 40 1
7 43 1
7 52 1
7 53 1
7 54 1
7 61 1
7 66 1
7 67 1
7 74 1
7 76 1
7 78 1
7 90 1
7 94 1
7 96 1
7 98 1
7 100 1
7 104 1
7 108 1
7 116 1
7 125 1
7 126 1
7 130 1
7 133 1
7 136 1
7 138 1
7 148 1
7 150 1
7 152 1
7 153 1
7 157 1
7 161 1
7 162 1
7 164 1
7 165 1
7 166 1
7 171 1
7 174 1
7 190 1
7 199 1
7 200 1
7 203 1
7 204 1
7 210 1
7 212 1
7 213 1
7 215 1
7 222 1
7 223 1
7 224 1
7 225 1
7 229 1
7 232 1
7 234 1
7 238 1
7 240 1
7 252 1
7 266 1
7 271 1
7 274 1
7 275 1
7 280 1
7 289 1
7 291 1
7 293 1
7 299 1
7 311 1
7 317 1
7 318 1
7 323 1
7 324 1
7 325 1
7 329 1
7 330 1
7 333 1
7 344 1
7 348 1
7 349 1
7 350 1
7 369 1
7 381 1
7 383 1
7 385 1
7 386 1
7 390 1
7 391 1
7 401 1
7 412 1
7 415 1
7 418 1
7 425 1
7 426 1
7 430 1
7 443 1
7 448 1
7 455 1
7 464 1
7 467 1
7 469 1
7 473 1
7 479 1
7 483 1
7 486 1
7 487 1
7 496 1
7 511 1
7 519 1
7 520 1
7 523 1
7 526 1
7 528 1
7 536 1
7 541 1
7 545 1
7 546 1
7 547 1
7 556 1
7 565 1
7 573 1
7 576 1
7 583 1
7 589 1
7 591 1
7 598 1
8 3 1
8 23 1
8 34 1
8 35 1
8 38 1
8 39 1
8 41 1
8 42 1
8 43 1
8 55 1
8 59 1
8 63 1
8 85 1
8 95 1
8 100 1
8 101 1
8 108 1
8 111 1
8 116 1
8 123 1
8 126 1
8 143 1
8 156 1
8 165 1
8 167 1
8 173 1
8 174 1
8 187 1
8 188 1
8 193 1
8 194 1
8 196 1
8 202 1
8 205 1
8 214 1
8 222 1
8 231 1
8 232 1
8 233 1
8 238 1
8 239 1
8 244 1
8 254 1
8 256 1
8 258 1
8 264 1
8 265 1
8 268 1
8 271 1
8 275 1
8 292 1
8 303 1
8 316 1
8 318 1
8 319 1
8 322 1
8 341 1
8 342 1
8 346 1
8 349 1
8 354 1
8 366 1
8 367 1
8 372 1
8 374 1
8 375 1
8 378 1
8 381 1
8 382 1
8 385 1
8 386 1
8 392 1
8 393 1
8 394 1
8 395 1
8 409 1
8 413 1
8 435 1
8 436 1
8 437 1
8 441 1
8 454 1
8 469 1
8 471 1
8 474 1
8 475 1
8 479 1
8 480 1
8 488 1
8 489 1
8 494 1
8 508 1
8 509 1
8 521 1
8 523 1
8 527 1
8 529 1
8 530 1
8 534 1
8 545 1
8 546 1
8 547 1
8 549 1
8 554 1
8 555 1
8 557 1
8 572 1
8 576 1
8 579 1
8 581 1
8 584 1
8 587 1
8 597 1
8 600 1
9 2 1
9 16 1
9 23 1
9 27 1
9 52 1
9 53 1
9 60 1
9 61 1
9 66 1
9 68 1
9 70 1
9 85 1
9 86 1
9 89 1
9 91 1
9 94 1
9 96 1
9 102 1
9 125 1
9 128 1
9 132 1
9 142 1
9 143 1
9 145 1
9 146 1
9 148 1
9 151 1
9 157 1
9 158 1
9 163 1
9 164 1
9 166 1
9 168 1
9 169 1
9 171 1
9 174 1
9 182 1
9 183 1
9 184 1
9 186 1
9 203 1
9 208 1
9 209 1
9 231 1
9 236 1
9 237 1
9 240 1
9 244 1
9 276 1
9 279 1
9 281 1
9 282 1
9 287 1
9 288 1
9 296 1
9 300 1
9 301 1
9 302 1
9 308 1
9 312 1
9 315 1
9 317 1
9 318 1
9 319 1
9 322 1
9 323 1
9 334 1
9 339 1
9 345 1
9 348 1
9 350 1
9 353 1
9 357 1
9 358 1
9 359 1
9 360 1
9 362 1
9 369 1
9 370 1
9 371 1
9 380 1
9 381 1
9 387 1
9 389 1
9 394 1
9 396 1
9 400 1
9 409 1
9 412 1
9 413 1
9 421 1
9 429 1
9 435 1
9 436 1
9 438 1
9 439 1
9 440 1
9 446 1
9 456 1
9 459 1
9 463 1
9 467 1
9 481 1
9 484 1
9 491 1
9 492 1
9 504 1
9 505 1
9 506 1
9 512 1
9 515 1
9 516 1
9 539 1
9 540 1
9 544 1
9 548 1
9 550 1
9 559 1
9 560 1
9 575 1
9 577 1
9 581 1
9 591 1
9 595 1
10 1 1
10 4 1
10 13 1
10 18 1
10 25 1
10 26 1
10 29 1
10 33 1
10 41 1
10 42 1
10 47 1
10 48 1
10 52 1
10 59 1
10 60 1
10 76 1
10 78 1
10 79 1
10 92 1
10 93 1
10 99 1
10 103 1
10 134 1
10 135 1
10 136 1
10 137 1
10 140 1
10 143 1
10 144 1
10 150 1
10 159 1
10 175 1
10 179 1
10 185 1
10 188 1
10 189 1
10 192 1
10 197 1
10 213 1
10 214 1
10 219 1
10 222 1
10 228 1
10 231 1
10 235 1
10 253 1
10 255 1
10 261 1
10 267 1
10 270 1
10 271 1
10 276 1
10 277 1
10 280 1
10 282 1
10 293 1
10 300 1
10 301 1
10 314 1
10 321 1
10 326 1
10 329 1
10 331 1
10 337 1
10 349 1
10 360 1
10 361 1
10 372 1
10 379 1
10 389 1
10 405 1
10 409 1
10 416 1
10 422 1
10 423 1
10 424 1
10 427 1
10 433 1
10 437 1
10 440 1
10 444 1
10 452 1
10 453 1
10 455 1
10 459 1
10 467 1
10 478 1
10 480 1
10 492 1
10 495 1
10 496 1
10 501 1
10 505 1
10 512 1
10 515 1
10 521 1
10 530 1
10 536 1
10 537 1
10 550 1
10 551 1
10 557 1
10 579 1
10 585 1
10 594 1
11 17 1
11 19 1
11 25 1
11 28 1
11 38 1
11 39 1
11 43 1
11 55 1
11 56 1
11 60 1
11 73 1
11 77 1
11 80 1
11 83 1
11 84 1
11 96 1
11 108 1
11 112 1
11 115 1
11 126 1
11 127 1
11 128 1
11 134 1
11 146 1
11 150 1
11 155 1
11 156 1
11 162 1
11 164 1
11 171 1
11 177 1
11 182 1
11 192 1
11 211 1
11 222 1
11 240 1
11 247 1
11 263 1
11 264 1
11 267 1
11 271 1
11 277 1
11 280 1
11 282 1
11 283 1
11 287 1
11 290 1
11 302 1
11 303 1
11 304 1
11 305 1
11 311 1
11 316 1
11 318 1
11 320 1
11 322 1
11 324 1
11 329 1
11 331 1
11 332 1
11 334 1
11 348 1
11 352 1
11 359 1
11 364 1
11 365 1
11 375 1
11 379 1
11 383 1
11 389 1
11 393 1
11 398 1
11 404 1
11 409 1
11 411 1
11 422 1
11 424 1
11 434 1
11 441 1
11 442 1
11 443 1
11 444 1
11 448 1
11 453 1
11 454 1
11 456 1
11 463 1
11 474 1
11 476 1
11 488 1
11 489 1
11 506 1
11 511 1
11 518 1
11 524 1
11 527 1
11 530 1
11 543 1
11 552 1
11 559 1
11 566 1
11 569 1
11 571 1
11 574 1
11 575 1
11 589 1
11 590 1
11 598 1
11 600 1
12 14 1
12 22 1
12 23 1
12 24 1
12 28 1
12 36 1
12 37 1
12 38 1
12 39 1
12 43 1
12 46 1
12 47 1
12 54 1
12 58 1
12 59 1
12 60 1
12 65 1
12 68 1
12 70 1
12 78 1
12 85 1
12 92 1
12 103 1
12 110 1
12 114 1
12 119 1
12 124 1
12 126 1
12 127 1
12 139 1
12 140 1
12 142 1
12 143 1
12 151 1
12 159 1
12 178 1
12 180 1
12 184 1
12 190 1
12 197 1
12 198 1
12 201 1
12 203 1
12 204 1
12 211 1
12 212 1
12 216 1
12 223 1
12 226 1
12 242 1
12 263 1
12 264 1
12 269 1
12 282 1
12 287 1
12 289 1
12 295 1
12 302 1
12 307 1
12 311 1
12 326 1
12 333 1
12 336 1
12 337 1
12 342 1
12 347 1
12 354 1
12 357 1
12 359 1
12 360 1
12 362 1
12 365 1
12 379 1
12 392 1
12 394 1
12 397 1
12 399 1
12 402 1
12 406 1
12 410 1
12 413 1
12 415 1
12 424 1
12 426 1
12 428 1
12 434 1
12 453 1
12 479 1
12 486 1
12 490 1
12 491 1
12 497 1
12 500 1
12 506 1
12 513 1
12 514 1
12 515 1
12 523 1
12 530 1
12 532 1
12 534 1
12 541 1
12 549 1
12 557 1
12 562 1
12 563 1
12 575 1
12 593 1
12 594 1
12 596 1
12 597 1
12 598 1
13 4 1
13 10 1
13 15 1
13 20 1
13 25 1
13 30 1
13 35 1
13 39 1
13 45 1
13 48 1
13 51 1
13 52 1
13 54 1
13 55 1
13 61 1
13 70 1
13 76 1
13 91 1
13 98 1
13 101 1
13 102 1
13 104 1
13 111 1
13 114 1
13 117 1
13 125 1
13 126 1
13 135 1
13 137 1
13 140 1
13 154 1
13 156 1
13 164 1
13 168 1
13 170 1
13 172 1
13 176 1
13 179 1
13 183 1
13 185 1
13 190 1
13 196 1
13 198 1
13 200 1
13 232 1
13 237 1
13 238 1
13 245 1
13 248 1
13 252 1
13 261 1
13 268 1
13 279 1
13 281 1
13 282 1
13 284 1
13 288 1
13 293 1
13 294 1
13 296 1
13 301 1
13 305 1
13 308 1
13 322 1
13 323 1
13 327 1
13 345 1
13 350 1
13 352 1
13 353 1
13 357 1
13 360 1
13 375 1
13 383 1
13 385 1
13 389 1
13 404 1
13 412 1
13 413 1
13 414 1
13 415 1
13 417 1
13 420 1
13 426 1
13 427 1
13 429 1
13 431 1
13 439 1
13 444 1
13 465 1
13 467 1
13 468 1
13 469 1
13 472 1
13 475 1
13 505 1
13 507 1
13 508 1
13 517 1
13 519 1
13 524 1
13 531 1
13 552 1
13 556 1
13 557 1
13 563 1
13 570 1
13 573 1
13 582 1
13 585 1
13 586 1
13 597 1
13 598 1
13 599 1
14 3 1
14 6 1
14 12 1
14 21 1
14 23 1
14 37 1
14 38 1
14 46 1
14 55 1
14 65 1
14 79 1
14 83 1
14 90 1
14 96 1
14 98 1
14 106 1
14 107 1
14 113 1
14 122 1
14 136 1
14 137 1
14 142 1
14 156 1
14 159 1
14 165 1
14 166 1
14 175 1
14 178 1
14 194 1
14 205 1
14 208 1
14 213 1
14 214 1
14 218 1
14 219 1
14 221 1
14 224 1
14 226 1
14 231 1
14 238 1
14 240 1
14 244 1
14 246 1
14 249 1
14 250 1
14 256 1
14 261 1
14 263 1
14 265 1
14 271 1
14 282 1
14 286 1
14 297 1
14 298 1
14 299 1
14 300 1
14 301 1
14 304 1
14 309 1
14 312 1
14 314 1
14 316 1
14 318 1
14 324 1
14 333 1
14 335 1
14 337 1
14 356 1
14 364 1
14 366 1
14 368 1
14 377 1
14 384 1
14 388 1
14 396 1
14 403 1
14 407 1
14 409 1
14 411 1
14 423 1
14 424 1
14 428 1
14 444 1
14 449 1
14 453 1
14 459 1
14 464 1
14 468 1
14 470 1
14 476 1
14 479 1
14 490 1
14 492 1
14 497 1
14 507 1
14 524 1
14 531 1
14 538 1
14 539 1
14 556 1
14 561 1
14 567 1
14 576 1
14 582 1
14 587 1
14 591 1
14 594 1
14 600 1
15 6 1
15 13 1
15 18 1
15 26 1
15 33 1
15 36 1
15 48 1
15 51 1
15 60 1
15 67 1
15 70 1
15 73 1
15 89 1
15 92 1
15 96 1
15 97 1
15 98 1
15 104 1
15 128 1
15 133 1
15 144 1
15 148 1
15 157 1
15 158 1
15 163 1
15 172 1
15 174 1
15 195 1
15 197 1
15 198 1
15 199 1
15 202 1
15 203 1
15 206 1
15 210 1
15 212 1
15 215 1
15 221 1
15 222 1
15 228 1
15 234 1
15 235 1
15 241 1
15 242 1
15 244 1
15 246 1
15 250 1
15 251 1
15 259 1
15 260 1
15 261 1
15 262 1
15 265 1
15 269 1
15 270 1
15 273 1
15 280 1
15 285 1
15 286 1
15 288 1
15 290 1
15 294 1
15 297 1
15 299 1
15 301 1
15 305 1
15 308 1
15 309 1
15 317 1
15 322 1
15 323 1
15 327 1
15 337 1
15 339 1
15 344 1
15 364 1
15 368 1
15 369 1
15 371 1
15 372 1
15 381 1
15 386 1
15 388 1
15 389 1
15 398 1
15 401 1
15 405 1
15 406 1
15 408 1
15 421 1
15 425 1
15 429 1
15 440 1
15 441 1
15 443 1
15 447 1
15 449 1
15 453 1
15 461 1
15 465 1
15 468 1
15 475 1
15 483 1
15 485 1
15 489 1
15 500 1
15 503 1
15 508 1
15 513 1
15 514 1
15 516 1
15 517 1
15 520 1
15 523 1
15 524 1
15 527 1
15 528 1
15 529 1
15 530 1
15 543 1
15 549 1
15 553 1
15 554 1
15 561 1
15 566 1
15 570 1
15 574 1
15 585 1
15 590 1
15 592 1
15 600 1
16 3 1
16 4 1
16 5 1
16 7 1
16 9 1
16 22 1
16 33 1
16 51 1
16 57 1
16 60 1
16 75 1
16 79 1
16 80 1
16 82 1
16 86 1
16 97 1
16 102 1
16 103 1
16 107 1
16 111 1
16 113 1
16 115 1
16 119 1
16 131 1
16 132 1
16 133 1
16 145 1
16 148 1
16 152 1
16 164 1
16 166 1
16 167 1
16 170 1
16 177 1
16 188 1
16 190 1
16 192 1
16 199 1
16 202 1
16 203 1
16 205 1
16 207 1
16 208 1
16 210 1
16 212 1
16 215 1
16 216 1
16 218 1
16 220 1
16 226 1
16 228 1
16 230 1
16 231 1
16 247 1
16 251 1
16 257 1
16 267 1
16 283 1
16 284 1
16 291 1
16 312 1
16 329 1
16 338 1
16 339 1
16 347 1
16 350 1
16 361 1
16 363 1
16 373 1
16 381 1
16 382 1
16 387 1
16 390 1
16 392 1
16 402 1
16 410 1
16 415 1
16 423 1
16 424 1
16 432 1
16 437 1
16 450 1
16 458 1
16 463 1
16 467 1
16 470 1
16 476 1
16 483 1
16 485 1
16 489 1
16 493 1
16 502 1
16 517 1
16 520 1
16 529 1
16 530 1
16 538 1
16 539 1
16 540 1
16 542 1
16 548 1
16 554 1
16 556 1
16 562 1
16 567 1
16 569 1
16 571 1
16 586 1
16 589 1
16 595 1
17 7 1
17 11 1
17 31 1
17 38 1
17 39 1
17 42 1
17 43 1
17 50 1
17 56 1
17 59 1
17 75 1
17 78 1
17 92 1
17 99 1
17 100 1
17 108 1
17 116 1
17 118 1
17 124 1
17 139 1
17 140 1
17 141 1
17 145 1
17 151 1
17 160 1
17 161 1
17 175 1
17 185 1
17 188 1
17 190 1
17 196 1
17 201 1
17 206 1
17 209 1
17 216 1
17 223 1
17 232 1
17 235 1
17 240 1
17 243 1
17 253 1
17 261 1
17 273 1
17 278 1
17 284 1
17 287 1
17 292 1
17 294 1
17 296 1
17 297 1
17 298 1
17 304 1
17 305 1
17 311 1
17 313 1
17 314 1
17 317 1
17 322 1
17 323 1
17 326 1
17 328 1
17 330 1
17 354 1
17 355 1
17 359 1
17 361 1
17 365 1
17 367 1
17 369 1
17 374 1
17 387 1
17 393 1
17 395 1
17 396 1
17 398 1
17 401 1
17 406 1
17 408 1
17 415 1
17 418 1
17 421 1
17 425 1
17 429 1
17 433 1
17 436 1
17 451 1
17 456 1
17 457 1
17 464 1
17 465 1
17 475 1
17 480 1
17 486 1
17 489 1
17 490 1
17 493 1
17 500 1
17 504 1
17 511 1
17 519 1
17 521 1
17 537 1
17 539 1
17 540 1
17 542 1
17 543 1
17 552 1
17 555 1
17 559 1
17 568 1
17 582 1
17 592 1
17 599 1
18 2 1
18 6 1
18 10 1
18 15 1
18 20 1
18 22 1
18 27 1
18 29 1
18 34 1
18 50 1
18 52 1
18 53 1
18 57 1
18 59 1
18 65 1
18 73 1
18 75 1
18 76 1
18 96 1
18 111 1
18 123 1
18 126 1
18 131 1
18 133 1
18 138 1
18 145 1
18 146 1
18 147 1
18 156 1
18 165 1
18 174 1
18 180 1
18 182 1
18 188 1
18 191 1
18 194 1
18 202 1
18 207 1
18 209 1
18 213 1
18 215 1
18 218 1
18 219 1
18 225 1
18 234 1
18 236 1
18 243 1
18 247 1
18 249 1
18 251 1
18 252 1
18 253 1
18 255 1
18 256 1
18 257 1
18 261 1
18 263 1
18 265 1
18 270 1
18 281 1
18 282 1
18 284 1
18 285 1
18 293 1
18 294 1
18 296 1
18 297 1
18 315 1
18 316 1
18 318 1
18 327 1
18 329 1
18 335 1
18 339 1
18 341 1
18 345 1
18 352 1
18 355 1
18 362 1
18 366 1
18 369 1
18 374 1
18 378 1
18 388 1
18 391 1
18 396 1
18 401 1
18 402 1
18 403 1
18 406 1
18 411 1
18 424 1
18 428 1
18 435 1
18 437 1
18 444 1
18 448 1
18 449 1
18 451 1
18 455 1
18 461 1
18 466 1
18 469 1
18 472 1
18 491 1
18 494 1
18 498 1
18 499 1
18 500 1
18 502 1
18 508 1
18 510 1
18 520 1
18 535 1
18 537 1
18 538 1
18 559 1
18 569 1
18 575 1
18 579 1
18 581 1
18 589 1
19 11 1
19 23 1
19 31 1
19 39 1
19 48 1
19 55 1
19 57 1
19 68 1
19 80 1
19 94 1
19 99 1
19 100 1
19 105 1
19 109 1
19 113 1
19 118 1
19 120 1
19 134 1
19 135 1
19 138 1
19 141 1
19 157 1
19 161 1
19 164 1
19 168 1
19 170 1
19 171 1
19 187 1
19 188 1
19 198 1
19 199 1
19 204 1
19 219 1
19 225 1
19 245 1
19 246 1
19 250 1
19 255 1
19 260 1
19 263 1
19 264 1
19 265 1
19 275 1
19 280 1
19 301 1
19 303 1
19 305 1
19 316 1
19 318 1
19 326 1
19 331 1
19 333 1
19 335 1
19 337 1
19 343 1
19 352 1
19 356 1
19 360 1
19 366 1
19 378 1
19 382 1
19 383 1
19 386 1
19 405 1
19 420 1
19 421 1
19 425 1
19 429 1
19 430 1
19 431 1
19 435 1
19 440 1
19 441 1
19 443 1
19 445 1
19 446 1
19 448 1
19 450 1
19 461 1
19 466 1
19 469 1
19 472 1
19 473 1
19 487 1
19 495 1
19 504 1
19 505 1
19 512 1
19 517 1
19 519 1
19 520 1
19 524 1
19 535 1
19 539 1
19 541 1
19 542 1
19 548 1
19 551 1
19 552 1
19 557 1
19 559 1
19 560 1
19 563 1
19 566 1
19 570 1
19 571 1
19 578 1
19 579 1
19 584 1
19 588 1
19 596 1
20 2 1
20 3 1
20 13 1
20 18 1
20 22 1
20 30 1
20 33 1
20 35 1
20 37 1
20 38 1
20 40 1
20 58 1
20 73 1
20 74 1
20 77 1
20 89 1
20 90 1
20 102 1
20 105 1
20 107 1
20 109 1
20 115 1
20 116 1
20 118 1
20 119 1
20 120 1
20 129 1
20 136 1
20 137 1
20 141 1
20 143 1
20 153 1
20 159 1
20 166 1
20 172 1
20 177 1
20 189 1
20 190 1
20 191 1
20 193 1
20 194 1
20 198 1
20 202 1
20 208 1
20 212 1
20 216 1
20 218 1
20 219 1
20 222 1
20 229 1
20 231 1
20 233 1
20 234 1
20 235 1
20 240 1
20 241 1
20 248 1
20 265 1
20 266 1
20 268 1
20 278 1
20 281 1
20 283 1
20 307 1
20 310 1
20 315 1
20 316 1
20 317 1
20 323 1
20 337 1
20 347 1
20 349 1
20 367 1
20 368 1
20 369 1
20 371 1
20 373 1
20 378 1
20 384 1
20 394 1
20 403 1
20 409 1
20 413 1
20 420 1
20 426 1
20 439 1
20 442 1
20 456 1
20 458 1
20 462 1
20 463 1
20 469 1
20 472 1
20 474 1
20 478 1
20 481 1
20 483 1
20 490 1
20 493 1
20 496 1
20 507 1
20 508 1
20 510 1
20 520 1
20 521 1
20 524 1
20 533 1
20 534 1
20 536 1
20 544 1
20 546 1
20 560 1
20 572 1
20 582 1
20 584 1
20 585 1
20 586 1
20 589 1
20 597 1
20 598 1
20 599 1
20 600 1
21 7 1
21 14 1
21 24 1
21 27 1
21 40 1
21 43 1
21 58 1
21 60 1
21 64 1
21 66 1
21 69 1
21 71 1
21 72 1
21 74 1
21 75 1
21 79 1
21 82 1
21 89 1
21 93 1
21 97 1
21 99 1
21 101 1
21 103 1
21 107 1
21 119 1
21 121 1
21 122 1
21 123 1
21 143 1
21 144 1
21 148 1
21 154 1
21 159 1
21 166 1
21 176 1
21 184 1
21 192 1
21 195 1
21 196 1
21 205 1
21 211 1
21 215 1
21 216 1
21 223 1
21 224 1
21 227 1
21 236 1
21 238 1
21 244 1
21 251 1
21 253 1
21 255 1
21 269 1
21 274 1
21 282 1
21 291 1
21 293 1
21 297 1
21 302 1
21 311 1
21 323 1
21 329 1
21 339 1
21 354 1
21 358 1
21 360 1
21 362 1
21 363 1
21 367 1
21 378 1
21 392 1
21 394 1
21 396 1
21 397 1
21 401 1
21 402 1
21 407 1
21 408 1
21 417 1
21 426 1
21 436 1
21 443 1
21 451 1
21 456 1
21 459 1
21 465 1
21 466 1
21 467 1
21 469 1
21 471 1
21 474 1
21 476 1
21 477 1
21 483 1
21 485 1
21 489 1
21 508 1
21 511 1
21 514 1
21 530 1
21 538 1
21 539 1
21 553 1
21 557 1
21 558 1
21 560 1
21 561 1
21 567 1
21 573 1
21 574 1
21 580 1
21 583 1
21 587 1
21 595 1
22 2 1
22 12 1
22 16 1
22 18 1
22 20 1
22 23 1
22 30 1
22 34 1
22 40 1
22 43 1
22 53 1
22 58 1
22 67 1
22 69 1
22 80 1
22 82 1
22 93 1
22 97 1
22 102 1
22 108 1
22 114 1
22 123 1
22 125 1
22 126 1
22 129 1
22 134 1
22 135 1
22 136 1
22 145 1
22 148 1
22 151 1
22 154 1
22 158 1
22 159 1
22 164 1
22 165 1
22 170 1
22 173 1
22 175 1
22 178 1
22 182 1
22 184 1
22 193 1
22 198 1
22 202 1
22 207 1
22 214 1
22 218 1
22 219 1
22 223 1
22 232 1
22 233 1
22 238 1
22 244 1
22 246 1
22 248 1
22 249 1
22 253 1
22 258 1
22 264 1
22 271 1
22 272 1
22 276 1
22 289 1
22 292 1
22 297 1
22 299 1
22 301 1
22 304 1
22 307 1
22 308 1
22 310 1
22 311 1
22 328 1
22 333 1
22 335 1
22 342 1
22 347 1
22 363 1
22 367 1
22 368 1
22 369 1
22 371 1
22 372 1
22 376 1
22 377 1
22 378 1
22 381 1
22 398 1
22 401 1
22 402 1
22 413 1
22 415 1
22 424 1
22 432 1
22 433 1
22 447 1
22 453 1
22 476 1
22 479 1
22 481 1
22 482 1
22 483 1
22 490 1
22 491 1
22 497 1
22 507 1
22 511 1
22 517 1
22 534 1
22 535 1
22 536 1
22 537 1
22 551 1
22 574 1
22 579 1
23 2 1
23 3 1
23 4 1
23 8 1
23 9 1
23 12 1
23 14 1
23 19 1
23 22 1
23 25 1
23 31 1
23 34 1
23 38 1
23 45 1
23 55 1
23 58 1
23 61 1
23 65 1
23 76 1
23 80 1
23 81 1
23 105 1
23 108 1
23 111 1
23 114 1
23 116 1
23 127 1
23 135 1
23 136 1
23 143 1
23 145 1
23 146 1
23 147 1
23 148 1
23 152 1
23 159 1
23 168 1
23 173 1
23 178 1
23 193 1
23 195 1
23 201 1
23 205 1
23 206 1
23 208 1
23 215 1
23 220 1
23 230 1
23 235 1
23 239 1
23 242 1
23 245 1
23 256 1
23 262 1
23 271 1
23 272 1
23 279 1
23 281 1
23 285 1
23 292 1
23 294 1
23 300 1
23 302 1
23 306 1
23 309 1
23 317 1
23 319 1
23 325 1
23 327 1
23 330 1
23 343 1
23 344 1
23 360 1
23 363 1
23 369 1
23 373 1
23 374 1
23 376 1
23 381 1
23 387 1
23 402 1
23 407 1
23 413 1
23 414 1
23 415 1
23 417 1
23 426 1
23 433 1
23 434 1
23 441 1
23 443 1
23 447 1
23 450 1
23 452 1
23 456 1
23 459 1
23 463 1
23 469 1
23 470 1
23 476 1
23 482 1
23 490 1
23 491 1
23 504 1
23 510 1
23 511 1
23 514 1
23 516 1
23 520 1
23 526 1
23 527 1
23 535 1
23 537 1
23 539 1
23 543 1
23 554 1
23 563 1
23 566 1
23 570 1
23 573 1
23 574 1
23 576 1
23 579 1
23 580 1
23 581 1
23 583 1
23 585 1
23 599 1
24 2 1
24 3 1
24 4 1
24 12 1
24 21 1
24 25 1
24 27 1
24 29 1
24 31 1
24 32 1
24 35 1
24 37 1
24 39 1
24 41 1
24 43 1
24 46 1
24 52 1
24 55 1
24 59 1
24 62 1
24 74 1
24 79 1
24 84 1
24 85 1
24 87 1
24 91 1
24 94 1
24 99 1
24 112 1
24 113 1
24 117 1
24 123 1
24 137 1
24 147 1
24 152 1
24 154 1
24 155 1
24 157 1
24 158 1
24 171 1
24 177 1
24 191 1
24 192 1
24 194 1
24 196 1
24 203 1
24 209 1
24 221 1
24 225 1
24 229 1
24 241 1
24 242 1
24 245 1
24 246 1
24 249 1
24 259 1
24 266 1
24 303 1
24 305 1
24 316 1
24 325 1
24 327 1
24 329 1
24 337 1
24 338 1
24 344 1
24 350 1
24 351 1
24 358 1
24 362 1
24 363 1
24 370 1
24 371 1
24 374 1
24 380 1
24 381 1
24 389 1
24 391 1
24 393 1
24 397 1
24 401 1
24 404 1
24 417 1
24 422 1
24 424 1
24 426 1
24 432 1
24 434 1
24 437 1
24 442 1
24 447 1
24 449 1
24 453 1
24 454 1
24 456 1
24 461 1
24 464 1
24 467 1
24 472 1
24 479 1
24 480 1
24 491 1
24 496 1
24 501 1
24 507 1
24 509 1
24 512 1
24 515 1
24 524 1
24 533 1
24 534 1
24 537 1
24 542 1
24 546 1
24 554 1
24 585 1
24 592 1
24 593 1
24 599 1
25 10 1
25 11 1
25 13 1
25 23 1
25 24 1
25 33 1
25 34 1
25 39 1
25 41 1
25 46 1
25 48 1
25 55 1
25 58 1
25 59 1
25 62 1
25 66 1
25 68 1
25 70 1
25 71 1
25 73 1
25 74 1
25 89 1
25 91 1
25 96 1
25 106 1
25 113 1
25 123 1
25 125 1
25 126 1
25 135 1
25 136 1
25 142 1
25 143 1
25 146 1
25 150 1
25 158 1
25 168 1
25 181 1
25 182 1
25 186 1
25 187 1
25 190 1
25 197 1
25 199 1
25 201 1
25 205 1
25 206 1
25 207 1
25 210 1
25 211 1
25 215 1
25 227 1
25 228 1
25 233 1
25 238 1
25 241 1
25 242 1
25 266 1
25 267 1
25 275 1
25 278 1
25 280 1
25 294 1
25 296 1
25 298 1
25 299 1
25 300 1
25 303 1
25 312 1
25 313 1
25 316 1
25 323 1
25 326 1
25 332 1
25 333 1
25 349 1
25 362 1
25 368 1
25 374 1
25 377 1
25 383 1
25 386 1
25 388 1
25 389 1
25 408 1
25 421 1
25 424 1
25 427 1
25 431 1
25 446 1
25 455 1
25 456 1
25 459 1
25 462 1
25 463 1
25 469 1
25 473 1
25 475 1
25 479 1
25 480 1
25 486 1
25 490 1
25 492 1
25 494 1
25 504 1
25 513 1
25 516 1
25 518 1
25 521 1
25 525 1
25 538 1
25 544 1
25 546 1
25 556 1
25 557 1
25 560 1
25 561 1
25 562 1
25 563 1
25 569 1
25 570 1
25 577 1
25 587 1
25 597 1
25 600 1
26 1 1
26 2 1
26 10 1
26 15 1
26 29 1
26 33 1
26 37 1
26 39 1
26 59 1
26 80 1
26 84 1
26 87 1
26 88 1
26 89 1
26 99 1
26 105 1
26 108 1
26 112 1
26 114 1
26 133 1
26 137 1
26 144 1
26 145 1
26 150 1
26 165 1
26 169 1
26 175 1
26 178 1
26 190 1
26 197 1
26 198 1
26 200 1
26 210 1
26 215 1
26 216 1
26 218 1
26 220 1
26 222 1
26 226 1
26 227 1
26 231 1
26 234 1
26 236 1
26 237 1
26 238 1
26 245 1
26 252 1
26 257 1
26 259 1
26 268 1
26 280 1
26 281 1
26 287 1
26 288 1
26 289 1
26 295 1
26 299 1
26 302 1
26 304 1
26 307 1
26 310 1
26 311 1
26 317 1
26 318 1
26 321 1
26 324 1
26 327 1
26 329 1
26 331 1
26 338 1
26 346 1
26 348 1
26 349 1
26 351 1
26 356 1
26 359 1
26 361 1
26 366 1
26 367 1
26 368 1
26 373 1
26 374 1
26 376 1
26 390 1
26 393 1
26 404 1
26 407 1
26 408 1
26 430 1
26 433 1
26 444 1
26 448 1
26 453 1
26 459 1
26 460 1
26 470 1
26 485 1
26 500 1
26 501 1
26 503 1
26 509 1
26 511 1
26 517 1
26 519 1
26 530 1
26 531 1
26 534 1
26 547 1
26 553 1
26 557 1
26 564 1
26 578 1
26 581 1
26 582 1
26 588 1
26 589 1
26 590 1
26 596 1
26 598 1
26 599 1
27 4 1
27 9 1
27 18 1
27 21 1
27 24 1
27 30 1
27 41 1
27 44 1
27 67 1
27 69 1
27 70 1
27 79 1
27 85 1
27 90 1
27 96 1
27 98 1
27 103 1
27 109 1
27 114 1
27 120 1
27 127 1
27 131 1
27 138 1
27 142 1
27 155 1
27 158 1
27 164 1
27 165 1
27 166 1
27 167 1
27 169 1
27 174 1
27 175 1
27 176 1
27 179 1
27 181 1
27 186 1
27 188 1
27 194 1
27 197 1
27 199 1
27 203 1
27 210 1
27 215 1
27 217 1
27 230 1
27 232 1
27 237 1
27 240 1
27 242 1
27 243 1
27 244 1
27 254 1
27 260 1
27 261 1
27 263 1
27 265 1
27 268 1
27 277 1
27 280 1
27 281 1
27 290 1
27 291 1
27 293 1
27 295 1
27 312 1
27 315 1
27 317 1
27 320 1
27 329 1
27 330 1
27 333 1
27 336 1
27 346 1
27 348 1
27 349 1
27 350 1
27 351 1
27 354 1
27 380 1
27 385 1
27 390 1
27 394 1
27 397 1
27 399 1
27 403 1
27 405 1
27 406 1
27 414 1
27 420 1
27 428 1
27 430 1
27 436 1
27 439 1
27 443 1
27 447 1
27 449 1
27 451 1
27 452 1
27 458 1
27 462 1
27 463 1
27 466 1
27 467 1
27 469 1
27 482 1
27 495 1
27 514 1
27 517 1
27 526 1
27 540 1
27 543 1
27 544 1
27 545 1
27 559 1
27 560 1
27 562 1
27 564 1
27 566 1
27 572 1
27 574 1
27 579 1
27 581 1
27 582 1
27 583 1
27 585 1
27 588 1
27 589 1
27 591 1
27 593 1
27 594 1
27 595 1
27 596 1
28 1 1
28 11 1
28 12 1
28 29 1
28 38 1
28 40 1
28 43 1
28 59 1
28 61 1
28 78 1
28 96 1
28 100 1
28 101 1
28 103 1
28 110 1
28 130 1
28 133 1
28 136 1
28 138 1
28 140 1
28 156 1
28 158 1
28 163 1
28 167 1
28 168 1
28 172 1
28 174 1
28 175 1
28 177 1
28 184 1
28 188 1
28 196 1
28 204 1
28 212 1
28 215 1
28 216 1
28 229 1
28 233 1
28 236 1
28 242 1
28 245 1
28 246 1
28 247 1
28 248 1
28 249 1
28 259 1
28 260 1
28 266 1
28 272 1
28 273 1
28 276 1
28 278 1
28 281 1
28 282 1
28 285 1
28 287 1
28 288 1
28 291 1
28 295 1
28 298 1
28 299 1
28 301 1
28 303 1
28 305 1
28 310 1
28 319 1
28 320 1
28 321 1
28 325 1
28 328 1
28 340 1
28 348 1
28 352 1
28 371 1
28 376 1
28 381 1
28 382 1
28 383 1
28 388 1
28 389 1
28 391 1
28 392 1
28 396 1
28 399 1
28 403 1
28 424 1
28 438 1
28 439 1
28 444 1
28 449 1
28 454 1
28 468 1
28 471 1
28 474 1
28 486 1
28 489 1
28 490 1
28 492 1
28 500 1
28 523 1
28 529 1
28 530 1
28 537 1
28 541 1
28 543 1
28 545 1
28 552 1
28 558 1
28 560 1
28 564 1
28 572 1
28 573 1
28 575 1
28 576 1
28 581 1
28 586 1
28 595 1
28 597 1
28 598 1
29 10 1
29 18 1
29 24 1
29 26 1
29 28 1
29 32 1
29 34 1
29 36 1
29 38 1
29 45 1
29 47 1
29 56 1
29 58 1
29 67 1
29 68 1
29 71 1
29 82 1
29 94 1
29 103 1
29 104 1
29 106 1
29 111 1
29 115 1
29 116 1
29 118 1
29 123 1
29 124 1
29 125 1
29 127 1
29 129 1
29 131 1
29 139 1
29 142 1
29 144 1
29 152 1
29 157 1
29 159 1
29 160 1
29 163 1
29 171 1
29 177 1
29 184 1
29 185 1
29 189 1
29 193 1
29 195 1
29 201 1
29 209 1
29 211 1
29 212 1
29 214 1
29 220 1
29 228 1
29 230 1
29 232 1
29 236 1
29 239 1
29 251 1
29 252 1
29 264 1
29 266 1
29 268 1
29 280 1
29 284 1
29 286 1
29 289 1
29 298 1
29 299 1
29 302 1
29 304 1
29 308 1
29 316 1
29 321 1
29 336 1
29 339 1
29 354 1
29 365 1
29 377 1
29 379 1
29 396 1
29 399 1
29 405 1
29 406 1
29 412 1
29 413 1
29 421 1
29 422 1
29 424 1
29 426 1
29 440 1
29 444 1
29 445 1
29 450 1
29 454 1
29 456 1
29 464 1
29 466 1
29 483 1
29 487 1
29 491 1
29 497 1
29 500 1
29 505 1
29 509 1
29 510 1
29 515 1
29 517 1
29 518 1
29 525 1
29 526 1
29 528 1
29 534 1
29 540 1
29 549 1
29 550 1
29 559 1
29 567 1
29 573 1
29 574 1
29 579 1
29 581 1
29 586 1
29 588 1
29 589 1
30 3 1
30 4 1
30 6 1
30 13 1
30 20 1
30 22 1
30 27 1
30 32 1
30 35 1
30 39 1
30 44 1
30 45 1
30 46 1
30 53 1
30 55 1
30 56 1
30 58 1
30 62 1
30 63 1
30 75 1
30 78 1
30 83 1
30 85 1
30 88 1
30 89 1
30 109 1
30 110 1
30 112 1
30 114 1
30 117 1
30 125 1
30 128 1
30 135 1
30 138 1
30 139 1
30 140 1
30 145 1
30 151 1
30 152 1
30 157 1
30 160 1
30 162 1
30 164 1
30 166 1
30 171 1
30 172 1
30 173 1
30 179 1
30 187 1
30 203 1
30 206 1
30 211 1
30 216 1
30 218 1
30 220 1
30 228 1
30 232 1
30 241 1
30 245 1
30 246 1
30 264 1
30 273 1
30 277 1
30 284 1
30 287 1
30 291 1
30 292 1
30 308 1
30 309 1
30 311 1
30 312 1
30 315 1
30 317 1
30 319 1
30 324 1
30 336 1
30 343 1
30 345 1
30 346 1
30 347 1
30 353 1
30 364 1
30 369 1
30 374 1
30 377 1
30 378 1
30 381 1
30 394 1
30 399 1
30 403 1
30 406 1
30 411 1
30 414 1
30 420 1
30 431 1
30 432 1
30 439 1
30 442 1
30 443 1
30 452 1
30 457 1
30 459 1
30 464 1
30 465 1
30 466 1
30 474 1
30 475 1
30 479 1
30 491 1
30 492 1
30 496 1
30 497 1
30 505 1
30 508 1
30 510 1
30 519 1
30 520 1
30 525 1
30 532 1
30 533 1
30 535 1
30 538 1
30 539 1
30 540 1
30 545 1
30 556 1
30 565 1
30 577 1
30 586 1
30 591 1
30 593 1
30 595 1
31 3 1
31 17 1
31 19 1
31 23 1
31 24 1
31 44 1
31 47 1
31 49 1
31 52 1
31 55 1
31 62 1
31 66 1
31 67 1
31 79 1
31 80 1
31 87 1
31 91 1
31 93 1
31 102 1
31 104 1
31 107 1
31 108 1
31 112 1
31 115 1
31 117 1
31 129 1
31 135 1
31 136 1
31 142 1
31 143 1
31 147 1
31 150 1
31 156 1
31 166 1
31 168 1
31 171 1
31 177 1
31 179 1
31 180 1
31 184 1
31 188 1
31 200 1
31 202 1
31 203 1
31 210 1
31 212 1
31 216 1
31 222 1
31 224 1
31 236 1
31 239 1
31 242 1
31 243 1
31 252 1
31 256 1
31 267 1
31 270 1
31 273 1
31 277 1
31 281 1
31 284 1
31 291 1
31 297 1
31 307 1
31 312 1
31 314 1
31 315 1
31 320 1
31 322 1
31 323 1
31 326 1
31 329 1
31 340 1
31 341 1
31 348 1
31 351 1
31 359 1
31 383 1
31 385 1
31 386 1
31 397 1
31 399 1
31 404 1
31 414 1
31 428 1
31 431 1
31 433 1
31 434 1
31 447 1
31 450 1
31 454 1
31 455 1
31 456 1
31 458 1
31 462 1
31 463 1
31 467 1
31 478 1
31 489 1
31 491 1
31 501 1
31 505 1
31 509 1
31 510 1
31 513 1
31 520 1
31 522 1
31 525 1
31 530 1
31 534 1
31 535 1
31 546 1
31 547 1
31 552 1
31 559 1
31 561 1
31 569 1
31 578 1
31 585 1
31 590 1
31 599 1
32 6 1
32 7 1
32 24 1
32 29 1
32 30 1
32 36 1
32 40 1
32 42 1
32 66 1
32 69 1
32 70 1
32 72 1
32 74 1
32 86 1
32 88 1
32 89 1
32 92 1
32 95 1
32 99 1
32 105 1
32 108 1
32 115 1
32 117 1
32 141 1
32 144 1
32 147 1
32 149 1
32 152 1
32 155 1
32 156 1
32 165 1
32 171 1
32 180 1
32 181 1
32 184 1
32 186 1
32 193 1
32 196 1
32 201 1
32 203 1
32 204 1
32 206 1
32 207 1
32 211 1
32 215 1
32 218 1
32 219 1
32 221 1
32 229 1
32 231 1
32 232 1
32 254 1
32 264 1
32 281 1
32 286 1
32 292 1
32 293 1
32 306 1
32 307 1
32 312 1
32 327 1
32 333 1
32 342 1
32 346 1
32 353 1
32 354 1
32 366 1
32 370 1
32 374 1
32 378 1
32 385 1
32 391 1
32 398 1
32 402 1
32 405 1
32 409 1
32 410 1
32 416 1
32 420 1
32 422 1
32 426 1
32 436 1
32 441 1
32 442 1
32 452 1
32 457 1
32 468 1
32 484 1
32 485 1
32 488 1
32 490 1
32 496 1
32 497 1
32 500 1
32 510 1
32 515 1
32 520 1
32 522 1
32 527 1
32 530 1
32 531 1
32 535 1
32 536 1
32 537 1
32 540 1
32 541 1
32 542 1
32 546 1
32 550 1
32 556 1
32 563 1
32 570 1
32 573 1
32 581 1
32 585 1
32 587 1
32 594 1
32 595 1
32 598 1
33 3 1
33 10 1
33 15 1
33 16 1
33 20 1
33 25 1
33 26 1
33 46 1
33 54 1
33 58 1
33 60 1
33 61 1
33 70 1
33 80 1
33 88 1
33 92 1
33 104 1
33 108 1
33 112 1
33 113 1
33 116 1
33 117 1
33 121 1
33 126 1
33 129 1
33 134 1
33 139 1
33 147 1
33 161 1
33 167 1
33 171 1
33 174 1
33 175 1
33 178 1
33 187 1
33 193 1
33 196 1
33 199 1
33 202 1
33 203 1
33 205 1
33 206 1
33 209 1
33 212 1
33 217 1
33 226 1
33 234 1
33 235 1
33 258 1
33 260 1
33 262 1
33 263 1
33 265 1
33 266 1
33 268 1
33 277 1
33 278 1
33 288 1
33 289 1
33 297 1
33 299 1
33 307 1
33 310 1
33 312 1
33 315 1
33 327 1
33 328 1
33 335 1
33 348 1
33 351 1
33 357 1
33 360 1
33 366 1
33 369 1
33 372 1
33 374 1
33 377 1
33 385 1
33 389 1
33 391 1
33 397 1
33 415 1
33 416 1
33 420 1
33 427 1
33 432 1
33 437 1
33 441 1
33 449 1
33 466 1
33 476 1
33 484 1
33 486 1
33 492 1
33 493 1
33 494 1
33 496 1
33 503 1
33 509 1
33 521 1
33 527 1
33 528 1
33 535 1
33 536 1
33 537 1
33 540 1
33 543 1
33 549 1
33 554 1
33 557 1
33 570 1
33 573 1
33 575 1
33 577 1
33 580 1
33 584 1
33 591 1
33 595 1
33 598 1
33 600 1
34 3 1
34 8 1
34 18 1
34 22 1
34 23 1
34 25 1
34 29 1
34 41 1
34 42 1
34 52 1
34 58 1
34 62 1
34 68 1
34 72 1
34 75 1
34 79 1
34 99 1
34 102 1
34 103 1
34 104 1
34 105 1
34 106 1
34 117 1
34 121 1
34 130 1
34 145 1
34 147 1
34 150 1
34 155 1
34 165 1
34 166 1
34 168 1
34 177 1
34 179 1
34 182 1
34 191 1
34 198 1
34 208 1
34 210 1
34 214 1
34 219 1
34 221 1
34 230 1
34 232 1
34 241 1
34 257 1
34 258 1
34 263 1
34 266 1
34 268 1
34 269 1
34 271 1
34 276 1
34 285 1
34 286 1
34 293 1
34 294 1
34 304 1
34 321 1
34 329 1
34 333 1
34 339 1
34 340 1
34 342 1
34 343 1
34 349 1
34 354 1
34 357 1
34 358 1
34 363 1
34 376 1
34 382 1
34 383 1
34 384 1
34 390 1
34 393 1
34 399 1
34 402 1
34 406 1
34 407 1
34 414 1
34 416 1
34 417 1
34 421 1
34 423 1
34 432 1
34 441 1
34 442 1
34 443 1
34 455 1
34 460 1
34 461 1
34 466 1
34 473 1
34 476 1
34 477 1
34 480 1
34 481 1
34 506 1
34 516 1
34 525 1
34 528 1
34 530 1
34 534 1
34 551 1
34 559 1
34 561 1
34 563 1
34 568 1
34 571 1
34 580 1
34 588 1
34 591 1
34 594 1
34 595 1
34 596 1
34 599 1
34 600 1
35 4 1
35 8 1
35 13 1
35 20 1
35 24 1
35 30 1
35 38 1
35 39 1
35 44 1
35 53 1
35 54 1
35 57 1
35 62 1
35 63 1
35 72 1
35 80 1
35 87 1
35 88 1
35 99 1
35 100 1
35 106 1
35 107 1
35 108 1
35 112 1
35 116 1
35 117 1
35 121 1
35 125 1
35 132 1
35 145 1
35 148 1
35 160 1
35 161 1
35 165 1
35 170 1
35 172 1
35 175 1
35 178 1
35 185 1
35 197 1
35 199 1
35 212 1
35 215 1
35 220 1
35 225 1
35 231 1
35 234 1
35 236 1
35 249 1
35 256 1
35 271 1
35 272 1
35 280 1
35 281 1
35 289 1
35 291 1
35 296 1
35 307 1
35 312 1
35 315 1
35 324 1
35 330 1
35 336 1
35 338 1
35 339 1
35 341 1
35 346 1
35 352 1
35 357 1
35 361 1
35 369 1
35 387 1
35 405 1
35 407 1
35 408 1
35 409 1
35 414 1
35 419 1
35 426 1
35 432 1
35 433 1
35 446 1
35 449 1
35 452 1
35 463 1
35 469 1
35 470 1
35 482 1
35 485 1
35 486 1
35 488 1
35 503 1
35 504 1
35 507 1
35 509 1
35 511 1
35 516 1
35 517 1
35 519 1
35 523 1
35 529 1
35 544 1
35 546 1
35 549 1
35 551 1
35 553 1
35 554 1
35 556 1
35 562 1
35 567 1
35 573 1
35 581 1
35 583 1
35 584 1
35 586 1
35 589 1
35 593 1
35 594 1
36 12 1
36 15 1
36 29 1
36 32 1
36 41 1
36 48 1
36 54 1
36 55 1
36 64 1
36 71 1
36 81 1
36 82 1
36 83 1
36 86 1
36 92 1
36 96 1
36 99 1
36 104 1
36 108 1
36 109 1
36 113 1
36 116 1
36 122 1
36 125 1
36 129 1
36 137 1
36 141 1
36 151 1
36 169 1
36 170 1
36 176 1
36 182 1
36 183 1
36 186 1
36 189 1
36 190 1
36 194 1
36 196 1
36 225 1
36 233 1
36 235 1
36 237 1
36 242 1
36 245 1
36 246 1
36 250 1
36 253 1
36 257 1
36 260 1
36 269 1
36 272 1
36 273 1
36 277 1
36 286 1
36 303 1
36 304 1
36 314 1
36 317 1
36 321 1
36 327 1
36 350 1
36 370 1
36 372 1
36 377 1
36 382 1
36 386 1
36 396 1
36 408 1
36 409 1
36 411 1
36 417 1
36 418 1
36 432 1
36 442 1
36 444 1
36 460 1
36 469 1
36 477 1
36 480 1
36 482 1
36 485 1
36 488 1
36 489 1
36 491 1
36 494 1
36 496 1
36 498 1
36 503 1
36 513 1
36 519 1
36 522 1
36 526 1
36 527 1
36 528 1
36 529 1
36 534 1
36 539 1
36 540 1
36 545 1
36 546 1
36 547 1
36 551 1
36 561 1
36 565 1
36 571 1
36 572 1
36 576 1
36 578 1
36 584 1
36 588 1
36 595 1
37 12 1
37 14 1
37 20 1
37 24 1
37 26 1
37 51 1
37 58 1
37 59 1
37 61 1
37 72 1
37 76 1
37 80 1
37 90 1
37 101 1
37 112 1
37 120 1
37 128 1
37 144 1
37 145 1
37 147 1
37 165 1
37 171 1
37 173 1
37 176 1
37 179 1
37 181 1
37 192 1
37 194 1
37 205 1
37 206 1
37 207 1
37 208 1
37 210 1
37 213 1
37 218 1
37 222 1
37 224 1
37 228 1
37 233 1
37 243 1
37 250 1
37 254 1
37 257 1
37 258 1
37 260 1
37 262 1
37 266 1
37 267 1
37 275 1
37 277 1
37 285 1
37 287 1
37 301 1
37 306 1
37 307 1
37 314 1
37 315 1
37 320 1
37 321 1
37 330 1
37 333 1
37 352 1
37 355 1
37 356 1
37 359 1
37 364 1
37 370 1
37 373 1
37 381 1
37 383 1
37 385 1
37 391 1
37 393 1
37 401 1
37 404 1
37 410 1
37 414 1
37 418 1
37 419 1
37 426 1
37 432 1
37 433 1
37 436 1
37 443 1
37 444 1
37 448 1
37 449 1
37 453 1
37 472 1
37 475 1
37 477 1
37 479 1
37 485 1
37 486 1
37 489 1
37 491 1
37 495 1
37 498 1
37 499 1
37 501 1
37 524 1
37 537 1
37 540 1
37 542 1
37 543 1
37 546 1
37 547 1
37 553 1
37 561 1
37 577 1
37 578 1
37 580 1
37 584 1
37 585 1
37 596 1
38 4 1
38 6 1
38 8 1
38 11 1
38 12 1
38 14 1
38 17 1
38 20 1
38 23 1
38 28 1
38 29 1
38 35 1
38 43 1
38 45 1
38 53 1
38 55 1
38 58 1
38 60 1
38 64 1
38 66 1
38 68 1
38 70 1
38 81 1
38 95 1
38 103 1
38 104 1
38 110 1
38 115 1
38 119 1
38 121 1
38 122 1
38 128 1
38 129 1
38 133 1
38 139 1
38 142 1
38 144 1
38 147 1
38 156 1
38 159 1
38 165 1
38 166 1
38 167 1
38 168 1
38 174 1
38 178 1
38 180 1
38 187 1
38 192 1
38 193 1
38 202 1
38 224 1
38 234 1
38 237 1
38 248 1
38 253 1
38 265 1
38 268 1
38 269 1
38 270 1
38 277 1
38 284 1
38 286 1
38 293 1
38 295 1
38 299 1
38 302 1
38 305 1
38 307 1
38 309 1
38 318 1
38 319 1
38 320 1
38 348 1
38 359 1
38 361 1
38 364 1
38 369 1
38 379 1
38 382 1
38 383 1
38 388 1
38 389 1
38 391 1
38 392 1
38 397 1
38 402 1
38 411 1
38 415 1
38 419 1
38 432 1
38 436 1
38 442 1
38 443 1
38 446 1
38 460 1
38 461 1
38 463 1
38 465 1
38 469 1
38 475 1
38 478 1
38 482 1
38 483 1
38 506 1
38 515 1
38 517 1
38 525 1
38 537 1
38 540 1
38 544 1
38 545 1
38 547 1
38 549 1
38 550 1
38 552 1
38 553 1
38 558 1
38 560 1
38 561 1
38 562 1
38 572 1
38 573 1
38 576 1
38 581 1
38 582 1
38 583 1
38 585 1
38 591 1
38 594 1
38 595 1
39 4 1
39 8 1
39 11 1
39 12 1
39 13 1
39 17 1
39 19 1
39 24 1
39 25 1
39 26 1
39 30 1
39 35 1
39 45 1
39 47 1
39 49 1
39 50 1
39 53 1
39 67 1
39 70 1
39 73 1
39 74 1
39 78 1
39 82 1
39 85 1
39 87 1
39 93 1
39 101 1
39 102 1
39 103 1
39 107 1
39 127 1
39 128 1
39 135 1
39 138 1
39 143 1
39 145 1
39 159 1
39 168 1
39 171 1
39 176 1
39 182 1
39 184 1
39 191 1
39 203 1
39 208 1
39 215 1
39 216 1
39 217 1
39 218 1
39 223 1
39 225 1
39 233 1
39 237 1
39 248 1
39 250 1
39 253 1
39 256 1
39 262 1
39 264 1
39 283 1
39 287 1
39 291 1
39 299 1
39 302 1
39 309 1
39 310 1
39 315 1
39 316 1
39 318 1
39 320 1
39 324 1
39 325 1
39 327 1
39 328 1
39 333 1
39 340 1
39 341 1
39 342 1
39 347 1
39 351 1
39 355 1
39 362 1
39 363 1
39 370 1
39 381 1
39 389 1
39 396 1
39 397 1
39 399 1
39 402 1
39 405 1
39 414 1
39 418 1
39 420 1
39 423 1
39 428 1
39 434 1
39 436 1
39 439 1
39 441 1
39 449 1
39 457 1
39 463 1
39 470 1
39 480 1
39 482 1
39 490 1
39 491 1
39 495 1
39 496 1
39 498 1
39 499 1
39 503 1
39 505 1
39 511 1
39 512 1
39 522 1
39 524 1
39 525 1
39 526 1
39 528 1
39 536 1
39 542 1
39 543 1
39 545 1
39 551 1
39 554 1
39 564 1
39 567 1
39 568 1
39 571 1
39 573 1
39 581 1
39 586 1
39 588 1
39 594 1
39 596 1
39 599 1
39 600 1
40 7 1
40 20 1
40 21 1
40 22 1
40 28 1
40 32 1
40 49 1
40 52 1
40 56 1
40 60 1
40 62 1
40 63 1
40 67 1
40 70 1
40 76 1
40 79 1
40 80 1
40 86 1
40 91 1
40 104 1
40 115 1
40 117 1
40 120 1
40 121 1
40 124 1
40 125 1
40 126 1
40 144 1
40 146 1
40 148 1
40 150 1
40 162 1
40 166 1
40 173 1
40 176 1
40 183 1
40 187 1
40 189 1
40 194 1
40 196 1
40 199 1
40 201 1
40 205 1
40 207 1
40 209 1
40 210 1
40 215 1
40 217 1
40 230 1
40 235 1
40 238 1
40 243 1
40 250 1
40 265 1
40 276 1
40 279 1
40 284 1
40 297 1
40 298 1
40 302 1
40 303 1
40 307 1
40 309 1
40 310 1
40 317 1
40 323 1
40 325 1
40 329 1
40 332 1
40 335 1
40 343 1
40 351 1
40 362 1
40 364 1
40 365 1
40 376 1
40 380 1
40 384 1
40 394 1
40 399 1
40 400 1
40 401 1
40 407 1
40 411 1
40 412 1
40 413 1
40 414 1
40 417 1
40 420 1
40 423 1
40 426 1
40 427 1
40 429 1
40 434 1
40 441 1
40 442 1
40 447 1
40 455 1
40 464 1
40 465 1
40 477 1
40 478 1
40 480 1
40 483 1
40 493 1
40 497 1
40 501 1
40 518 1
40 527 1
40 531 1
40 545 1
40 548 1
40 550 1
40 558 1
40 561 1
40 572 1
40 577 1
40 578 1
40 587 1
40 588 1
40 591 1
40 594 1
41 1 1
41 4 1
41 5 1
41 8 1
41 10 1
41 24 1
41 25 1
41 27 1
41 34 1
41 36 1
41 43 1
41 51 1
41 58 1
41 64 1
41 71 1
41 80 1
41 82 1
41 84 1
41 85 1
41 89 1
41 91 1
41 95 1
41 96 1
41 97 1
41 101 1
41 102 1
41 111 1
41 118 1
41 120 1
41 121 1
41 132 1
41 138 1
41 146 1
41 149 1
41 150 1
41 155 1
41 156 1
41 166 1
41 167 1
41 176 1
41 178 1
41 192 1
41 196 1
41 197 1
41 200 1
41 206 1
41 211 1
41 217 1
41 221 1
41 225 1
41 226 1
41 241 1
41 244 1
41 251 1
41 252 1
41 253 1
41 258 1
41 260 1
41 267 1
41 271 1
41 272 1
41 276 1
41 288 1
41 293 1
41 295 1
41 299 1
41 304 1
41 308 1
41 309 1
41 310 1
41 319 1
41 328 1
41 345 1
41 375 1
41 376 1
41 379 1
41 382 1
41 385 1
41 393 1
41 395 1
41 405 1
41 406 1
41 412 1
41 417 1
41 419 1
41 427 1
41 444 1
41 446 1
41 452 1
41 455 1
41 459 1
41 465 1
41 474 1
41 475 1
41 490 1
41 492 1
41 499 1
41 525 1
41 526 1
41 528 1
41 533 1
41 536 1
41 539 1
41 542 1
41 546 1
41 548 1
41 550 1
41 561 1
41 566 1
41 567 1
41 573 1
41 578 1
41 581 1
41 591 1
41 592 1
41 596 1
41 599 1
42 4 1
42 8 1
42 10 1
42 17 1
42 32 1
42 34 1
42 44 1
42 46 1
42 51 1
42 57 1
42 60 1
42 67 1
42 68 1
42 71 1
42 81 1
42 82 1
42 91 1
42 106 1
42 107 1
42 108 1
42 111 1
42 121 1
42 137 1
42 139 1
42 145 1
42 150 1
42 154 1
42 157 1
42 159 1
42 164 1
42 166 1
42 170 1
42 171 1
42 172 1
42 181 1
42 185 1
42 189 1
42 194 1
42 195 1
42 206 1
42 213 1
42 214 1
42 219 1
42 222 1
42 223 1
42 225 1
42 227 1
42 234 1
42 245 1
42 254 1
42 265 1
42 266 1
42 271 1
42 272 1
42 278 1
42 280 1
42 281 1
42 282 1
42 290 1
42 292 1
42 295 1
42 298 1
42 305 1
42 315 1
42 321 1
42 322 1
42 325 1
42 330 1
42 335 1
42 336 1
42 338 1
42 347 1
42 349 1
42 353 1
42 369 1
42 372 1
42 375 1
42 376 1
42 380 1
42 381 1
42 389 1
42 391 1
42 394 1
42 403 1
42 408 1
42 410 1
42 412 1
42 419 1
42 421 1
42 423 1
42 434 1
42 438 1
42 442 1
42 454 1
42 461 1
42 466 1
42 469 1
42 470 1
42 476 1
42 480 1
42 485 1
42 495 1
42 501 1
42 502 1
42 506 1
42 515 1
42 520 1
42 521 1
42 523 1
42 524 1
42 525 1
42 528 1
42 529 1
42 535 1
42 544 1
42 545 1
42 548 1
42 549 1
42 556 1
42 561 1
42 566 1
42 567 1
42 569 1
42 571 1
42 575 1
42 577 1
42 579 1
42 581 1
42 589 1
42 595 1
42 596 1
42 599 1
42 600 1
43 3 1
43 4 1
43 5 1
43 7 1
43 8 1
43 11 1
43 12 1
43 17 1
43 21 1
43 22 1
43 24 1
43 28 1
43 38 1
43 41 1
43 45 1
43 49 1
43 52 1
43 58 1
43 61 1
43 67 1
43 77 1
43 80 1
43 90 1
43 96 1
43 111 1
43 112 1
43 116 1
43 122 1
43 128 1
43 132 1
43 134 1
43 137 1
43 141 1
43 142 1
43 143 1
43 145 1
43 162 1
43 163 1
43 170 1
43 174 1
43 178 1
43 202 1
43 206 1
43 218 1
43 224 1
43 230 1
43 232 1
43 238 1
43 241 1
43 244 1
43 247 1
43 250 1
43 252 1
43 253 1
43 258 1
43 261 1
43 274 1
43 275 1
43 278 1
43 282 1
43 284 1
43 294 1
43 304 1
43 306 1
43 311 1
43 314 1
43 315 1
43 321 1
43 322 1
43 324 1
43 333 1
43 335 1
43 341 1
43 346 1
43 351 1
43 355 1
43 361 1
43 371 1
43 389 1
43 396 1
43 400 1
43 408 1
43 410 1
43 414 1
43 429 1
43 431 1
43 432 1
43 434 1
43 436 1
43 437 1
43 439 1
43 449 1
43 450 1
43 452 1
43 455 1
43 469 1
43 470 1
43 491 1
43 495 1
43 498 1
43 499 1
43 504 1
43 508 1
43 515 1
43 516 1
43 520 1
43 525 1
43 526 1
43 529 1
43 532 1
43 536 1
43 537 1
43 542 1
43 563 1
43 573 1
43 575 1
43 577 1
43 581 1
43 586 1
43 591 1
43 599 1
44 2 1
44 4 1
44 27 1
44 30 1
44 31 1
44 35 1
44 42 1
44 47 1
44 50 1
44 53 1
44 55 1
44 57 1
44 60 1
44 63 1
44 74 1
44 84 1
44 86 1
44 87 1
44 97 1
44 99 1
44 102 1
44 111 1
44 114 1
44 117 1
44 122 1
44 123 1
44 132 1
44 137 1
44 148 1
44 158 1
44 161 1
44 165 1
44 168 1
44 171 1
44 173 1
44 177 1
44 179 1
44 183 1
44 188 1
44 191 1
44 194 1
44 217 1
44 235 1
44 237 1
44 257 1
44 258 1
44 260 1
44 269 1
44 277 1
44 288 1
44 289 1
44 293 1
44 303 1
44 304 1
44 313 1
44 323 1
44 325 1
44 335 1
44 337 1
44 338 1
44 339 1
44 346 1
44 350 1
44 362 1
44 371 1
44 373 1
44 380 1
44 382 1
44 387 1
44 389 1
44 391 1
44 393 1
44 397 1
44 400 1
44 411 1
44 412 1
44 418 1
44 422 1
44 425 1
44 426 1
44 427 1
44 434 1
44 437 1
44 439 1
44 447 1
44 452 1
44 455 1
44 460 1
44 461 1
44 467 1
44 470 1
44 473 1
44 478 1
44 484 1
44 487 1
44 491 1
44 495 1
44 496 1
44 504 1
44 510 1
44 511 1
44 512 1
44 521 1
44 523 1
44 529 1
44 531 1
44 534 1
44 541 1
44 542 1
44 552 1
44 554 1
44 557 1
44 560 1
44 562 1
44 568 1
44 577 1
44 578 1
44 581 1
44 594 1
45 13 1
45 23 1
45 29 1
45 30 1
45 38 1
45 39 1
45 43 1
45 47 1
45 50 1
45 54 1
45 62 1
45 67 1
45 72 1
45 74 1
45 76 1
45 82 1
45 83 1
45 87 1
45 92 1
45 99 1
45 103 1
45 108 1
45 109 1
45 130 1
45 135 1
45 136 1
45 141 1
45 155 1
45 167 1
45 168 1
45 169 1
45 173 1
45 178 1
45 180 1
45 195 1
45 197 1
45 203 1
45 205 1
45 209 1
45 212 1
45 218 1
45 223 1
45 236 1
45 237 1
45 239 1
45 240 1
45 241 1
45 262 1
45 265 1
45 266 1
45 270 1
45 274 1
45 279 1
45 280 1
45 285 1
45 286 1
45 287 1
45 290 1
45 291 1
45 302 1
45 308 1
45 312 1
45 318 1
45 338 1
45 340 1
45 342 1
45 358 1
45 367 1
45 368 1
45 370 1
45 378 1
45 397 1
45 398 1
45 399 1
45 400 1
45 404 1
45 405 1
45 409 1
45 410 1
45 411 1
45 425 1
45 426 1
45 429 1
45 437 1
45 440 1
45 442 1
45 446 1
45 447 1
45 452 1
45 470 1
45 474 1
45 489 1
45 492 1
45 500 1
45 520 1
45 521 1
45 523 1
45 524 1
45 527 1
45 529 1
45 531 1
45 538 1
45 539 1
45 549 1
45 551 1
45 555 1
45 565 1
45 571 1
45 580 1
45 586 1
45 599 1
46 3 1
46 12 1
46 14 1
46 24 1
46 25 1
46 30 1
46 33 1
46 42 1
46 52 1
46 54 1
46 66 1
46 78 1
46 84 1
46 86 1
46 90 1
46 91 1
46 94 1
46 99 1
46 104 1
46 107 1
46 109 1
46 113 1
46 121 1
46 124 1
46 127 1
46 135 1
46 139 1
46 151 1
46 155 1
46 157 1
46 160 1
46 164 1
46 174 1
46 185 1
46 187 1
46 191 1
46 193 1
46 209 1
46 216 1
46 219 1
46 224 1
46 238 1
46 240 1
46 244 1
46 249 1
46 250 1
46 257 1
46 266 1
46 275 1
46 278 1
46 279 1
46 288 1
46 293 1
46 294 1
46 297 1
46 301 1
46 304 1
46 307 1
46 309 1
46 314 1
46 321 1
46 325 1
46 329 1
46 343 1
46 349 1
46 350 1
46 365 1
46 366 1
46 368 1
46 370 1
46 371 1
46 373 1
46 374 1
46 377 1
46 378 1
46 379 1
46 383 1
46 391 1
46 403 1
46 406 1
46 410 1
46 413 1
46 415 1
46 423 1
46 430 1
46 432 1
46 449 1
46 460 1
46 467 1
46 469 1
46 471 1
46 472 1
46 480 1
46 481 1
46 486 1
46 491 1
46 499 1
46 500 1
46 502 1
46 509 1
46 513 1
46 520 1
46 522 1
46 529 1
46 532 1
46 541 1
46 545 1
46 549 1
46 561 1
46 568 1
46 573 1
46 583 1
46 589 1
46 592 1
46 597 1
47 4 1
47 10 1
47 12 1
47 29 1
47 31 1
47 39 1
47 44 1
47 45 1
47 48 1
47 50 1
47 54 1
47 62 1
47 63 1
47 65 1
47 83 1
47 103 1
47 105 1
47 107 1
47 111 1
47 112 1
47 119 1
47 120 1
47 122 1
47 125 1
47 129 1
47 132 1
47 145 1
47 146 1
47 152 1
47 156 1
47 159 1
47 163 1
47 167 1
47 173 1
47 176 1
47 178 1
47 182 1
47 183 1
47 185 1
47 188 1
47 192 1
47 193 1
47 194 1
47 209 1
47 212 1
47 216 1
47 219 1
47 231 1
47 236 1
47 243 1
47 248 1
47 249 1
47 260 1
47 261 1
47 262 1
47 270 1
47 275 1
47 280 1
47 281 1
47 282 1
47 283 1
47 286 1
47 288 1
47 290 1
47 316 1
47 319 1
47 324 1
47 329 1
47 336 1
47 337 1
47 341 1
47 344 1
47 348 1
47 351 1
47 356 1
47 357 1
47 367 1
47 373 1
47 386 1
47 388 1
47 390 1
47 394 1
47 401 1
47 405 1
47 406 1
47 414 1
47 415 1
47 419 1
47 422 1
47 423 1
47 425 1
47 428 1
47 433 1
47 434 1
47 439 1
47 440 1
47 447 1
47 459 1
47 463 1
47 466 1
47 471 1
47 475 1
47 478 1
47 483 1
47 495 1
47 498 1
47 507 1
47 508 1
47 510 1
47 516 1
47 517 1
47 520 1
47 528 1
47 530 1
47 534 1
47 540 1
47 549 1
47 555 1
47 563 1
47 575 1
47 585 1
47 586 1
47 591 1
47 599 1
48 10 1
48 13 1
48 15 1
48 19 1
48 25 1
48 36 1
48 47 1
48 52 1
48 53 1
48 62 1
48 67 1
48 70 1
48 74 1
48 75 1
48 76 1
48 78 1
48 79 1
48 87 1
48 97 1
48 99 1
48 102 1
48 108 1
48 114 1
48 118 1
48 120 1
48 122 1
48 130 1
48 138 1
48 141 1
48 145 1
48 152 1
48 161 1
48 162 1
48 165 1
48 166 1
48 171 1
48 172 1
48 174 1
48 179 1
48 185 1
48 193 1
48 194 1
48 201 1
48 203 1
48 204 1
48 206 1
48 209 1
48 215 1
48 221 1
48 228 1
48 229 1
48 235 1
48 242 1
48 244 1
48 248 1
48 257 1
48 275 1
48 278 1
48 281 1
48 285 1
48 288 1
48 289 1
48 295 1
48 296 1
48 307 1
48 309 1
48 311 1
48 323 1
48 324 1
48 327 1
48 335 1
48 338 1
48 346 1
48 348 1
48 352 1
48 357 1
48 358 1
48 367 1
48 383 1
48 392 1
48 393 1
48 407 1
48 408 1
48 411 1
48 424 1
48 426 1
48 427 1
48 428 1
48 431 1
48 433 1
48 437 1
48 440 1
48 446 1
48 447 1
48 450 1
48 451 1
48 453 1
48 454 1
48 455 1
48 458 1
48 464 1
48 466 1
48 472 1
48 488 1
48 499 1
48 501 1
48 503 1
48 504 1
48 510 1
48 511 1
48 521 1
48 526 1
48 528 1
48 537 1
48 538 1
48 540 1
48 542 1
48 546 1
48 549 1
48 551 1
48 552 1
48 558 1
48 562 1
48 565 1
48 567 1
48 568 1
48 570 1
48 576 1
48 583 1
48 584 1
48 585 1
48 590 1
48 594 1
48 597 1
48 598 1
48 599 1
48 600 1
49 2 1
49 5 1
49 6 1
49 31 1
49 39 1
49 40 1
49 43 1
49 52 1
49 60 1
49 75 1
49 83 1
49 87 1
49 92 1
49 96 1
49 97 1
49 100 1
49 110 1
49 112 1
49 113 1
49 114 1
49 126 1
49 129 1
49 131 1
49 138 1
49 140 1
49 143 1
49 146 1
49 152 1
49 156 1
49 158 1
49 186 1
49 189 1
49 190 1
49 191 1
49 194 1
49 198 1
49 199 1
49 220 1
49 226 1
49 228 1
49 230 1
49 234 1
49 235 1
49 243 1
49 245 1
49 248 1
49 251 1
49 252 1
49 268 1
49 274 1
49 287 1
49 291 1
49 305 1
49 307 1
49 310 1
49 311 1
49 314 1
49 321 1
49 326 1
49 328 1
49 329 1
49 330 1
49 331 1
49 339 1
49 340 1
49 345 1
49 350 1
49 355 1
49 359 1
49 366 1
49 369 1
49 372 1
49 378 1
49 383 1
49 395 1
49 419 1
49 420 1
49 423 1
49 427 1
49 439 1
49 440 1
49 442 1
49 460 1
49 474 1
49 481 1
49 490 1
49 492 1
49 493 1
49 495 1
49 499 1
49 503 1
49 509 1
49 513 1
49 515 1
49 517 1
49 521 1
49 523 1
49 533 1
49 535 1
49 536 1
49 537 1
49 545 1
49 548 1
49 555 1
49 557 1
49 558 1
49 561 1
49 564 1
49 565 1
49 577 1
49 583 1
49 586 1
49 589 1
49 594 1
49 598 1
49 599 1
50 17 1
50 18 1
50 39 1
50 44 1
50 45 1
50 47 1
50 51 1
50 55 1
50 56 1
50 62 1
50 66 1
50 68 1
50 69 1
50 70 1
50 71 1
50 80 1
50 85 1
50 88 1
50 93 1
50 94 1
50 96 1
50 113 1
50 121 1
50 124 1
50 126 1
50 128 1
50 139 1
50 146 1
50 151 1
50 160 1
50 168 1
50 178 1
50 179 1
50 188 1
50 189 1
50 192 1
50 193 1
50 201 1
50 205 1
50 208 1
50 212 1
50 215 1
50 218 1
50 219 1
50 222 1
50 225 1
50 234 1
50 240 1
50 242 1
50 244 1
50 246 1
50 247 1
50 260 1
50 263 1
50 265 1
50 278 1
50 280 1
50 284 1
50 286 1
50 291 1
50 292 1
50 293 1
50 296 1
50 299 1
50 300 1
50 303 1
50 309 1
50 311 1
50 317 1
50 323 1
50 324 1
50 328 1
50 332 1
50 336 1
50 346 1
50 355 1
50 357 1
50 358 1
50 364 1
50 368 1
50 375 1
50 383 1
50 387 1
50 389 1
50 398 1
50 405 1
50 407 1
50 410 1
50 414 1
50 419 1
50 429 1
50 432 1
50 438 1
50 442 1
50 447 1
50 450 1
50 453 1
50 454 1
50 456 1
50 461 1
50 464 1
50 480 1
50 482 1
50 485 1
50 490 1
50 493 1
50 501 1
50 510 1
50 514 1
50 519 1
50 522 1
50 527 1
50 528 1
50 531 1
50 535 1
50 537 1
50 540 1
50 549 1
50 551 1
50 553 1
50 558 1
50 567 1
50 599 1
50 600 1
51 4 1
51 13 1
51 15 1
51 16 1
51 37 1
51 41 1
51 42 1
51 50 1
51 52 1
51 61 1
51 62 1
51 63 1
51 67 1
51 71 1
51 88 1
51 89 1
51 90 1
51 91 1
51 97 1
51 101 1
51 104 1
51 105 1
51 116 1
51 118 1
51 120 1
51 122 1
51 136 1
51 139 1
51 141 1
51 146 1
51 147 1
51 149 1
51 158 1
51 161 1
51 162 1
51 163 1
51 171 1
51 173 1
51 177 1
51 180 1
51 182 1
51 196 1
51 206 1
51 207 1
51 209 1
51 210 1
51 214 1
51 217 1
51 232 1
51 234 1
51 235 1
51 236 1
51 240 1
51 248 1
51 251 1
51 258 1
51 261 1
51 263 1
51 265 1
51 272 1
51 276 1
51 278 1
51 280 1
51 283 1
51 284 1
51 286 1
51 287 1
51 292 1
51 294 1
51 296 1
51 311 1
51 313 1
51 320 1
51 321 1
51 322 1
51 325 1
51 327 1
51 331 1
51 334 1
51 342 1
51 346 1
51 364 1
51 367 1
51 373 1
51 375 1
51 377 1
51 383 1
51 387 1
51 394 1
51 403 1
51 404 1
51 411 1
51 413 1
51 416 1
51 417 1
51 424 1
51 426 1
51 434 1
51 439 1
51 440 1
51 442 1
51 443 1
51 459 1
51 468 1
51 473 1
51 474 1
51 484 1
51 486 1
51 493 1
51 500 1
51 505 1
51 511 1
51 518 1
51 523 1
51 541 1
51 543 1
51 551 1
51 556 1
51 564 1
51 567 1
51 579 1
51 590 1
51 594 1
51 598 1
52 1 1
52 7 1
52 9 1
52 10 1
52 13 1
52 18 1
52 24 1
52 31 1
52 34 1
52 40 1
52 43 1
52 46 1
52 48 1
52 49 1
52 51 1
52 60 1
52 63 1
52 68 1
52 72 1
52 84 1
52 88 1
52 91 1
52 97 1
52 107 1
52 108 1
52 118 1
52 120 1
52 126 1
52 132 1
52 141 1
52 150 1
52 153 1
52 154 1
52 155 1
52 159 1
52 161 1
52 162 1
52 163 1
52 171 1
52 174 1
52 177 1
52 186 1
52 187 1
52 188 1
52 191 1
52 192 1
52 193 1
52 202 1
52 210 1
52 212 1
52 220 1
52 225 1
52 227 1
52 231 1
52 234 1
52 242 1
52 243 1
52 255 1
52 259 1
52 261 1
52 268 1
52 273 1
52 279 1
52 280 1
52 283 1
52 286 1
52 287 1
52 297 1
52 299 1
52 300 1
52 301 1
52 305 1
52 308 1
52 314 1
52 318 1
52 323 1
52 326 1
52 337 1
52 346 1
52 353 1
52 362 1
52 364 1
52 373 1
52 389 1
52 390 1
52 392 1
52 395 1
52 396 1
52 400 1
52 409 1
52 420 1
52 429 1
52 430 1
52 432 1
52 433 1
52 436 1
52 440 1
52 444 1
52 446 1
52 447 1
52 448 1
52 461 1
52 476 1
52 479 1
52 482 1
52 490 1
52 493 1
52 497 1
52 498 1
52 506 1
52 526 1
52 530 1
52 532 1
52 534 1
52 538 1
52 545 1
52 552 1
52 554 1
52 555 1
52 556 1
52 557 1
52 565 1
52 566 1
52 574 1
52 578 1
52 581 1
52 583 1
52 584 1
52 589 1
52 592 1
52 600 1
53 2 1
53 6 1
53 7 1
53 9 1
53 18 1
53 22 1
53 30 1
53 35 1
53 38 1
53 39 1
53 44 1
53 48 1
53 60 1
53 64 1
53 68 1
53 71 1
53 74 1
53 77 1
53 82 1
53 88 1
53 95 1
53 102 1
53 103 1
53 113 1
53 116 1
53 121 1
53 131 1
53 140 1
53 142 1
53 165 1
53 166 1
53 167 1
53 169 1
53 170 1
53 174 1
53 176 1
53 178 1
53 189 1
53 194 1
53 198 1
53 199 1
53 203 1
53 204 1
53 206 1
53 207 1
53 212 1
53 215 1
53 223 1
53 225 1
53 234 1
53 242 1
53 250 1
53 254 1
53 255 1
53 262 1
53 272 1
53 274 1
53 276 1
53 277 1
53 280 1
53 284 1
53 290 1
53 293 1
53 300 1
53 309 1
53 310 1
53 312 1
53 314 1
53 317 1
53 321 1
53 322 1
53 327 1
53 329 1
53 330 1
53 333 1
53 337 1
53 342 1
53 344 1
53 345 1
53 351 1
53 353 1
53 358 1
53 359 1
53 364 1
53 370 1
53 380 1
53 383 1
53 385 1
53 387 1
53 390 1
53 391 1
53 392 1
53 393 1
53 399 1
53 406 1
53 410 1
53 417 1
53 421 1
53 429 1
53 433 1
53 443 1
53 451 1
53 452 1
53 457 1
53 461 1
53 462 1
53 464 1
53 468 1
53 469 1
53 471 1
53 475 1
53 476 1
53 482 1
53 485 1
53 487 1
53 488 1
53 489 1
53 491 1
53 496 1
53 506 1
53 507 1
53 509 1
53 513 1
53 516 1
53 519 1
53 534 1
53 535 1
53 536 1
53 544 1
53 555 1
53 558 1
53 563 1
53 574 1
53 585 1
53 589 1
53 592 1
53 597 1
54 4 1
54 6 1
54 7 1
54 12 1
54 13 1
54 33 1
54 35 1
54 36 1
54 45 1
54 46 1
54 47 1
54 62 1
54 66 1
54 78 1
54 84 1
54 86 1
54 98 1
54 104 1
54 108 1
54 114 1
54 122 1
54 131 1
54 133 1
54 137 1
54 138 1
54 143 1
54 150 1
54 151 1
54 152 1
54 158 1
54 166 1
54 167 1
54 179 1
54 188 1
54 192 1
54 216 1
54 218 1
54 223 1
54 224 1
54 225 1
54 230 1
54 233 1
54 235 1
54 239 1
54 240 1
54 241 1
54 243 1
54 245 1
54 265 1
54 271 1
54 286 1
54 287 1
54 297 1
54 302 1
54 306 1
54 307 1
54 309 1
54 310 1
54 311 1
54 328 1
54 329 1
54 336 1
54 337 1
54 341 1
54 343 1
54 364 1
54 366 1
54 373 1
54 380 1
54 381 1
54 382 1
54 385 1
54 387 1
54 391 1
54 392 1
54 394 1
54 396 1
54 409 1
54 411 1
54 416 1
54 419 1
54 421 1
54 423 1
54 445 1
54 446 1
54 455 1
54 460 1
54 467 1
54 468 1
54 471 1
54 473 1
54 483 1
54 489 1
54 502 1
54 503 1
54 504 1
54 507 1
54 515 1
54 516 1
54 523 1
54 525 1
54 528 1
54 530 1
54 532 1
54 533 1
54 540 1
54 543 1
54 544 1
54 551 1
54 559 1
54 560 1
54 572 1
54 577 1
54 579 1
54 580 1
54 583 1
54 591 1
54 595 1
54 596 1
54 598 1
54 599 1
55 8 1
55 11 1
55 13 1
55 14 1
55 19 1
55 23 1
55 24 1
55 25 1
55 30 1
55 31 1
55 36 1
55 38 1
55 44 1
55 50 1
55 58 1
55 63 1
55 67 1
55 69 1
55 75 1
55 77 1
55 81 1
55 83 1
55 84 1
55 88 1
55 91 1
55 93 1
55 95 1
55 104 1
55 108 1
55 112 1
55 115 1
55 120 1
55 122 1
55 129 1
55 134 1
55 137 1
55 140 1
55 145 1
55 146 1
55 149 1
55 153 1
55 155 1
55 157 1
55 171 1
55 173 1
55 174 1
55 175 1
55 179 1
55 181 1
55 183 1
55 185 1
55 186 1
55 187 1
55 196 1
55 201 1
55 204 1
55 206 1
55 214 1
55 229 1
55 231 1
55 232 1
55 239 1
55 243 1
55 244 1
55 248 1
55 250 1
55 264 1
55 266 1
55 267 1
55 268 1
55 276 1
55 278 1
55 286 1
55 288 1
55 289 1
55 295 1
55 299 1
55 300 1
55 303 1
55 321 1
55 325 1
55 327 1
55 329 1
55 343 1
55 345 1
55 351 1
55 352 1
55 353 1
55 356 1
55 362 1
55 364 1
55 371 1
55 382 1
55 387 1
55 400 1
55 410 1
55 414 1
55 417 1
55 419 1
55 423 1
55 437 1
55 441 1
55 442 1
55 443 1
55 449 1
55 450 1
55 451 1
55 452 1
55 455 1
55 462 1
55 463 1
55 464 1
55 465 1
55 470 1
55 472 1
55 485 1
55 496 1
55 503 1
55 507 1
55 509 1
55 512 1
55 513 1
55 524 1
55 527 1
55 530 1
55 542 1
55 546 1
55 547 1
55 551 1
55 566 1
55 567 1
55 568 1
55 571 1
55 575 1
55 578 1
55 581 1
55 585 1
55 586 1
55 591 1
55 596 1
56 2 1
56 11 1
56 17 1
56 29 1
56 30 1
56 40 1
56 50 1
56 59 1
56 60 1
56 70 1
56 77 1
56 79 1
56 80 1
56 85 1
56 88 1
56 97 1
56 100 1
56 101 1
56 104 1
56 105 1
56 108 1
56 111 1
56 115 1
56 125 1
56 139 1
56 141 1
56 144 1
56 145 1
56 147 1
56 155 1
56 161 1
56 162 1
56 164 1
56 167 1
56 168 1
56 173 1
56 175 1
56 183 1
56 184 1
56 197 1
56 202 1
56 208 1
56 212 1
56 216 1
56 219 1
56 239 1
56 250 1
56 253 1
56 260 1
56 264 1
56 267 1
56 275 1
56 280 1
56 288 1
56 293 1
56 300 1
56 302 1
56 307 1
56 309 1
56 322 1
56 323 1
56 329 1
56 331 1
56 332 1
56 333 1
56 334 1
56 335 1
56 336 1
56 337 1
56 343 1
56 348 1
56 350 1
56 357 1
56 360 1
56 361 1
56 368 1
56 376 1
56 379 1
56 392 1
56 401 1
56 402 1
56 403 1
56 409 1
56 410 1
56 411 1
56 421 1
56 429 1
56 440 1
56 442 1
56 443 1
56 445 1
56 452 1
56 461 1
56 463 1
56 468 1
56 471 1
56 474 1
56 475 1
56 477 1
56 481 1
56 482 1
56 484 1
56 489 1
56 490 1
56 495 1
56 497 1
56 498 1
56 499 1
56 500 1
56 501 1
56 504 1
56 506 1
56 507 1
56 508 1
56 510 1
56 516 1
56 520 1
56 524 1
56 525 1
56 536 1
56 537 1
56 538 1
56 547 1
56 549 1
56 554 1
56 557 1
56 566 1
56 571 1
56 573 1
56 575 1
56 585 1
56 597 1
57 4 1
57 16 1
57 18 1
57 19 1
57 35 1
57 42 1
57 44 1
57 61 1
57 74 1
57 78 1
57 84 1
57 87 1
57 91 1
57 94 1
57 101 1
57 103 1
57 111 1
57 113 1
57 114 1
57 120 1
57 128 1
57 129 1
57 131 1
57 132 1
57 134 1
57 146 1
57 151 1
57 152 1
57 153 1
57 159 1
57 171 1
57 173 1
57 179 1
57 181 1
57 184 1
57 185 1
57 187 1
57 190 1
57 193 1
57 199 1
57 200 1
57 204 1
57 213 1
57 223 1
57 225 1
57 232 1
57 234 1
57 245 1
57 256 1
57 257 1
57 263 1
57 267 1
57 268 1
57 270 1
57 273 1
57 274 1
57 279 1
57 286 1
57 291 1
57 306 1
57 310 1
57 317 1
57 337 1
57 338 1
57 340 1
57 341 1
57 343 1
57 345 1
57 347 1
57 353 1
57 359 1
57 363 1
57 370 1
57 372 1
57 375 1
57 376 1
57 378 1
57 382 1
57 401 1
57 407 1
57 412 1
57 416 1
57 417 1
57 418 1
57 421 1
57 422 1
57 425 1
57 427 1
57 430 1
57 432 1
57 436 1
57 443 1
57 447 1
57 449 1
57 451 1
57 454 1
57 463 1
57 464 1
57 465 1
57 471 1
57 487 1
57 490 1
57 491 1
57 492 1
57 494 1
57 504 1
57 509 1
57 516 1
57 525 1
57 531 1
57 539 1
57 546 1
57 550 1
57 558 1
57 560 1
57 562 1
57 572 1
57 579 1
57 580 1
57 585 1
57 587 1
57 588 1
57 590 1
57 597 1
57 599 1
58 1 1
58 5 1
58 12 1
58 20 1
58 21 1
58 22 1
58 23 1
58 25 1
58 29 1
58 30 1
58 33 1
58 34 1
58 37 1
58 38 1
58 41 1
58 43 1
58 55 1
58 59 1
58 66 1
58 80 1
58 89 1
58 90 1
58 93 1
58 94 1
58 95 1
58 96 1
58 103 1
58 127 1
58 133 1
58 137 1
58 139 1
58 141 1
58 147 1
58 148 1
58 152 1
58 158 1
58 160 1
58 161 1
58 163 1
58 164 1
58 165 1
58 166 1
58 182 1
58 184 1
58 187 1
58 198 1
58 209 1
58 214 1
58 217 1
58 218 1
58 221 1
58 237 1
58 239 1
58 252 1
58 253 1
58 258 1
58 262 1
58 264 1
58 265 1
58 271 1
58 274 1
58 277 1
58 279 1
58 284 1
58 311 1
58 313 1
58 318 1
58 319 1
58 321 1
58 322 1
58 332 1
58 333 1
58 336 1
58 338 1
58 342 1
58 351 1
58 353 1
58 354 1
58 358 1
58 360 1
58 368 1
58 369 1
58 370 1
58 375 1
58 382 1
58 386 1
58 389 1
58 404 1
58 417 1
58 418 1
58 420 1
58 422 1
58 429 1
58 450 1
58 451 1
58 463 1
58 464 1
58 465 1
58 472 1
58 475 1
58 479 1
58 484 1
58 485 1
58 497 1
58 500 1
58 504 1
58 514 1
58 519 1
58 520 1
58 530 1
58 532 1
58 536 1
58 538 1
58 545 1
58 564 1
58 571 1
58 580 1
58 581 1
58 583 1
58 588 1
58 589 1
58 592 1
58 600 1
59 2 1
59 3 1
59 4 1
59 8 1
59 10 1
59 12 1
59 17 1
59 18 1
59 24 1
59 25 1
59 26 1
59 28 1
59 37 1
59 56 1
59 58 1
59 64 1
59 67 1
59 68 1
59 70 1
59 71 1
59 72 1
59 73 1
59 81 1
59 86 1
59 97 1
59 100 1
59 103 1
59 122 1
59 123 1
59 128 1
59 133 1
59 134 1
59 135 1
59 149 1
59 150 1
59 154 1
59 164 1
59 167 1
59 168 1
59 169 1
59 176 1
59 181 1
59 186 1
59 188 1
59 192 1
59 194 1
59 196 1
59 213 1
59 214 1
59 216 1
59 217 1
59 220 1
59 226 1
59 238 1
59 252 1
59 253 1
59 270 1
59 276 1
59 279 1
59 281 1
59 285 1
59 302 1
59 304 1
59 310 1
59 318 1
59 320 1
59 322 1
59 327 1
59 343 1
59 360 1
59 361 1
59 362 1
59 369 1
59 386 1
59 398 1
59 409 1
59 412 1
59 420 1
59 422 1
59 424 1
59 428 1
59 431 1
59 434 1
59 435 1
59 440 1
59 447 1
59 449 1
59 453 1
59 456 1
59 467 1
59 468 1
59 469 1
59 470 1
59 474 1
59 483 1
59 484 1
59 490 1
59 506 1
59 508 1
59 512 1
59 517 1
59 526 1
59 531 1
59 540 1
59 556 1
59 559 1
59 572 1
59 574 1
59 577 1
59 578 1
59 589 1
59 592 1
59 593 1
59 597 1
59 599 1
59 600 1
60 2 1
60 5 1
60 9 1
60 10 1
60 11 1
60 12 1
60 15 1
60 16 1
60 21 1
60 33 1
60 38 1
60 40 1
60 42 1
60 44 1
60 49 1
60 52 1
60 53 1
60 56 1
60 62 1
60 63 1
60 65 1
60 69 1
60 78 1
60 82 1
60 83 1
60 84 1
60 91 1
60 101 1
60 110 1
60 120 1
60 129 1
60 132 1
60 136 1
60 140 1
60 141 1
60 155 1
60 159 1
60 164 1
60 168 1
60 176 1
60 178 1
60 189 1
60 192 1
60 195 1
60 197 1
60 216 1
60 219 1
60 221 1
60 238 1
60 241 1
60 262 1
60 273 1
60 278 1
60 294 1
60 298 1
60 300 1
60 312 1
60 313 1
60 330 1
60 333 1
60 338 1
60 342 1
60 343 1
60 344 1
60 345 1
60 359 1
60 361 1
60 384 1
60 393 1
60 396 1
60 398 1
60 404 1
60 406 1
60 408 1
60 409 1
60 420 1
60 432 1
60 439 1
60 445 1
60 454 1
60 456 1
60 462 1
60 469 1
60 471 1
60 474 1
60 478 1
60 489 1
60 497 1
60 504 1
60 506 1
60 509 1
60 511 1
60 513 1
60 518 1
60 521 1
60 523 1
60 529 1
60 530 1
60 545 1
60 546 1
60 548 1
60 549 1
60 559 1
60 563 1
60 570 1
60 578 1
60 580 1
60 583 1
60 597 1
61 4 1
61 6 1
61 7 1
61 9 1
61 13 1
61 23 1
61 28 1
61 33 1
61 37 1
61 43 1
61 51 1
61 57 1
61 67 1
61 76 1
61 78 1
61 82 1
61 89 1
61 101 1
61 103 1
61 110 1
61 112 1
61 114 1
61 115 1
61 135 1
61 137 1
61 141 1
61 143 1
61 146 1
61 147 1
61 158 1
61 173 1
61 180 1
61 185 1
61 186 1
61 195 1
61 209 1
61 213 1
61 220 1
61 224 1
61 229 1
61 234 1
61 235 1
61 244 1
61 245 1
61 254 1
61 255 1
61 258 1
61 259 1
61 262 1
61 264 1
61 265 1
61 280 1
61 288 1
61 304 1
61 306 1
61 308 1
61 313 1
61 319 1
61 322 1
61 324 1
61 328 1
61 334 1
61 336 1
61 339 1
61 341 1
61 344 1
61 348 1
61 350 1
61 351 1
61 358 1
61 359 1
61 366 1
61 368 1
61 377 1
61 396 1
61 402 1
61 412 1
61 418 1
61 419 1
61 422 1
61 429 1
61 430 1
61 443 1
61 446 1
61 448 1
61 457 1
61 462 1
61 470 1
61 473 1
61 475 1
61 476 1
61 481 1
61 485 1
61 489 1
61 490 1
61 495 1
61 501 1
61 503 1
61 506 1
61 512 1
61 513 1
61 515 1
61 516 1
61 522 1
61 525 1
61 536 1
61 541 1
61 544 1
61 552 1
61 558 1
61 574 1
61 577 1
61 579 1
61 583 1
61 587 1
61 588 1
61 589 1
61 596 1
61 598 1
61 600 1
62 2 1
62 24 1
62 25 1
62 30 1
62 31 1
62 34 1
62 35 1
62 40 1
62 45 1
62 47 1
62 48 1
62 50 1
62 51 1
62 54 1
62 60 1
62 66 1
62 67 1
62 70 1
62 72 1
62 76 1
62 79 1
62 84 1
62 104 1
62 107 1
62 114 1
62 115 1
62 120 1
62 124 1
62 127 1
62 136 1
62 137 1
62 146 1
62 157 1
62 174 1
62 176 1
62 179 1
62 182 1
62 185 1
62 190 1
62 193 1
62 198 1
62 206 1
62 209 1
62 212 1
62 213 1
62 216 1
62 217 1
62 223 1
62 228 1
62 231 1
62 233 1
62 250 1
62 264 1
62 267 1
62 275 1
62 277 1
62 282 1
62 285 1
62 293 1
62 314 1
62 316 1
62 319 1
62 321 1
62 329 1
62 330 1
62 354 1
62 356 1
62 366 1
62 372 1
62 373 1
62 384 1
62 388 1
62 392 1
62 400 1
62 411 1
62 412 1
62 413 1
62 419 1
62 438 1
62 445 1
62 451 1
62 453 1
62 459 1
62 464 1
62 475 1
62 481 1
62 483 1
62 500 1
62 504 1
62 514 1
62 521 1
62 524 1
62 529 1
62 530 1
62 533 1
62 544 1
62 546 1
62 556 1
62 559 1
62 560 1
62 563 1
62 565 1
62 572 1
62 575 1
62 579 1
62 581 1
62 586 1
62 590 1
62 593 1
62 594 1
62 598 1
62 599 1
63 1 1
63 4 1
63 8 1
63 30 1
63 35 1
63 40 1
63 44 1
63 47 1
63 51 1
63 52 1
63 55 1
63 60 1
63 75 1
63 79 1
63 82 1
63 88 1
63 94 1
63 96 1
63 100 1
63 104 1
63 106 1
63 107 1
63 109 1
63 114 1
63 115 1
63 133 1
63 135 1
63 136 1
63 141 1
63 142 1
63 147 1
63 148 1
63 150 1
63 171 1
63 172 1
63 177 1
63 179 1
63 180 1
63 181 1
63 185 1
63 192 1
63 196 1
63 199 1
63 205 1
63 215 1
63 216 1
63 224 1
63 225 1
63 233 1
63 235 1
63 236 1
63 241 1
63 246 1
63 251 1
63 252 1
63 257 1
63 263 1
63 266 1
63 277 1
63 289 1
63 297 1
63 300 1
63 309 1
63 310 1
63 313 1
63 317 1
63 319 1
63 326 1
63 328 1
63 329 1
63 333 1
63 335 1
63 343 1
63 345 1
63 348 1
63 351 1
63 353 1
63 358 1
63 359 1
63 366 1
63 369 1
63 380 1
63 384 1
63 386 1
63 394 1
63 399 1
63 400 1
63 412 1
63 414 1
63 416 1
63 418 1
63 421 1
63 423 1
63 426 1
63 430 1
63 433 1
63 440 1
63 445 1
63 446 1
63 449 1
63 452 1
63 453 1
63 457 1
63 459 1
63 461 1
63 464 1
63 467 1
63 472 1
63 478 1
63 487 1
63 488 1
63 494 1
63 495 1
63 496 1
63 498 1
63 501 1
63 505 1
63 508 1
63 510 1
63 520 1
63 521 1
63 522 1
63 527 1
63 541 1
63 550 1
63 553 1
63 554 1
63 561 1
63 571 1
63 577 1
63 587 1
63 592 1
64 3 1
64 4 1
64 21 1
64 36 1
64 38 1
64 41 1
64 53 1
64 59 1
64 68 1
64 69 1
64 70 1
64 77 1
64 83 1
64 88 1
64 95 1
64 99 1
64 116 1
64 122 1
64 126 1
64 128 1
64 139 1
64 142 1
64 144 1
64 145 1
64 161 1
64 162 1
64 165 1
64 171 1
64 182 1
64 183 1
64 190 1
64 192 1
64 197 1
64 198 1
64 203 1
64 207 1
64 209 1
64 219 1
64 228 1
64 237 1
64 239 1
64 242 1
64 254 1
64 262 1
64 264 1
64 268 1
64 276 1
64 280 1
64 286 1
64 287 1
64 289 1
64 304 1
64 306 1
64 308 1
64 310 1
64 312 1
64 314 1
64 320 1
64 321 1
64 325 1
64 326 1
64 327 1
64 336 1
64 337 1
64 341 1
64 343 1
64 344 1
64 350 1
64 358 1
64 362 1
64 364 1
64 371 1
64 372 1
64 377 1
64 378 1
64 381 1
64 391 1
64 394 1
64 405 1
64 409 1
64 425 1
64 432 1
64 434 1
64 442 1
64 451 1
64 464 1
64 470 1
64 471 1
64 473 1
64 474 1
64 475 1
64 477 1
64 480 1
64 486 1
64 489 1
64 492 1
64 495 1
64 496 1
64 498 1
64 511 1
64 513 1
64 522 1
64 526 1
64 531 1
64 540 1
64 545 1
64 546 1
64 551 1
64 559 1
64 565 1
64 566 1
64 586 1
64 587 1
64 590 1
64 594 1
65 1 1
65 3 1
65 12 1
65 14 1
65 18 1
65 23 1
65 47 1
65 60 1
65 69 1
65 72 1
65 75 1
65 76 1
65 78 1
65 100 1
65 102 1
65 110 1
65 111 1
65 116 1
65 121 1
65 133 1
65 134 1
65 136 1
65 138 1
65 139 1
65 145 1
65 148 1
65 149 1
65 153 1
65 159 1
65 166 1
65 170 1
65 171 1
65 181 1
65 194 1
65 196 1
65 202 1
65 209 1
65 211 1
65 214 1
65 215 1
65 216 1
65 220 1
65 222 1
65 225 1
65 229 1
65 234 1
65 235 1
65 238 1
65 241 1
65 246 1
65 252 1
65 266 1
65 272 1
65 276 1
65 277 1
65 279 1
65 280 1
65 287 1
65 292 1
65 293 1
65 307 1
65 312 1
65 314 1
65 316 1
65 318 1
65 319 1
65 325 1
65 328 1
65 331 1
65 338 1
65 339 1
65 342 1
65 345 1
65 364 1
65 375 1
65 381 1
65 382 1
65 384 1
65 393 1
65 401 1
65 405 1
65 413 1
65 421 1
65 424 1
65 431 1
65 433 1
65 437 1
65 438 1
65 449 1
65 454 1
65 459 1
65 470 1
65 471 1
65 491 1
65 497 1
65 504 1
65 506 1
65 508 1
65 510 1
65 518 1
65 520 1
65 527 1
65 535 1
65 540 1
65 542 1
65 547 1
65 550 1
65 551 1
65 552 1
65 569 1
65 572 1
65 583 1
65 597 1
65 599 1
66 4 1
66 5 1
66 7 1
66 9 1
66 21 1
66 25 1
66 31 1
66 32 1
66 38 1
66 46 1
66 50 1
66 54 1
66 58 1
66 62 1
66 72 1
66 73 1
66 79 1
66 81 1
66 93 1
66 95 1
66 98 1
66 101 1
66 103 1
66 106 1
66 107 1
66 111 1
66 117 1
66 136 1
66 137 1
66 146 1
66 148 1
66 152 1
66 153 1
66 158 1
66 164 1
66 165 1
66 172 1
66 179 1
66 183 1
66 192 1
66 196 1
66 200 1
66 201 1
66 205 1
66 211 1
66 215 1
66 216 1
66 219 1
66 223 1
66 230 1
66 231 1
66 239 1
66 241 1
66 245 1
66 247 1
66 248 1
66 254 1
66 262 1
66 272 1
66 277 1
66 278 1
66 285 1
66 290 1
66 293 1
66 295 1
66 297 1
66 303 1
66 314 1
66 324 1
66 325 1
66 327 1
66 329 1
66 331 1
66 333 1
66 339 1
66 341 1
66 349 1
66 358 1
66 367 1
66 377 1
66 384 1
66 386 1
66 390 1
66 393 1
66 400 1
66 404 1
66 409 1
66 412 1
66 414 1
66 428 1
66 429 1
66 431 1
66 434 1
66 438 1
66 442 1
66 454 1
66 459 1
66 469 1
66 496 1
66 501 1
66 504 1
66 506 1
66 515 1
66 518 1
66 524 1
66 531 1
66 534 1
66 535 1
66 540 1
66 571 1
66 572 1
66 579 1
66 580 1
66 585 1
66 586 1
66 600 1
67 1 1
67 7 1
67 15 1
67 22 1
67 27 1
67 29 1
67 31 1
67 39 1
67 40 1
67 42 1
67 43 1
67 45 1
67 48 1
67 51 1
67 55 1
67 59 1
67 61 1
67 62 1
67 69 1
67 72 1
67 73 1
67 76 1
67 77 1
67 84 1
67 90 1
67 94 1
67 107 1
67 114 1
67 120 1
67 136 1
67 137 1
67 140 1
67 145 1
67 155 1
67 162 1
67 163 1
67 168 1
67 174 1
67 179 1
67 181 1
67 185 1
67 188 1
67 195 1
67 211 1
67 215 1
67 216 1
67 223 1
67 228 1
67 229 1
67 231 1
67 232 1
67 235 1
67 239 1
67 240 1
67 241 1
67 252 1
67 258 1
67 259 1
67 265 1
67 269 1
67 277 1
67 280 1
67 284 1
67 286 1
67 294 1
67 300 1
67 304 1
67 312 1
67 313 1
67 315 1
67 326 1
67 332 1
67 335 1
67 338 1
67 342 1
67 345 1
67 354 1
67 360 1
67 362 1
67 370 1
67 373 1
67 378 1
67 387 1
67 389 1
67 391 1
67 396 1
67 403 1
67 405 1
67 408 1
67 422 1
67 440 1
67 444 1
67 449 1
67 456 1
67 466 1
67 469 1
67 471 1
67 474 1
67 485 1
67 487 1
67 488 1
67 489 1
67 499 1
67 502 1
67 510 1
67 518 1
67 524 1
67 526 1
67 529 1
67 534 1
67 548 1
67 555 1
67 567 1
67 569 1
67 578 1
67 583 1
68 9 1
68 12 1
68 19 1
68 25 1
68 29 1
68 34 1
68 38 1
68 42 1
68 50 1
68 52 1
68 53 1
68 59 1
68 64 1
68 72 1
68 73 1
68 77 1
68 85 1
68 96 1
68 100 1
68 107 1
68 108 1
68 111 1
68 115 1
68 125 1
68 131 1
68 132 1
68 141 1
68 151 1
68 156 1
68 158 1
68 162 1
68 163 1
68 171 1
68 178 1
68 179 1
68 181 1
68 184 1
68 193 1
68 199 1
68 209 1
68 212 1
68 220 1
68 223 1
68 225 1
68 233 1
68 241 1
68 244 1
68 245 1
68 246 1
68 249 1
68 255 1
68 256 1
68 264 1
68 268 1
68 270 1
68 271 1
68 276 1
68 277 1
68 287 1
68 296 1
68 298 1
68 305 1
68 308 1
68 320 1
68 326 1
68 327 1
68 336 1
68 346 1
68 350 1
68 358 1
68 359 1
68 361 1
68 364 1
68 381 1
68 384 1
68 396 1
68 397 1
68 398 1
68 403 1
68 406 1
68 408 1
68 418 1
68 421 1
68 423 1
68 425 1
68 440 1
68 450 1
68 455 1
68 456 1
68 467 1
68 468 1
68 470 1
68 474 1
68 475 1
68 478 1
68 485 1
68 487 1
68 488 1
68 490 1
68 502 1
68 507 1
68 509 1
68 512 1
68 514 1
68 529 1
68 530 1
68 531 1
68 534 1
68 544 1
68 557 1
68 561 1
68 564 1
68 565 1
68 570 1
68 583 1
68 594 1
69 21 1
69 22 1
69 27 1
69 32 1
69 50 1
69 55 1
69 60 1
69 64 1
69 65 1
69 67 1
69 71 1
69 73 1
69 79 1
69 80 1
69 88 1
69 101 1
69 111 1
69 142 1
69 144 1
69 154 1
69 157 1
69 163 1
69 167 1
69 170 1
69 179 1
69 181 1
69 184 1
69 185 1
69 186 1
69 187 1
69 188 1
69 190 1
69 192 1
69 194 1
69 206 1
69 215 1
69 218 1
69 222 1
69 223 1
69 239 1
69 258 1
69 260 1
69 262 1
69 266 1
69 267 1
69 271 1
69 274 1
69 282 1
69 284 1
69 294 1
69 299 1
69 306 1
69 310 1
69 313 1
69 314 1
69 343 1
69 350 1
69 352 1
69 362 1
69 363 1
69 364 1
69 366 1
69 367 1
69 368 1
69 378 1
69 381 1
69 382 1
69 407 1
69 408 1
69 415 1
69 438 1
69 442 1
69 445 1
69 451 1
69 460 1
69 463 1
69 469 1
69 471 1
69 474 1
69 477 1
69 481 1
69 482 1
69 484 1
69 487 1
69 491 1
69 492 1
69 494 1
69 502 1
69 519 1
69 527 1
69 528 1
69 531 1
69 532 1
69 534 1
69 546 1
69 555 1
69 557 1
69 560 1
69 565 1
69 573 1
69 579 1
69 582 1
69 583 1
69 585 1
69 596 1
69 599 1
69 600 1
70 9 1
70 12 1
70 13 1
70 15 1
70 25 1
70 27 1
70 32 1
70 33 1
70 38 1
70 39 1
70 40 1
70 48 1
70 50 1
70 56 1
70 59 1
70 62 1
70 64 1
70 73 1
70 83 1
70 84 1
70 85 1
70 93 1
70 99 1
70 101 1
70 103 1
70 104 1
70 106 1
70 114 1
70 121 1
70 125 1
70 131 1
70 132 1
70 137 1
70 141 1
70 143 1
70 150 1
70 152 1
70 155 1
70 160 1
70 163 1
70 165 1
70 172 1
70 175 1
70 176 1
70 179 1
70 180 1
70 188 1
70 195 1
70 196 1
70 197 1
70 199 1
70 207 1
70 209 1
70 212 1
70 214 1
70 223 1
70 225 1
70 229 1
70 255 1
70 256 1
70 262 1
70 271 1
70 272 1
70 273 1
70 274 1
70 279 1
70 280 1
70 282 1
70 302 1
70 304 1
70 308 1
70 313 1
70 318 1
70 322 1
70 323 1
70 328 1
70 332 1
70 339 1
70 343 1
70 346 1
70 349 1
70 355 1
70 356 1
70 360 1
70 361 1
70 365 1
70 368 1
70 370 1
70 376 1
70 381 1
70 396 1
70 397 1
70 398 1
70 401 1
70 404 1
70 406 1
70 416 1
70 433 1
70 434 1
70 435 1
70 437 1
70 438 1
70 441 1
70 445 1
70 447 1
70 450 1
70 451 1
70 455 1
70 462 1
70 465 1
70 469 1
70 472 1
70 473 1
70 476 1
70 477 1
70 483 1
70 486 1
70 490 1
70 493 1
70 499 1
70 502 1
70 513 1
70 514 1
70 517 1
70 520 1
70 528 1
70 529 1
70 533 1
70 534 1
70 536 1
70 554 1
70 560 1
70 564 1
70 566 1
70 568 1
70 582 1
70 583 1
70 595 1
70 600 1
71 21 1
71 25 1
71 29 1
71 36 1
71 41 1
71 42 1
71 50 1
71 51 1
71 53 1
71 59 1
71 69 1
71 73 1
71 75 1
71 80 1
71 89 1
71 90 1
71 95 1
71 99 1
71 100 1
71 108 1
71 115 1
71 120 1
71 124 1
71 125 1
71 141 1
71 148 1
71 151 1
71 153 1
71 155 1
71 160 1
71 165 1
71 166 1
71 169 1
71 184 1
71 189 1
71 191 1
71 193 1
71 195 1
71 200 1
71 202 1
71 205 1
71 206 1
71 208 1
71 216 1
71 219 1
71 220 1
71 231 1
71 243 1
71 244 1
71 245 1
71 249 1
71 250 1
71 263 1
71 269 1
71 270 1
71 272 1
71 276 1
71 282 1
71 293 1
71 296 1
71 300 1
71 304 1
71 308 1
71 317 1
71 322 1
71 326 1
71 327 1
71 334 1
71 336 1
71 340 1
71 344 1
71 353 1
71 358 1
71 362 1
71 364 1
71 367 1
71 368 1
71 378 1
71 380 1
71 383 1
71 384 1
71 390 1
71 399 1
71 411 1
71 423 1
71 428 1
71 430 1
71 433 1
71 436 1
71 445 1
71 446 1
71 447 1
71 450 1
71 451 1
71 456 1
71 459 1
71 465 1
71 474 1
71 476 1
71 478 1
71 481 1
71 487 1
71 488 1
71 489 1
71 491 1
71 493 1
71 504 1
71 513 1
71 519 1
71 520 1
71 522 1
71 527 1
71 533 1
71 537 1
71 539 1
71 543 1
71 548 1
71 549 1
71 553 1
71 555 1
71 561 1
71 564 1
71 569 1
71 571 1
71 572 1
71 573 1
71 575 1
71 576 1
71 578 1
71 586 1
71 591 1
71 597 1
71 600 1
72 4 1
72 5 1
72 6 1
72 21 1
72 32 1
72 34 1
72 35 1
72 37 1
72 45 1
72 52 1
72 59 1
72 62 1
72 65 1
72 66 1
72 67 1
72 68 1
72 73 1
72 82 1
72 83 1
72 92 1
72 104 1
72 105 1
72 115 1
72 123 1
72 125 1
72 130 1
72 136 1
72 137 1
72 150 1
72 158 1
72 162 1
72 163 1
72 171 1
72 173 1
72 175 1
72 183 1
72 184 1
72 192 1
72 193 1
72 198 1
72 199 1
72 204 1
72 213 1
72 215 1
72 216 1
72 218 1
72 221 1
72 226 1
72 228 1
72 232 1
72 236 1
72 241 1
72 255 1
72 256 1
72 259 1
72 271 1
72 280 1
72 283 1
72 295 1
72 297 1
72 302 1
72 307 1
72 313 1
72 318 1
72 327 1
72 330 1
72 331 1
72 337 1
72 344 1
72 352 1
72 354 1
72 355 1
72 360 1
72 361 1
72 362 1
72 377 1
72 379 1
72 382 1
72 389 1
72 390 1
72 396 1
72 399 1
72 400 1
72 405 1
72 408 1
72 414 1
72 421 1
72 422 1
72 424 1
72 428 1
72 432 1
72 434 1
72 438 1
72 440 1
72 442 1
72 443 1
72 447 1
72 458 1
72 464 1
72 468 1
72 472 1
72 479 1
72 483 1
72 487 1
72 493 1
72 494 1
72 501 1
72 503 1
72 504 1
72 509 1
72 510 1
72 516 1
72 517 1
72 524 1
72 525 1
72 526 1
72 527 1
72 540 1
72 541 1
72 548 1
72 553 1
72 558 1
72 566 1
72 571 1
72 583 1
72 586 1
72 595 1
73 6 1
73 11 1
73 15 1
73 18 1
73 20 1
73 25 1
73 39 1
73 59 1
73 66 1
73 67 1
73 68 1
73 69 1
73 70 1
73 71 1
73 72 1
73 75 1
73 78 1
73 81 1
73 84 1
73 86 1
73 88 1
73 92 1
73 96 1
73 101 1
73 104 1
73 109 1
73 110 1
73 112 1
73 125 1
73 127 1
73 132 1
73 137 1
73 141 1
73 149 1
73 153 1
73 155 1
73 167 1
73 169 1
73 174 1
73 176 1
73 179 1
73 182 1
73 185 1
73 192 1
73 194 1
73 200 1
73 204 1
73 211 1
73 212 1
73 215 1
73 216 1
73 220 1
73 226 1
73 229 1
73 230 1
73 232 1
73 236 1
73 244 1
73 250 1
73 251 1
73 254 1
73 256 1
73 257 1
73 259 1
73 261 1
73 266 1
73 267 1
73 274 1
73 276 1
73 277 1
73 280 1
73 284 1
73 297 1
73 299 1
73 307 1
73 309 1
73 322 1
73 324 1
73 326 1
73 328 1
73 330 1
73 334 1
73 343 1
73 346 1
73 347 1
73 352 1
73 354 1
73 355 1
73 357 1
73 358 1
73 368 1
73 370 1
73 378 1
73 381 1
73 390 1
73 391 1
73 400 1
73 404 1
73 405 1
73 406 1
73 413 1
73 426 1
73 428 1
73 430 1
73 441 1
73 442 1
73 447 1
73 455 1
73 477 1
73 478 1
73 489 1
73 492 1
73 499 1
73 500 1
73 507 1
73 509 1
73 510 1
73 516 1
73 525 1
73 528 1
73 529 1
73 539 1
73 545 1
73 552 1
73 555 1
73 559 1
73 562 1
73 564 1
73 565 1
73 568 1
73 569 1
73 572 1
73 575 1
73 578 1
73 579 1
73 590 1
73 599 1
73 600 1
74 7 1
74 20 1
74 21 1
74 24 1
74 25 1
74 32 1
74 39 1
74 44 1
74 45 1
74 48 1
74 53 1
74 57 1
74 76 1
74 85 1
74 90 1
74 98 1
74 102 1
74 109 1
74 111 1
74 112 1
74 122 1
74 126 1
74 136 1
74 144 1
74 145 1
74 147 1
74 153 1
74 154 1
74 155 1
74 156 1
74 162 1
74 170 1
74 172 1
74 174 1
74 180 1
74 184 1
74 187 1
74 191 1
74 192 1
74 198 1
74 199 1
74 207 1
74 210 1
74 211 1
74 213 1
74 215 1
74 216 1
74 220 1
74 222 1
74 225 1
74 235 1
74 240 1
74 245 1
74 262 1
74 269 1
74 286 1
74 288 1
74 297 1
74 299 1
74 302 1
74 305 1
74 309 1
74 318 1
74 321 1
74 322 1
74 329 1
74 331 1
74 332 1
74 335 1
74 337 1
74 344 1
74 345 1
74 350 1
74 368 1
74 371 1
74 378 1
74 380 1
74 386 1
74 387 1
74 392 1
74 398 1
74 407 1
74 408 1
74 410 1
74 415 1
74 435 1
74 440 1
74 441 1
74 442 1
74 447 1
74 457 1
74 459 1
74 463 1
74 467 1
74 478 1
74 482 1
74 489 1
74 491 1
74 496 1
74 498 1
74 500 1
74 505 1
74 511 1
74 512 1
74 518 1
74 525 1
74 528 1
74 530 1
74 531 1
74 536 1
74 539 1
74 545 1
74 547 1
74 551 1
74 554 1
74 556 1
74 563 1
74 566 1
74 569 1
74 574 1
74 577 1
74 582 1
74 583 1
74 587 1
74 588 1
74 589 1
74 593 1
74 595 1
74 598 1
74 599 1
75 16 1
75 17 1
75 18 1
75 21 1
75 30 1
75 34 1
75 48 1
75 49 1
75 55 1
75 63 1
75 65 1
75 71 1
75 73 1
75 76 1
75 84 1
75 99 1
75 102 1
75 104 1
75 111 1
75 112 1
75 119 1
75 128 1
75 130 1
75 134 1
75 135 1
75 136 1
75 142 1
75 150 1
75 154 1
75 159 1
75 160 1
75 163 1
75 167 1
75 176 1
75 185 1
75 198 1
75 204 1
75 208 1
75 213 1
75 214 1
75 221 1
75 232 1
75 233 1
75 239 1
75 240 1
75 248 1
75 250 1
75 254 1
75 262 1
75 263 1
75 264 1
75 267 1
75 268 1
75 272 1
75 275 1
75 280 1
75 281 1
75 287 1
75 297 1
75 298 1
75 302 1
75 304 1
75 310 1
75 315 1
75 320 1
75 326 1
75 330 1
75 335 1
75 338 1
75 350 1
75 364 1
75 371 1
75 381 1
75 384 1
75 385 1
75 387 1
75 388 1
75 392 1
75 394 1
75 397 1
75 408 1
75 409 1
75 410 1
75 416 1
75 423 1
75 426 1
75 430 1
75 436 1
75 439 1
75 443 1
75 444 1
75 446 1
75 461 1
75 462 1
75 463 1
75 472 1
75 475 1
75 476 1
75 482 1
75 484 1
75 495 1
75 496 1
75 499 1
75 507 1
75 509 1
75 510 1
75 513 1
75 514 1
75 516 1
75 518 1
75 548 1
75 549 1
75 562 1
75 571 1
75 572 1
75 577 1
75 584 1
75 587 1
75 591 1
75 598 1
75 599 1
75 600 1
76 5 1
76 7 1
76 10 1
76 13 1
76 18 1
76 23 1
76 37 1
76 40 1
76 45 1
76 48 1
76 61 1
76 62 1
76 65 1
76 67 1
76 74 1
76 75 1
76 78 1
76 85 1
76 88 1
76 94 1
76 97 1
76 107 1
76 112 1
76 123 1
76 125 1
76 133 1
76 145 1
76 149 1
76 155 1
76 157 1
76 160 1
76 162 1
76 166 1
76 170 1
76 171 1
76 181 1
76 182 1
76 183 1
76 189 1
76 195 1
76 199 1
76 204 1
76 206 1
76 219 1
76 220 1
76 222 1
76 223 1
76 230 1
76 235 1
76 237 1
76 238 1
76 255 1
76 267 1
76 269 1
76 276 1
76 280 1
76 291 1
76 296 1
76 298 1
76 300 1
76 313 1
76 319 1
76 326 1
76 328 1
76 329 1
76 340 1
76 342 1
76 354 1
76 355 1
76 358 1
76 362 1
76 368 1
76 370 1
76 372 1
76 384 1
76 385 1
76 392 1
76 399 1
76 402 1
76 406 1
76 413 1
76 421 1
76 426 1
76 430 1
76 432 1
76 437 1
76 444 1
76 450 1
76 453 1
76 467 1
76 469 1
76 471 1
76 479 1
76 486 1
76 487 1
76 493 1
76 495 1
76 500 1
76 502 1
76 506 1
76 508 1
76 511 1
76 520 1
76 525 1
76 528 1
76 529 1
76 536 1
76 544 1
76 549 1
76 553 1
76 563 1
76 568 1
76 570 1
76 571 1
76 575 1
76 585 1
76 587 1
76 590 1
76 592 1
76 600 1
77 3 1
77 11 1
77 20 1
77 43 1
77 53 1
77 55 1
77 56 1
77 64 1
77 67 1
77 68 1
77 94 1
77 97 1
77 106 1
77 109 1
77 116 1
77 126 1
77 129 1
77 132 1
77 138 1
77 139 1
77 141 1
77 151 1
77 153 1
77 155 1
77 156 1
77 176 1
77 178 1
77 188 1
77 194 1
77 199 1
77 200 1
77 204 1
77 206 1
77 208 1
77 210 1
77 217 1
77 218 1
77 221 1
77 230 1
77 234 1
77 255 1
77 261 1
77 268 1
77 276 1
77 277 1
77 280 1
77 281 1
77 283 1
77 285 1
77 296 1
77 299 1
77 312 1
77 319 1
77 324 1
77 330 1
77 331 1
77 335 1
77 337 1
77 338 1
77 340 1
77 342 1
77 348 1
77 352 1
77 353 1
77 355 1
77 360 1
77 361 1
77 365 1
77 367 1
77 377 1
77 382 1
77 384 1
77 388 1
77 392 1
77 394 1
77 399 1
77 404 1
77 407 1
77 410 1
77 416 1
77 434 1
77 439 1
77 448 1
77 450 1
77 453 1
77 454 1
77 455 1
77 458 1
77 465 1
77 466 1
77 477 1
77 478 1
77 487 1
77 490 1
77 491 1
77 497 1
77 499 1
77 504 1
77 507 1
77 512 1
77 518 1
77 528 1
77 542 1
77 553 1
77 554 1
77 556 1
77 561 1
77 563 1
77 581 1
78 3 1
78 7 1
78 10 1
78 12 1
78 17 1
78 28 1
78 30 1
78 39 1
78 46 1
78 48 1
78 54 1
78 57 1
78 60 1
78 61 1
78 65 1
78 73 1
78 76 1
78 81 1
78 82 1
78 85 1
78 89 1
78 90 1
78 93 1
78 98 1
78 100 1
78 101 1
78 109 1
78 114 1
78 116 1
78 123 1
78 133 1
78 134 1
78 139 1
78 140 1
78 141 1
78 153 1
78 156 1
78 159 1
78 162 1
78 164 1
78 166 1
78 174 1
78 176 1
78 180 1
78 188 1
78 199 1
78 200 1
78 207 1
78 220 1
78 227 1
78 231 1
78 232 1
78 236 1
78 238 1
78 243 1
78 248 1
78 255 1
78 257 1
78 259 1
78 262 1
78 266 1
78 269 1
78 272 1
78 273 1
78 279 1
78 280 1
78 281 1
78 287 1
78 288 1
78 296 1
78 305 1
78 307 1
78 313 1
78 314 1
78 318 1
78 321 1
78 334 1
78 341 1
78 349 1
78 359 1
78 367 1
78 368 1
78 375 1
78 377 1
78 378 1
78 382 1
78 387 1
78 391 1
78 392 1
78 397 1
78 400 1
78 404 1
78 409 1
78 410 1
78 413 1
78 415 1
78 416 1
78 418 1
78 419 1
78 429 1
78 433 1
78 441 1
78 445 1
78 453 1
78 454 1
78 457 1
78 460 1
78 468 1
78 471 1
78 477 1
78 487 1
78 500 1
78 504 1
78 505 1
78 506 1
78 507 1
78 518 1
78 519 1
78 523 1
78 543 1
78 546 1
78 548 1
78 553 1
78 556 1
78 557 1
78 558 1
78 559 1
78 562 1
78 565 1
78 570 1
78 573 1
78 574 1
78 575 1
78 585 1
78 589 1
78 598 1
79 10 1
79 14 1
79 16 1
79 21 1
79 24 1
79 27 1
79 31 1
79 34 1
79 40 1
79 48 1
79 56 1
79 62 1
79 63 1
79 66 1
79 69 1
79 91 1
79 99 1
79 104 1
79 110 1
79 114 1
79 119 1
79 120 1
79 126 1
79 133 1
79 134 1
79 135 1
79 142 1
79 144 1
79 146 1
79 147 1
79 150 1
79 160 1
79 162 1
79 167 1
79 168 1
79 173 1
79 177 1
79 178 1
79 180 1
79 181 1
79 185 1
79 189 1
79 190 1
79 192 1
79 206 1
79 210 1
79 212 1
79 216 1
79 224 1
79 227 1
79 234 1
79 236 1
79 244 1
79 256 1
79 257 1
79 266 1
79 269 1
79 274 1
79 290 1
79 296 1
79 298 1
79 300 1
79 312 1
79 318 1
79 330 1
79 332 1
79 337 1
79 345 1
79 347 1
79 365 1
79 372 1
79 379 1
79 384 1
79 386 1
79 405 1
79 409 1
79 414 1
79 416 1
79 417 1
79 420 1
79 422 1
79 424 1
79 426 1
79 433 1
79 434 1
79 441 1
79 453 1
79 454 1
79 457 1
79 462 1
79 465 1
79 466 1
79 472 1
79 474 1
79 477 1
79 478 1
79 479 1
79 490 1
79 492 1
79 495 1
79 498 1
79 500 1
79 504 1
79 510 1
79 516 1
79 520 1
79 530 1
79 538 1
79 541 1
79 542 1
79 543 1
79 547 1
79 554 1
79 556 1
79 569 1
79 572 1
79 578 1
79 583 1
79 593 1
79 594 1
79 600 1
80 4 1
80 11 1
80 16 1
80 19 1
80 22 1
80 23 1
80 26 1
80 31 1
80 33 1
80 35 1
80 37 1
80 40 1
80 41 1
80 43 1
80 50 1
80 56 1
80 58 1
80 69 1
80 71 1
80 101 1
80 107 1
80 110 1
80 120 1
80 121 1
80 123 1
80 134 1
80 135 1
80 140 1
80 151 1
80 154 1
80 164 1
80 171 1
80 175 1
80 178 1
80 179 1
80 186 1
80 191 1
80 202 1
80 203 1
80 206 1
80 208 1
80 228 1
80 238 1
80 243 1
80 244 1
80 246 1
80 262 1
80 266 1
80 267 1
80 269 1
80 285 1
80 287 1
80 293 1
80 296 1
80 299 1
80 301 1
80 310 1
80 325 1
80 328 1
80 337 1
80 356 1
80 364 1
80 365 1
80 370 1
80 386 1
80 389 1
80 390 1
80 396 1
80 397 1
80 404 1
80 406 1
80 407 1
80 420 1
80 421 1
80 426 1
80 427 1
80 428 1
80 433 1
80 437 1
80 438 1
80 442 1
80 446 1
80 448 1
80 456 1
80 457 1
80 462 1
80 466 1
80 472 1
80 477 1
80 486 1
80 490 1
80 492 1
80 493 1
80 495 1
80 502 1
80 518 1
80 519 1
80 524 1
80 525 1
80 527 1
80 530 1
80 537 1
80 539 1
80 542 1
80 543 1
80 553 1
80 559 1
80 562 1
80 567 1
80 570 1
80 574 1
80 597 1
81 2 1
81 3 1
81 23 1
81 36 1
81 38 1
81 42 1
81 55 1
81 59 1
81 66 1
81 73 1
81 78 1
81 82 1
81 88 1
81 92 1
81 95 1
81 101 1
81 106 1
81 109 1
81 118 1
81 119 1
81 129 1
81 143 1
81 146 1
81 147 1
81 151 1
81 155 1
81 156 1
81 168 1
81 178 1
81 180 1
81 188 1
81 191 1
81 193 1
81 194 1
81 201 1
81 203 1
81 208 1
81 210 1
81 218 1
81 221 1
81 233 1
81 240 1
81 241 1
81 243 1
81 271 1
81 273 1
81 280 1
81 282 1
81 283 1
81 286 1
81 292 1
81 297 1
81 299 1
81 303 1
81 304 1
81 305 1
81 308 1
81 309 1
81 310 1
81 318 1
81 324 1
81 325 1
81 330 1
81 335 1
81 340 1
81 361 1
81 364 1
81 370 1
81 375 1
81 384 1
81 390 1
81 396 1
81 397 1
81 398 1
81 404 1
81 411 1
81 415 1
81 418 1
81 419 1
81 423 1
81 424 1
81 434 1
81 446 1
81 457 1
81 458 1
81 461 1
81 466 1
81 468 1
81 469 1
81 470 1
81 475 1
81 477 1
81 479 1
81 480 1
81 487 1
81 496 1
81 499 1
81 502 1
81 512 1
81 514 1
81 517 1
81 518 1
81 519 1
81 530 1
81 531 1
81 532 1
81 533 1
81 539 1
81 541 1
81 542 1
81 546 1
81 550 1
81 557 1
81 559 1
81 560 1
81 561 1
81 564 1
81 588 1
81 598 1
82 6 1
82 16 1
82 21 1
82 22 1
82 29 1
82 36 1
82 39 1
82 41 1
82 42 1
82 45 1
82 53 1
82 60 1
82 61 1
82 63 1
82 72 1
82 78 1
82 81 1
82 84 1
82 85 1
82 86 1
82 87 1
82 90 1
82 95 1
82 101 1
82 103 1
82 104 1
82 106 1
82 121 1
82 123 1
82 126 1
82 127 1
82 130 1
82 136 1
82 137 1
82 145 1
82 148 1
82 151 1
82 170 1
82 174 1
82 175 1
82 180 1
82 188 1
82 196 1
82 215 1
82 216 1
82 217 1
82 221 1
82 233 1
82 234 1
82 238 1
82 244 1
82 245 1
82 246 1
82 249 1
82 251 1
82 260 1
82 261 1
82 262 1
82 281 1
82 285 1
82 297 1
82 303 1
82 304 1
82 308 1
82 309 1
82 314 1
82 325 1
82 338 1
82 339 1
82 344 1
82 349 1
82 353 1
82 359 1
82 361 1
82 362 1
82 366 1
82 371 1
82 377 1
82 379 1
82 382 1
82 386 1
82 397 1
82 398 1
82 400 1
82 412 1
82 415 1
82 418 1
82 432 1
82 433 1
82 439 1
82 441 1
82 443 1
82 450 1
82 452 1
82 453 1
82 454 1
82 456 1
82 459 1
82 462 1
82 464 1
82 466 1
82 468 1
82 469 1
82 470 1
82 479 1
82 481 1
82 482 1
82 485 1
82 489 1
82 491 1
82 493 1
82 505 1
82 508 1
82 509 1
82 510 1
82 516 1
82 521 1
82 526 1
82 529 1
82 537 1
82 543 1
82 550 1
82 557 1
82 562 1
82 566 1
82 571 1
82 572 1
82 577 1
82 580 1
82 588 1
82 591 1
82 598 1
82 600 1
83 2 1
83 4 1
83 6 1
83 11 1
83 14 1
83 30 1
83 36 1
83 45 1
83 47 1
83 49 1
83 55 1
83 60 1
83 64 1
83 70 1
83 72 1
83 90 1
83 107 1
83 109 1
83 111 1
83 122 1
83 127 1
83 129 1
83 135 1
83 136 1
83 138 1
83 140 1
83 141 1
83 144 1
83 146 1
83 148 1
83 151 1
83 154 1
83 158 1
83 159 1
83 162 1
83 163 1
83 165 1
83 169 1
83 171 1
83 177 1
83 194 1
83 204 1
83 210 1
83 211 1
83 214 1
83 216 1
83 217 1
83 218 1
83 220 1
83 222 1
83 224 1
83 226 1
83 239 1
83 245 1
83 246 1
83 248 1
83 253 1
83 256 1
83 260 1
83 267 1
83 269 1
83 272 1
83 275 1
83 281 1
83 283 1
83 289 1
83 313 1
83 317 1
83 318 1
83 320 1
83 321 1
83 322 1
83 323 1
83 324 1
83 339 1
83 340 1
83 342 1
83 345 1
83 346 1
83 357 1
83 366 1
83 367 1
83 375 1
83 389 1
83 391 1
83 393 1
83 394 1
83 395 1
83 400 1
83 402 1
83 404 1
83 406 1
83 409 1
83 422 1
83 423 1
83 425 1
83 427 1
83 434 1
83 441 1
83 442 1
83 448 1
83 454 1
83 458 1
83 461 1
83 462 1
83 467 1
83 476 1
83 478 1
83 497 1
83 500 1
83 501 1
83 510 1
83 513 1
83 515 1
83 516 1
83 519 1
83 520 1
83 524 1
83 527 1
83 529 1
83 531 1
83 537 1
83 538 1
83 540 1
83 545 1
83 547 1
83 557 1
83 558 1
83 571 1
83 572 1
83 583 1
83 589 1
83 597 1
83 600 1
84 6 1
84 11 1
84 24 1
84 26 1
84 41 1
84 44 1
84 46 1
84 52 1
84 54 1
84 55 1
84 57 1
84 60 1
84 62 1
84 67 1
84 70 1
84 73 1
84 75 1
84 82 1
84 98 1
84 109 1
84 112 1
84 117 1
84 118 1
84 125 1
84 132 1
84 133 1
84 136 1
84 141 1
84 148 1
84 151 1
84 154 1
84 155 1
84 156 1
84 157 1
84 161 1
84 162 1
84 164 1
84 165 1
84 169 1
84 172 1
84 174 1
84 175 1
84 184 1
84 197 1
84 199 1
84 201 1
84 202 1
84 203 1
84 206 1
84 207 1
84 219 1
84 223 1
84 225 1
84 231 1
84 233 1
84 236 1
84 237 1
84 238 1
84 240 1
84 243 1
84 247 1
84 260 1
84 264 1
84 265 1
84 266 1
84 277 1
84 279 1
84 280 1
84 284 1
84 299 1
84 303 1
84 314 1
84 321 1
84 324 1
84 334 1
84 338 1
84 339 1
84 342 1
84 343 1
84 362 1
84 366 1
84 367 1
84 371 1
84 383 1
84 386 1
84 395 1
84 397 1
84 400 1
84 403 1
84 404 1
84 409 1
84 412 1
84 413 1
84 416 1
84 419 1
84 420 1
84 425 1
84 426 1
84 427 1
84 438 1
84 439 1
84 451 1
84 453 1
84 455 1
84 456 1
84 462 1
84 464 1
84 471 1
84 476 1
84 481 1
84 482 1
84 490 1
84 497 1
84 502 1
84 503 1
84 512 1
84 513 1
84 514 1
84 519 1
84 523 1
84 526 1
84 540 1
84 541 1
84 542 1
84 544 1
84 546 1
84 548 1
84 552 1
84 557 1
84 560 1
84 562 1
84 566 1
84 575 1
84 600 1
85 1 1
85 8 1
85 9 1
85 12 1
85 24 1
85 27 1
85 30 1
85 39 1
85 41 1
85 50 1
85 56 1
85 68 1
85 70 1
85 74 1
85 76 1
85 78 1
85 82 1
85 89 1
85 105 1
85 107 1
85 113 1
85 123 1
85 124 1
85 128 1
85 137 1
85 140 1
85 142 1
85 144 1
85 152 1
85 154 1
85 165 1
85 169 1
85 182 1
85 184 1
85 195 1
85 198 1
85 200 1
85 203 1
85 206 1
85 217 1
85 220 1
85 225 1
85 234 1
85 235 1
85 238 1
85 239 1
85 244 1
85 275 1
85 276 1
85 285 1
85 287 1
85 293 1
85 299 1
85 303 1
85 311 1
85 321 1
85 328 1
85 331 1
85 332 1
85 338 1
85 341 1
85 344 1
85 366 1
85 368 1
85 372 1
85 376 1
85 381 1
85 383 1
85 388 1
85 389 1
85 390 1
85 392 1
85 393 1
85 409 1
85 416 1
85 428 1
85 444 1
85 446 1
85 449 1
85 451 1
85 461 1
85 471 1
85 477 1
85 491 1
85 496 1
85 502 1
85 503 1
85 505 1
85 512 1
85 527 1
85 534 1
85 535 1
85 540 1
85 544 1
85 549 1
85 552 1
85 554 1
85 564 1
85 570 1
85 589 1
85 593 1
85 598 1
86 1 1
86 5 1
86 6 1
86 9 1
86 16 1
86 32 1
86 36 1
86 40 1
86 44 1
86 46 1
86 54 1
86 59 1
86 73 1
86 82 1
86 88 1
86 97 1
86 107 1
86 111 1
86 114 1
86 116 1
86 131 1
86 141 1
86 148 1
86 151 1
86 158 1
86 162 1
86 166 1
86 169 1
86 175 1
86 176 1
86 183 1
86 184 1
86 189 1
86 195 1
86 205 1
86 207 1
86 214 1
86 232 1
86 234 1
86 242 1
86 249 1
86 250 1
86 253 1
86 258 1
86 263 1
86 264 1
86 269 1
86 270 1
86 274 1
86 281 1
86 285 1
86 288 1
86 294 1
86 306 1
86 316 1
86 326 1
86 332 1
86 347 1
86 348 1
86 349 1
86 350 1
86 351 1
86 352 1
86 364 1
86 371 1
86 372 1
86 374 1
86 384 1
86 395 1
86 406 1
86 413 1
86 415 1
86 417 1
86 418 1
86 432 1
86 436 1
86 437 1
86 443 1
86 450 1
86 469 1
86 489 1
86 490 1
86 492 1
86 501 1
86 504 1
86 505 1
86 507 1
86 514 1
86 515 1
86 543 1
86 546 1
86 548 1
86 552 1
86 554 1
86 557 1
86 559 1
86 563 1
86 565 1
86 567 1
86 570 1
86 586 1
86 593 1
86 596 1
86 599 1
87 2 1
87 24 1
87 26 1
87 31 1
87 35 1
87 39 1
87 44 1
87 45 1
87 48 1
87 49 1
87 57 1
87 82 1
87 91 1
87 97 1
87 99 1
87 101 1
87 115 1
87 116 1
87 117 1
87 124 1
87 127 1
87 133 1
87 142 1
87 143 1
87 152 1
87 158 1
87 165 1
87 166 1
87 167 1
87 175 1
87 178 1
87 188 1
87 191 1
87 195 1
87 201 1
87 202 1
87 209 1
87 210 1
87 237 1
87 240 1
87 253 1
87 258 1
87 263 1
87 266 1
87 273 1
87 283 1
87 289 1
87 290 1
87 292 1
87 296 1
87 297 1
87 299 1
87 313 1
87 324 1
87 325 1
87 327 1
87 342 1
87 354 1
87 357 1
87 364 1
87 366 1
87 369 1
87 372 1
87 378 1
87 379 1
87 389 1
87 391 1
87 392 1
87 397 1
87 403 1
87 408 1
87 409 1
87 410 1
87 412 1
87 415 1
87 427 1
87 431 1
87 451 1
87 452 1
87 454 1
87 458 1
87 477 1
87 483 1
87 488 1
87 494 1
87 500 1
87 506 1
87 509 1
87 513 1
87 516 1
87 518 1
87 521 1
87 523 1
87 526 1
87 530 1
87 531 1
87 539 1
87 543 1
87 545 1
87 547 1
87 551 1
87 554 1
87 562 1
87 578 1
87 580 1
87 588 1
87 597 1
88 2 1
88 5 1
88 26 1
88 30 1
88 32 1
88 33 1
88 35 1
88 50 1
88 51 1
88 52 1
88 53 1
88 55 1
88 56 1
88 63 1
88 64 1
88 69 1
88 73 1
88 76 1
88 81 1
88 86 1
88 90 1
88 91 1
88 99 1
88 104 1
88 105 1
88 106 1
88 119 1
88 120 1
88 124 1
88 125 1
88 128 1
88 130 1
88 145 1
88 154 1
88 155 1
88 158 1
88 161 1
88 169 1
88 174 1
88 188 1
88 193 1
88 200 1
88 205 1
88 206 1
88 212 1
88 215 1
88 218 1
88 219 1
88 227 1
88 229 1
88 230 1
88 235 1
88 236 1
88 237 1
88 241 1
88 248 1
88 270 1
88 278 1
88 286 1
88 288 1
88 290 1
88 291 1
88 298 1
88 302 1
88 313 1
88 314 1
88 317 1
88 318 1
88 322 1
88 330 1
88 334 1
88 336 1
88 342 1
88 343 1
88 347 1
88 351 1
88 354 1
88 355 1
88 363 1
88 364 1
88 366 1
88 372 1
88 373 1
88 375 1
88 378 1
88 387 1
88 388 1
88 394 1
88 395 1
88 404 1
88 406 1
88 412 1
88 414 1
88 421 1
88 428 1
88 430 1
88 435 1
88 445 1
88 448 1
88 459 1
88 465 1
88 469 1
88 474 1
88 477 1
88 481 1
88 490 1
88 491 1
88 493 1
88 494 1
88 495 1
88 496 1
88 497 1
88 503 1
88 507 1
88 508 1
88 519 1
88 520 1
88 521 1
88 522 1
88 526 1
88 529 1
88 531 1
88 544 1
88 549 1
88 560 1
88 562 1
88 572 1
88 575 1
88 580 1
88 583 1
88 587 1
88 589 1
88 595 1
89 3 1
89 9 1
89 15 1
89 20 1
89 21 1
89 25 1
89 26 1
89 30 1
89 32 1
89 41 1
89 51 1
89 58 1
89 61 1
89 71 1
89 78 1
89 85 1
89 103 1
89 108 1
89 112 1
89 114 1
89 119 1
89 121 1
89 130 1
89 131 1
89 146 1
89 148 1
89 157 1
89 169 1
89 171 1
89 177 1
89 187 1
89 200 1
89 202 1
89 205 1
89 206 1
89 208 1
89 211 1
89 213 1
89 214 1
89 220 1
89 227 1
89 230 1
89 240 1
89 241 1
89 242 1
89 245 1
89 246 1
89 247 1
89 248 1
89 249 1
89 252 1
89 253 1
89 255 1
89 259 1
89 261 1
89 271 1
89 273 1
89 282 1
89 285 1
89 286 1
89 287 1
89 288 1
89 296 1
89 297 1
89 306 1
89 322 1
89 329 1
89 344 1
89 348 1
89 350 1
89 351 1
89 364 1
89 368 1
89 369 1
89 385 1
89 389 1
89 396 1
89 397 1
89 403 1
89 405 1
89 407 1
89 414 1
89 420 1
89 421 1
89 423 1
89 436 1
89 440 1
89 448 1
89 451 1
89 452 1
89 459 1
89 460 1
89 465 1
89 466 1
89 467 1
89 469 1
89 471 1
89 476 1
89 494 1
89 503 1
89 505 1
89 506 1
89 511 1
89 512 1
89 514 1
89 516 1
89 535 1
89 537 1
89 539 1
89 544 1
89 549 1
89 550 1
89 553 1
89 555 1
89 556 1
89 560 1
89 564 1
89 566 1
89 571 1
89 574 1
89 578 1
89 580 1
89 581 1
89 582 1
89 586 1
89 588 1
89 590 1
89 591 1
89 592 1
90 4 1
90 7 1
90 14 1
90 20 1
90 27 1
90 37 1
90 43 1
90 46 1
90 51 1
90 58 1
90 67 1
90 71 1
90 74 1
90 78 1
90 82 1
90 83 1
90 88 1
90 96 1
90 102 1
90 103 1
90 108 1
90 117 1
90 128 1
90 130 1
90 139 1
90 141 1
90 144 1
90 146 1
90 151 1
90 159 1
90 165 1
90 166 1
90 172 1
90 174 1
90 176 1
90 178 1
90 180 1
90 191 1
90 195 1
90 199 1
90 205 1
90 213 1
90 216 1
90 218 1
90 223 1
90 242 1
90 252 1
90 253 1
90 255 1
90 266 1
90 270 1
90 274 1
90 278 1
90 285 1
90 293 1
90 297 1
90 303 1
90 307 1
90 313 1
90 320 1
90 327 1
90 335 1
90 338 1
90 341 1
90 343 1
90 347 1
90 351 1
90 353 1
90 355 1
90 358 1
90 362 1
90 368 1
90 377 1
90 381 1
90 382 1
90 383 1
90 384 1
90 399 1
90 405 1
90 418 1
90 427 1
90 428 1
90 429 1
90 430 1
90 435 1
90 436 1
90 441 1
90 455 1
90 460 1
90 468 1
90 472 1
90 488 1
90 509 1
90 511 1
90 523 1
90 534 1
90 538 1
90 539 1
90 540 1
90 543 1
90 553 1
90 555 1
90 563 1
90 568 1
90 576 1
90 585 1
90 596 1
91 9 1
91 13 1
91 24 1
91 25 1
91 31 1
91 40 1
91 41 1
91 42 1
91 46 1
91 51 1
91 52 1
91 55 1
91 57 1
91 60 1
91 79 1
91 87 1
91 88 1
91 93 1
91 94 1
91 95 1
91 101 1
91 104 1
91 106 1
91 113 1
91 120 1
91 121 1
91 125 1
91 130 1
91 138 1
91 140 1
91 143 1
91 147 1
91 151 1
91 159 1
91 179 1
91 180 1
91 183 1
91 188 1
91 192 1
91 212 1
91 216 1
91 226 1
91 228 1
91 229 1
91 232 1
91 234 1
91 235 1
91 238 1
91 245 1
91 246 1
91 252 1
91 254 1
91 260 1
91 268 1
91 271 1
91 280 1
91 290 1
91 291 1
91 292 1
91 295 1
91 298 1
91 301 1
91 304 1
91 305 1
91 309 1
91 310 1
91 314 1
91 319 1
91 323 1
91 345 1
91 348 1
91 358 1
91 381 1
91 388 1
91 418 1
91 422 1
91 433 1
91 439 1
91 453 1
91 454 1
91 460 1
91 464 1
91 471 1
91 479 1
91 481 1
91 489 1
91 492 1
91 493 1
91 494 1
91 499 1
91 501 1
91 504 1
91 506 1
91 518 1
91 525 1
91 544 1
91 548 1
91 549 1
91 550 1
91 558 1
91 559 1
91 586 1
91 588 1
91 600 1
92 10 1
92 12 1
92 15 1
92 17 1
92 32 1
92 33 1
92 36 1
92 45 1
92 49 1
92 72 1
92 73 1
92 81 1
92 99 1
92 103 1
92 113 1
92 114 1
92 117 1
92 119 1
92 130 1
92 131 1
92 132 1
92 133 1
92 136 1
92 139 1
92 146 1
92 163 1
92 166 1
92 168 1
92 169 1
92 178 1
92 181 1
92 184 1
92 185 1
92 193 1
92 196 1
92 208 1
92 213 1
92 240 1
92 241 1
92 243 1
92 245 1
92 249 1
92 254 1
92 266 1
92 280 1
92 293 1
92 294 1
92 299 1
92 300 1
92 307 1
92 312 1
92 323 1
92 324 1
92 330 1
92 333 1
92 335 1
92 353 1
92 356 1
92 364 1
92 370 1
92 373 1
92 379 1
92 380 1
92 381 1
92 385 1
92 386 1
92 393 1
92 396 1
92 398 1
92 399 1
92 405 1
92 406 1
92 410 1
92 411 1
92 421 1
92 422 1
92 424 1
92 431 1
92 441 1
92 445 1
92 446 1
92 447 1
92 452 1
92 453 1
92 455 1
92 456 1
92 457 1
92 464 1
92 468 1
92 474 1
92 493 1
92 494 1
92 498 1
92 501 1
92 533 1
92 534 1
92 537 1
92 538 1
92 541 1
92 552 1
92 555 1
92 559 1
92 561 1
92 579 1
92 585 1
92 598 1
92 599 1
93 4 1
93 10 1
93 21 1
93 22 1
93 31 1
93 39 1
93 50 1
93 55 1
93 58 1
93 66 1
93 70 1
93 78 1
93 91 1
93 96 1
93 117 1
93 123 1
93 131 1
93 133 1
93 134 1
93 141 1
93 144 1
93 146 1
93 147 1
93 149 1
93 150 1
93 155 1
93 157 1
93 161 1
93 164 1
93 167 1
93 182 1
93 187 1
93 191 1
93 202 1
93 205 1
93 214 1
93 221 1
93 229 1
93 234 1
93 243 1
93 245 1
93 250 1
93 257 1
93 264 1
93 268 1
93 273 1
93 278 1
93 283 1
93 284 1
93 286 1
93 302 1
93 303 1
93 304 1
93 306 1
93 308 1
93 315 1
93 321 1
93 329 1
93 331 1
93 332 1
93 334 1
93 335 1
93 338 1
93 339 1
93 342 1
93 343 1
93 344 1
93 347 1
93 350 1
93 351 1
93 353 1
93 365 1
93 366 1
93 376 1
93 377 1
93 378 1
93 380 1
93 389 1
93 392 1
93 398 1
93 402 1
93 406 1
93 409 1
93 410 1
93 412 1
93 414 1
93 416 1
93 418 1
93 421 1
93 425 1
93 429 1
93 431 1
93 441 1
93 463 1
93 469 1
93 474 1
93 475 1
93 478 1
93 483 1
93 484 1
93 489 1
93 490 1
93 495 1
93 510 1
93 514 1
93 520 1
93 522 1
93 525 1
93 534 1
93 536 1
93 541 1
93 542 1
93 546 1
93 550 1
93 553 1
93 563 1
93 567 1
93 568 1
93 584 1
93 590 1
93 592 1
93 595 1
94 7 1
94 9 1
94 19 1
94 24 1
94 29 1
94 46 1
94 50 1
94 57 1
94 58 1
94 63 1
94 67 1
94 76 1
94 77 1
94 91 1
94 103 1
94 105 1
94 106 1
94 117 1
94 120 1
94 124 1
94 128 1
94 131 1
94 134 1
94 143 1
94 146 1
94 147 1
94 163 1
94 166 1
94 167 1
94 169 1
94 172 1
94 182 1
94 183 1
94 190 1
94 192 1
94 198 1
94 219 1
94 221 1
94 234 1
94 237 1
94 242 1
94 248 1
94 252 1
94 257 1
94 258 1
94 272 1
94 273 1
94 277 1
94 279 1
94 280 1
94 283 1
94 289 1
94 290 1
94 295 1
94 300 1
94 303 1
94 304 1
94 306 1
94 307 1
94 309 1
94 311 1
94 313 1
94 314 1
94 317 1
94 324 1
94 326 1
94 334 1
94 336 1
94 338 1
94 346 1
94 347 1
94 349 1
94 360 1
94 363 1
94 364 1
94 370 1
94 372 1
94 374 1
94 376 1
94 377 1
94 386 1
94 388 1
94 397 1
94 399 1
94 412 1
94 413 1
94 416 1
94 429 1
94 434 1
94 442 1
94 446 1
94 457 1
94 463 1
94 471 1
94 481 1
94 495 1
94 507 1
94 508 1
94 510 1
94 513 1
94 515 1
94 528 1
94 534 1
94 538 1
94 540 1
94 544 1
94 550 1
94 553 1
94 555 1
94 556 1
94 557 1
94 562 1
94 565 1
94 569 1
94 572 1
94 575 1
94 580 1
94 588 1
94 589 1
95 4 1
95 8 1
95 32 1
95 38 1
95 41 1
95 53 1
95 55 1
95 58 1
95 64 1
95 66 1
95 71 1
95 81 1
95 82 1
95 91 1
95 100 1
95 113 1
95 123 1
95 126 1
95 127 1
95 131 1
95 134 1
95 135 1
95 136 1
95 137 1
95 139 1
95 140 1
95 141 1
95 143 1
95 148 1
95 157 1
95 167 1
95 173 1
95 177 1
95 181 1
95 182 1
95 188 1
95 190 1
95 193 1
95 197 1
95 199 1
95 203 1
95 210 1
95 219 1
95 231 1
95 232 1
95 233 1
95 246 1
95 249 1
95 251 1
95 254 1
95 255 1
95 275 1
95 276 1
95 284 1
95 288 1
95 294 1
95 296 1
95 302 1
95 306 1
95 307 1
95 308 1
95 311 1
95 315 1
95 318 1
95 320 1
95 324 1
95 325 1
95 339 1
95 341 1
95 344 1
95 358 1
95 363 1
95 367 1
95 372 1
95 376 1
95 380 1
95 388 1
95 401 1
95 403 1
95 406 1
95 407 1
95 412 1
95 421 1
95 428 1
95 429 1
95 435 1
95 436 1
95 440 1
95 447 1
95 450 1
95 455 1
95 464 1
95 476 1
95 477 1
95 485 1
95 486 1
95 487 1
95 488 1
95 498 1
95 500 1
95 504 1
95 506 1
95 516 1
95 522 1
95 536 1
95 542 1
95 545 1
95 558 1
95 559 1
95 561 1
95 568 1
96 7 1
96 9 1
96 11 1
96 14 1
96 15 1
96 18 1
96 25 1
96 27 1
96 28 1
96 36 1
96 41 1
96 43 1
96 49 1
96 50 1
96 58 1
96 63 1
96 68 1
96 73 1
96 90 1
96 93 1
96 108 1
96 109 1
96 113 1
96 123 1
96 129 1
96 130 1
96 135 1
96 136 1
96 138 1
96 140 1
96 151 1
96 153 1
96 156 1
96 169 1
96 175 1
96 184 1
96 187 1
96 200 1
96 201 1
96 202 1
96 204 1
96 211 1
96 213 1
96 216 1
96 217 1
96 224 1
96 239 1
96 247 1
96 249 1
96 255 1
96 257 1
96 268 1
96 274 1
96 275 1
96 277 1
96 284 1
96 292 1
96 297 1
96 300 1
96 304 1
96 309 1
96 319 1
96 330 1
96 332 1
96 337 1
96 344 1
96 347 1
96 353 1
96 360 1
96 362 1
96 365 1
96 372 1
96 377 1
96 383 1
96 391 1
96 393 1
96 407 1
96 408 1
96 410 1
96 413 1
96 421 1
96 430 1
96 433 1
96 437 1
96 454 1
96 468 1
96 476 1
96 477 1
96 482 1
96 502 1
96 505 1
96 507 1
96 515 1
96 519 1
96 524 1
96 531 1
96 538 1
96 539 1
96 540 1
96 551 1
96 552 1
96 568 1
96 569 1
96 571 1
96 585 1
96 586 1
96 588 1
96 594 1
96 599 1
97 3 1
97 6 1
97 15 1
97 16 1
97 21 1
97 22 1
97 41 1
97 44 1
97 48 1
97 49 1
97 51 1
97 52 1
97 56 1
97 59 1
97 76 1
97 77 1
97 86 1
97 87 1
97 99 1
97 104 1
97 109 1
97 117 1
97 118 1
97 119 1
97 120 1
97 129 1
97 133 1
97 137 1
97 138 1
97 139 1
97 140 1
97 164 1
97 173 1
97 178 1
97 179 1
97 191 1
97 194 1
97 197 1
97 207 1
97 210 1
97 215 1
97 222 1
97 223 1
97 235 1
97 238 1
97 239 1
97 241 1
97 252 1
97 257 1
97 258 1
97 261 1
97 262 1
97 263 1
97 277 1
97 280 1
97 283 1
97 288 1
97 290 1
97 297 1
97 298 1
97 299 1
97 304 1
97 312 1
97 314 1
97 315 1
97 316 1
97 325 1
97 336 1
97 338 1
97 341 1
97 344 1
97 349 1
97 354 1
97 355 1
97 356 1
97 359 1
97 360 1
97 381 1
97 388 1
97 389 1
97 400 1
97 404 1
97 407 1
97 409 1
97 423 1
97 429 1
97 439 1
97 440 1
97 452 1
97 459 1
97 462 1
97 466 1
97 468 1
97 476 1
97 480 1
97 483 1
97 492 1
97 498 1
97 499 1
97 504 1
97 506 1
97 512 1
97 517 1
97 523 1
97 526 1
97 529 1
97 531 1
97 533 1
97 534 1
97 544 1
97 549 1
97 560 1
97 561 1
97 568 1
97 578 1
97 590 1
97 591 1
97 593 1
97 595 1
97 596 1
97 597 1
98 1 1
98 7 1
98 13 1
98 14 1
98 15 1
98 27 1
98 54 1
98 66 1
98 74 1
98 78 1
98 84 1
98 99 1
98 103 1
98 109 1
98 110 1
98 134 1
98 137 1
98 146 1
98 147 1
98 155 1
98 158 1
98 159 1
98 167 1
98 171 1
98 174 1
98 183 1
98 185 1
98 189 1
98 197 1
98 208 1
98 213 1
98 221 1
98 227 1
98 235 1
98 245 1
98 249 1
98 250 1
98 254 1
98 257 1
98 268 1
98 269 1
98 271 1
98 286 1
98 290 1
98 291 1
98 295 1
98 300 1
98 310 1
98 313 1
98 314 1
98 315 1
98 316 1
98 321 1
98 322 1
98 330 1
98 334 1
98 343 1
98 344 1
98 346 1
98 354 1
98 358 1
98 363 1
98 367 1
98 371 1
98 373 1
98 383 1
98 387 1
98 390 1
98 392 1
98 394 1
98 399 1
98 404 1
98 405 1
98 408 1
98 416 1
98 418 1
98 422 1
98 426 1
98 431 1
98 436 1
98 437 1
98 439 1
98 441 1
98 443 1
98 451 1
98 455 1
98 477 1
98 488 1
98 490 1
98 494 1
98 495 1
98 500 1
98 506 1
98 509 1
98 511 1
98 515 1
98 517 1
98 522 1
98 529 1
98 546 1
98 547 1
98 552 1
98 564 1
98 566 1
98 578 1
98 584 1
98 585 1
98 591 1
98 597 1
98 600 1
99 10 1
99 17 1
99 19 1
99 21 1
99 24 1
99 26 1
99 32 1
99 34 1
99 35 1
99 36 1
99 44 1
99 45 1
99 46 1
99 48 1
99 64 1
99 70 1
99 71 1
99 75 1
99 79 1
99 87 1
99 88 1
99 92 1
99 97 1
99 98 1
99 100 1
99 103 1
99 105 1
99 128 1
99 137 1
99 141 1
99 142 1
99 145 1
99 155 1
99 159 1
99 166 1
99 168 1
99 171 1
99 178 1
99 190 1
99 194 1
99 201 1
99 206 1
99 208 1
99 210 1
99 216 1
99 224 1
99 227 1
99 228 1
99 232 1
99 233 1
99 239 1
99 243 1
99 254 1
99 273 1
99 275 1
99 276 1
99 288 1
99 298 1
99 302 1
99 311 1
99 312 1
99 321 1
99 338 1
99 341 1
99 342 1
99 345 1
99 360 1
99 362 1
99 364 1
99 366 1
99 369 1
99 373 1
99 375 1
99 376 1
99 388 1
99 398 1
99 400 1
99 402 1
99 404 1
99 405 1
99 413 1
99 416 1
99 417 1
99 423 1
99 425 1
99 427 1
99 428 1
99 431 1
99 439 1
99 443 1
99 450 1
99 451 1
99 464 1
99 469 1
99 470 1
99 472 1
99 473 1
99 475 1
99 478 1
99 481 1
99 498 1
99 504 1
99 508 1
99 512 1
99 516 1
99 529 1
99 539 1
99 545 1
99 546 1
99 547 1
99 557 1
99 564 1
99 565 1
99 566 1
99 567 1
99 584 1
99 594 1
99 595 1
99 597 1
99 600 1
100 2 1
100 3 1
100 7 1
100 8 1
100 17 1
100 19 1
100 28 1
100 35 1
100 49 1
100 56 1
100 59 1
100 63 1
100 65 1
100 68 1
100 71 1
100 78 1
100 95 1
100 99 1
100 101 1
100 104 1
100 112 1
100 113 1
100 114 1
100 119 1
100 122 1
100 125 1
100 128 1
100 139 1
100 145 1
100 146 1
100 148 1
100 150 1
100 152 1
100 157 1
100 167 1
100 168 1
100 173 1
100 174 1
100 176 1
100 182 1
100 187 1
100 188 1
100 191 1
100 194 1
100 202 1
100 204 1
100 216 1
100 224 1
100 225 1
100 231 1
100 242 1
100 245 1
100 248 1
100 250 1
100 256 1
100 258 1
100 259 1
100 263 1
100 268 1
100 274 1
100 275 1
100 276 1
100 279 1
100 282 1
100 283 1
100 290 1
100 296 1
100 304 1
100 310 1
100 316 1
100 327 1
100 335 1
100 337 1
100 339 1
100 346 1
100 353 1
100 358 1
100 364 1
100 365 1
100 368 1
100 374 1
100 377 1
100 382 1
100 388 1
100 395 1
100 397 1
100 402 1
100 405 1
100 407 1
100 416 1
100 420 1
100 425 1
100 426 1
100 427 1
100 433 1
100 442 1
100 446 1
100 453 1
100 455 1
100 460 1
100 461 1
100 468 1
100 473 1
100 480 1
100 495 1
100 496 1
100 499 1
100 500 1
100 505 1
100 513 1
100 539 1
100 541 1
100 543 1
100 545 1
100 548 1
100 553 1
100 560 1
100 565 1
100 567 1
100 575 1
100 579 1
100 585 1
100 587 1
100 588 1
100 589 1
100 593 1
100 597 1
101 4 1
101 6 1
101 8 1
101 13 1
101 21 1
101 28 1
101 37 1
101 39 1
101 41 1
101 51 1
101 56 1
101 57 1
101 60 1
101 61 1
101 66 1
101 69 1
101 70 1
101 73 1
101 78 1
101 80 1
101 81 1
101 82 1
101 87 1
101 91 1
101 100 1
101 103 1
101 108 1
101 110 1
101 111 1
101 114 1
101 115 1
101 118 1
101 121 1
101 122 1
101 127 1
101 128 1
101 129 1
101 131 1
101 133 1
101 141 1
101 142 1
101 149 1
101 152 1
101 155 1
101 156 1
101 163 1
101 165 1
101 174 1
101 175 1
101 181 1
101 182 1
101 186 1
101 192 1
101 200 1
101 213 1
101 216 1
101 221 1
101 225 1
101 238 1
101 241 1
101 244 1
101 251 1
101 254 1
101 255 1
101 256 1
101 261 1
101 265 1
101 267 1
101 289 1
101 295 1
101 306 1
101 312 1
101 314 1
101 317 1
101 318 1
101 319 1
101 321 1
101 323 1
101 324 1
101 326 1
101 327 1
101 329 1
101 337 1
101 338 1
101 353 1
101 361 1
101 363 1
101 370 1
101 374 1
101 376 1
101 377 1
101 378 1
101 390 1
101 408 1
101 410 1
101 415 1
101 422 1
101 426 1
101 434 1
101 435 1
101 440 1
101 442 1
101 445 1
101 450 1
101 455 1
101 465 1
101 477 1
101 482 1
101 484 1
101 485 1
101 488 1
101 491 1
101 493 1
101 500 1
101 509 1
101 514 1
101 522 1
101 526 1
101 533 1
101 541 1
101 542 1
101 549 1
101 553 1
101 554 1
101 558 1
101 571 1
101 575 1
101 579 1
101 599 1
101 600 1
102 6 1
102 9 1
102 13 1
102 16 1
102 20 1
102 22 1
102 31 1
102 34 1
102 39 1
102 41 1
102 44 1
102 48 1
102 53 1
102 65 1
102 74 1
102 75 1
102 90 1
102 104 1
102 108 1
102 110 1
102 111 1
102 118 1
102 121 1
102 123 1
102 127 1
102 128 1
102 129 1
102 134 1
102 136 1
102 138 1
102 139 1
102 149 1
102 156 1
102 157 1
102 164 1
102 169 1
102 170 1
102 180 1
102 185 1
102 191 1
102 198 1
102 199 1
102 200 1
102 202 1
102 205 1
102 206 1
102 211 1
102 214 1
102 225 1
102 234 1
102 236 1
102 238 1
102 239 1
102 242 1
102 243 1
102 248 1
102 250 1
102 254 1
102 256 1
102 259 1
102 265 1
102 276 1
102 283 1
102 288 1
102 305 1
102 310 1
102 323 1
102 325 1
102 337 1
102 343 1
102 352 1
102 356 1
102 358 1
102 361 1
102 375 1
102 377 1
102 388 1
102 396 1
102 399 1
102 406 1
102 407 1
102 413 1
102 414 1
102 415 1
102 418 1
102 423 1
102 428 1
102 432 1
102 433 1
102 439 1
102 442 1
102 445 1
102 457 1
102 463 1
102 466 1
102 475 1
102 477 1
102 480 1
102 482 1
102 484 1
102 492 1
102 493 1
102 499 1
102 509 1
102 511 1
102 517 1
102 518 1
102 522 1
102 524 1
102 528 1
102 531 1
102 533 1
102 534 1
102 539 1
102 542 1
102 548 1
102 550 1
102 552 1
102 553 1
102 561 1
102 564 1
102 565 1
102 572 1
102 583 1
102 586 1
102 587 1
102 595 1
102 596 1
102 600 1
103 10 1
103 12 1
103 16 1
103 21 1
103 27 1
103 28 1
103 29 1
103 34 1
103 38 1
103 39 1
103 45 1
103 47 1
103 53 1
103 57 1
103 58 1
103 59 1
103 61 1
103 66 1
103 70 1
103 82 1
103 89 1
103 90 1
103 92 1
103 94 1
103 98 1
103 99 1
103 101 1
103 110 1
103 113 1
103 120 1
103 123 1
103 128 1
103 131 1
103 136 1
103 138 1
103 139 1
103 150 1
103 152 1
103 163 1
103 171 1
103 188 1
103 196 1
103 200 1
103 208 1
103 215 1
103 221 1
103 222 1
103 225 1
103 227 1
103 233 1
103 234 1
103 240 1
103 242 1
103 243 1
103 244 1
103 248 1
103 256 1
103 258 1
103 259 1
103 264 1
103 271 1
103 274 1
103 279 1
103 284 1
103 290 1
103 294 1
103 296 1
103 302 1
103 310 1
103 314 1
103 315 1
103 318 1
103 325 1
103 326 1
103 332 1
103 336 1
103 337 1
103 338 1
103 343 1
103 348 1
103 356 1
103 357 1
103 366 1
103 367 1
103 369 1
103 380 1
103 385 1
103 390 1
103 398 1
103 401 1
103 404 1
103 412 1
103 420 1
103 424 1
103 432 1
103 440 1
103 443 1
103 455 1
103 457 1
103 458 1
103 462 1
103 467 1
103 473 1
103 485 1
103 492 1
103 495 1
103 501 1
103 502 1
103 505 1
103 507 1
103 512 1
103 517 1
103 518 1
103 523 1
103 539 1
103 540 1
103 543 1
103 544 1
103 545 1
103 548 1
103 555 1
103 561 1
103 576 1
103 583 1
103 587 1
103 592 1
103 595 1
104 2 1
104 4 1
104 6 1
104 7 1
104 13 1
104 15 1
104 29 1
104 31 1
104 33 1
104 34 1
104 36 1
104 38 1
104 40 1
104 46 1
104 51 1
104 54 1
104 55 1
104 56 1
104 62 1
104 63 1
104 70 1
104 72 1
104 73 1
104 75 1
104 79 1
104 82 1
104 88 1
104 91 1
104 97 1
104 100 1
104 102 1
104 105 1
104 108 1
104 112 1
104 114 1
104 116 1
104 121 1
104 125 1
104 127 1
104 131 1
104 134 1
104 151 1
104 152 1
104 154 1
104 158 1
104 161 1
104 165 1
104 174 1
104 183 1
104 188 1
104 191 1
104 192 1
104 207 1
104 219 1
104 224 1
104 234 1
104 243 1
104 248 1
104 249 1
104 272 1
104 274 1
104 278 1
104 286 1
104 293 1
104 295 1
104 296 1
104 302 1
104 312 1
104 314 1
104 318 1
104 321 1
104 332 1
104 342 1
104 343 1
104 344 1
104 348 1
104 350 1
104 352 1
104 353 1
104 356 1
104 363 1
104 365 1
104 366 1
104 371 1
104 373 1
104 375 1
104 377 1
104 392 1
104 394 1
104 395 1
104 402 1
104 404 1
104 405 1
104 411 1
104 417 1
104 422 1
104 428 1
104 430 1
104 434 1
104 440 1
104 443 1
104 447 1
104 452 1
104 453 1
104 459 1
104 467 1
104 468 1
104 469 1
104 481 1
104 482 1
104 485 1
104 496 1
104 503 1
104 508 1
104 509 1
104 512 1
104 517 1
104 518 1
104 519 1
104 520 1
104 524 1
104 534 1
104 543 1
104 545 1
104 547 1
104 548 1
104 551 1
104 553 1
104 555 1
104 560 1
104 564 1
104 565 1
104 566 1
104 580 1
104 581 1
104 586 1
104 587 1
104 590 1
104 591 1
104 593 1
104 595 1
104 598 1
105 19 1
105 20 1
105 23 1
105 26 1
105 32 1
105 34 1
105 47 1
105 51 1
105 56 1
105 72 1
105 85 1
105 88 1
105 94 1
105 99 1
105 104 1
105 106 1
105 113 1
105 114 1
105 116 1
105 120 1
105 122 1
105 123 1
105 129 1
105 131 1
105 132 1
105 142 1
105 144 1
105 146 1
105 154 1
105 155 1
105 156 1
105 160 1
105 161 1
105 166 1
105 168 1
105 171 1
105 181 1
105 183 1
105 185 1
105 187 1
105 189 1
105 190 1
105 191 1
105 197 1
105 198 1
105 199 1
105 202 1
105 204 1
105 211 1
105 215 1
105 219 1
105 229 1
105 231 1
105 232 1
105 234 1
105 245 1
105 247 1
105 256 1
105 259 1
105 267 1
105 274 1
105 276 1
105 279 1
105 280 1
105 285 1
105 286 1
105 287 1
105 290 1
105 293 1
105 294 1
105 297 1
105 299 1
105 300 1
105 302 1
105 318 1
105 325 1
105 328 1
105 330 1
105 347 1
105 356 1
105 358 1
105 360 1
105 368 1
105 382 1
105 385 1
105 391 1
105 394 1
105 405 1
105 408 1
105 411 1
105 423 1
105 426 1
105 429 1
105 430 1
105 435 1
105 436 1
105 437 1
105 438 1
105 443 1
105 446 1
105 450 1
105 454 1
105 457 1
105 465 1
105 471 1
105 473 1
105 475 1
105 480 1
105 482 1
105 483 1
105 484 1
105 494 1
105 500 1
105 506 1
105 509 1
105 511 1
105 517 1
105 518 1
105 528 1
105 532 1
105 538 1
105 539 1
105 543 1
105 547 1
105 548 1
105 559 1
105 561 1
105 565 1
105 574 1
105 575 1
105 586 1
105 588 1
105 589 1
105 590 1
105 593 1
105 594 1
106 3 1
106 5 1
106 6 1
106 14 1
106 25 1
106 29 1
106 34 1
106 35 1
106 42 1
106 63 1
106 66 1
106 70 1
106 77 1
106 81 1
106 82 1
106 88 1
106 91 1
106 94 1
106 105 1
106 107 1
106 108 1
106 114 1
106 116 1
106 120 1
106 129 1
106 131 1
106 154 1
106 174 1
106 176 1
106 177 1
106 184 1
106 185 1
106 193 1
106 194 1
106 198 1
106 200 1
106 205 1
106 209 1
106 211 1
106 222 1
106 226 1
106 230 1
106 231 1
106 238 1
106 239 1
106 242 1
106 244 1
106 247 1
106 259 1
106 262 1
106 265 1
106 275 1
106 284 1
106 290 1
106 297 1
106 301 1
106 307 1
106 309 1
106 310 1
106 312 1
106 319 1
106 320 1
106 324 1
106 327 1
106 328 1
106 329 1
106 337 1
106 342 1
106 345 1
106 353 1
106 355 1
106 356 1
106 357 1
106 358 1
106 361 1
106 363 1
106 364 1
106 367 1
106 368 1
106 370 1
106 374 1
106 388 1
106 394 1
106 404 1
106 415 1
106 418 1
106 419 1
106 423 1
106 430 1
106 449 1
106 453 1
106 456 1
106 464 1
106 470 1
106 472 1
106 474 1
106 479 1
106 481 1
106 489 1
106 498 1
106 503 1
106 506 1
106 513 1
106 516 1
106 521 1
106 524 1
106 540 1
106 541 1
106 542 1
106 544 1
106 550 1
106 556 1
106 559 1
106 561 1
106 562 1
106 563 1
106 568 1
106 580 1
106 583 1
106 584 1
106 586 1
106 587 1
106 588 1
106 599 1
107 14 1
107 16 1
107 20 1
107 21 1
107 31 1
107 35 1
107 39 1
107 42 1
107 46 1
107 47 1
107 52 1
107 62 1
107 63 1
107 66 1
107 67 1
107 68 1
107 76 1
107 80 1
107 83 1
107 85 1
107 86 1
107 106 1
107 109 1
107 115 1
107 119 1
107 123 1
107 124 1
107 128 1
107 129 1
107 137 1
107 144 1
107 148 1
107 149 1
107 150 1
107 155 1
107 157 1
107 160 1
107 161 1
107 166 1
107 171 1
107 174 1
107 175 1
107 179 1
107 182 1
107 187 1
107 191 1
107 192 1
107 195 1
107 199 1
107 204 1
107 206 1
107 210 1
107 220 1
107 223 1
107 224 1
107 227 1
107 228 1
107 248 1
107 255 1
107 257 1
107 260 1
107 268 1
107 269 1
107 271 1
107 276 1
107 277 1
107 288 1
107 290 1
107 296 1
107 299 1
107 301 1
107 302 1
107 306 1
107 311 1
107 317 1
107 333 1
107 334 1
107 335 1
107 341 1
107 344 1
107 348 1
107 349 1
107 350 1
107 351 1
107 352 1
107 354 1
107 355 1
107 360 1
107 365 1
107 370 1
107 374 1
107 376 1
107 383 1
107 385 1
107 386 1
107 390 1
107 391 1
107 396 1
107 413 1
107 418 1
107 420 1
107 421 1
107 423 1
107 424 1
107 428 1
107 443 1
107 447 1
107 448 1
107 449 1
107 453 1
107 457 1
107 463 1
107 469 1
107 472 1
107 474 1
107 504 1
107 507 1
107 515 1
107 516 1
107 520 1
107 523 1
107 532 1
107 535 1
107 537 1
107 538 1
107 541 1
107 547 1
107 549 1
107 550 1
107 553 1
107 554 1
107 556 1
107 563 1
107 570 1
107 571 1
107 572 1
107 574 1
107 578 1
107 582 1
107 589 1
107 599 1
108 7 1
108 8 1
108 11 1
108 17 1
108 22 1
108 23 1
108 26 1
108 31 1
108 32 1
108 33 1
108 35 1
108 36 1
108 42 1
108 45 1
108 48 1
108 52 1
108 54 1
108 55 1
108 56 1
108 68 1
108 71 1
108 89 1
108 90 1
108 96 1
108 101 1
108 102 1
108 104 1
108 106 1
108 116 1
108 127 1
108 136 1
108 138 1
108 144 1
108 145 1
108 146 1
108 147 1
108 156 1
108 163 1
108 165 1
108 168 1
108 175 1
108 193 1
108 202 1
108 211 1
108 212 1
108 230 1
108 236 1
108 244 1
108 246 1
108 257 1
108 279 1
108 284 1
108 291 1
108 301 1
108 304 1
108 306 1
108 307 1
108 309 1
108 317 1
108 326 1
108 329 1
108 338 1
108 339 1
108 341 1
108 355 1
108 365 1
108 369 1
108 373 1
108 377 1
108 386 1
108 403 1
108 413 1
108 414 1
108 415 1
108 416 1
108 423 1
108 430 1
108 431 1
108 438 1
108 441 1
108 445 1
108 456 1
108 459 1
108 462 1
108 493 1
108 501 1
108 502 1
108 511 1
108 514 1
108 515 1
108 516 1
108 517 1
108 518 1
108 522 1
108 536 1
108 538 1
108 566 1
108 570 1
108 574 1
108 579 1
108 585 1
108 587 1
108 589 1
108 591 1
108 595 1
109 19 1
109 20 1
109 27 1
109 30 1
109 36 1
109 45 1
109 46 1
109 63 1
109 73 1
109 74 1
109 77 1
109 78 1
109 81 1
109 83 1
109 84 1
109 96 1
109 97 1
109 98 1
109 107 1
109 112 1
109 114 1
109 119 1
109 120 1
109 125 1
109 129 1
109 140 1
109 143 1
109 150 1
109 159 1
109 163 1
109 169 1
109 174 1
109 176 1
109 206 1
109 208 1
109 214 1
109 220 1
109 221 1
109 229 1
109 243 1
109 246 1
109 253 1
109 254 1
109 274 1
109 276 1
109 278 1
109 279 1
109 284 1
109 290 1
109 295 1
109 298 1
109 304 1
109 311 1
109 326 1
109 331 1
109 332 1
109 335 1
109 336 1
109 339 1
109 347 1
109 348 1
109 360 1
109 365 1
109 367 1
109 369 1
109 376 1
109 378 1
109 382 1
109 387 1
109 402 1
109 420 1
109 434 1
109 435 1
109 440 1
109 446 1
109 448 1
109 450 1
109 452 1
109 453 1
109 455 1
109 460 1
109 469 1
109 476 1
109 480 1
109 483 1
109 504 1
109 506 1
109 532 1
109 533 1
109 539 1
109 544 1
109 548 1
109 553 1
109 555 1
109 560 1
109 588 1
109 598 1
110 12 1
110 28 1
110 30 1
110 38 1
110 49 1
110 60 1
110 61 1
110 65 1
110 73 1
110 79 1
110 80 1
110 98 1
110 101 1
110 102 1
110 103 1
110 112 1
110 127 1
110 136 1
110 142 1
110 143 1
110 145 1
110 148 1
110 150 1
110 151 1
110 153 1
110 157 1
110 160 1
110 165 1
110 167 1
110 186 1
110 195 1
110 197 1
110 203 1
110 205 1
110 206 1
110 217 1
110 235 1
110 241 1
110 245 1
110 257 1
110 259 1
110 263 1
110 264 1
110 265 1
110 267 1
110 281 1
110 286 1
110 294 1
110 298 1
110 299 1
110 300 1
110 309 1
110 310 1
110 311 1
110 315 1
110 327 1
110 337 1
110 346 1
110 347 1
110 349 1
110 350 1
110 351 1
110 352 1
110 354 1
110 360 1
110 365 1
110 369 1
110 370 1
110 371 1
110 373 1
110 374 1
110 375 1
110 378 1
110 380 1
110 381 1
110 386 1
110 393 1
110 397 1
110 399 1
110 400 1
110 401 1
110 403 1
110 414 1
110 422 1
110 436 1
110 442 1
110 446 1
110 450 1
110 453 1
110 454 1
110 455 1
110 456 1
110 462 1
110 466 1
110 468 1
110 473 1
110 477 1
110 482 1
110 483 1
110 488 1
110 490 1
110 491 1
110 493 1
110 498 1
110 501 1
110 502 1
110 529 1
110 531 1
110 538 1
110 541 1
110 551 1
110 557 1
110 559 1
110 560 1
110 561 1
110 571 1
110 575 1
110 579 1
110 582 1
110 599 1
110 600 1
111 3 1
111 8 1
111 13 1
111 16 1
111 18 1
111 23 1
111 29 1
111 41 1
111 42 1
111 43 1
111 44 1
111 47 1
111 56 1
111 57 1
111 65 1
111 66 1
111 68 1
111 69 1
111 74 1
111 75 1
111 83 1
111 86 1
111 101 1
111 102 1
111 130 1
111 133 1
111 144 1
111 158 1
111 164 1
111 175 1
111 179 1
111 181 1
111 182 1
111 185 1
111 187 1
111 189 1
111 196 1
111 197 1
111 203 1
111 207 1
111 228 1
111 240 1
111 250 1
111 257 1
111 268 1
111 272 1
111 286 1
111 289 1
111 294 1
111 296 1
111 298 1
111 301 1
111 313 1
111 325 1
111 330 1
111 331 1
111 333 1
111 346 1
111 371 1
111 380 1
111 390 1
111 394 1
111 396 1
111 397 1
111 400 1
111 404 1
111 427 1
111 430 1
111 433 1
111 447 1
111 459 1
111 462 1
111 463 1
111 475 1
111 480 1
111 484 1
111 488 1
111 491 1
111 494 1
111 499 1
111 516 1
111 518 1
111 532 1
111 537 1
111 541 1
111 542 1
111 546 1
111 553 1
111 558 1
111 562 1
111 563 1
111 564 1
111 576 1
111 584 1
111 587 1
111 589 1
111 596 1
111 597 1
112 5 1
112 11 1
112 24 1
112 26 1
112 30 1
112 31 1
112 33 1
112 35 1
112 37 1
112 43 1
112 47 1
112 49 1
112 55 1
112 61 1
112 73 1
112 74 1
112 75 1
112 76 1
112 84 1
112 89 1
112 100 1
112 104 1
112 109 1
112 110 1
112 113 1
112 125 1
112 135 1
112 144 1
112 167 1
112 168 1
112 176 1
112 185 1
112 187 1
112 189 1
112 195 1
112 199 1
112 207 1
112 210 1
112 222 1
112 223 1
112 224 1
112 229 1
112 230 1
112 233 1
112 234 1
112 235 1
112 236 1
112 240 1
112 244 1
112 250 1
112 261 1
112 276 1
112 278 1
112 282 1
112 283 1
112 285 1
112 288 1
112 289 1
112 295 1
112 297 1
112 300 1
112 302 1
112 309 1
112 316 1
112 318 1
112 320 1
112 325 1
112 326 1
112 332 1
112 333 1
112 347 1
112 351 1
112 354 1
112 355 1
112 359 1
112 364 1
112 366 1
112 371 1
112 380 1
112 383 1
112 385 1
112 395 1
112 396 1
112 404 1
112 408 1
112 411 1
112 414 1
112 416 1
112 426 1
112 432 1
112 434 1
112 437 1
112 461 1
112 465 1
112 466 1
112 468 1
112 470 1
112 474 1
112 476 1
112 487 1
112 502 1
112 503 1
112 512 1
112 524 1
112 537 1
112 539 1
112 540 1
112 541 1
112 551 1
112 552 1
112 556 1
112 562 1
112 572 1
112 577 1
112 578 1
112 584 1
112 594 1
113 1 1
113 14 1
113 16 1
113 19 1
113 24 1
113 25 1
113 33 1
113 36 1
113 46 1
113 49 1
113 50 1
113 53 1
113 57 1
113 85 1
113 91 1
113 92 1
113 95 1
113 96 1
113 100 1
113 103 1
113 105 1
113 112 1
113 114 1
113 120 1
113 128 1
113 130 1
113 132 1
113 133 1
113 142 1
113 153 1
113 158 1
113 162 1
113 173 1
113 175 1
113 181 1
113 189 1
113 195 1
113 201 1
113 214 1
113 216 1
113 222 1
113 239 1
113 243 1
113 245 1
113 254 1
113 256 1
113 263 1
113 264 1
113 265 1
113 268 1
113 271 1
113 274 1
113 276 1
113 279 1
113 281 1
113 285 1
113 292 1
113 293 1
113 296 1
113 309 1
113 315 1
113 324 1
113 328 1
113 334 1
113 335 1
113 336 1
113 339 1
113 345 1
113 346 1
113 357 1
113 361 1
113 362 1
113 363 1
113 366 1
113 375 1
113 388 1
113 392 1
113 412 1
113 419 1
113 420 1
113 423 1
113 428 1
113 433 1
113 436 1
113 437 1
113 440 1
113 448 1
113 456 1
113 459 1
113 468 1
113 495 1
113 497 1
113 498 1
113 504 1
113 510 1
113 515 1
113 524 1
113 527 1
113 529 1
113 530 1
113 537 1
113 540 1
113 545 1
113 550 1
113 557 1
113 566 1
113 583 1
113 590 1
113 592 1
113 595 1
113 598 1
114 1 1
114 2 1
114 12 1
114 13 1
114 22 1
114 23 1
114 26 1
114 27 1
114 30 1
114 44 1
114 48 1
114 49 1
114 54 1
114 57 1
114 61 1
114 62 1
114 63 1
114 67 1
114 70 1
114 78 1
114 79 1
114 86 1
114 89 1
114 92 1
114 100 1
114 101 1
114 104 1
114 105 1
114 106 1
114 109 1
114 113 1
114 120 1
114 128 1
114 135 1
114 142 1
114 145 1
114 158 1
114 159 1
114 169 1
114 171 1
114 172 1
114 173 1
114 176 1
114 177 1
114 181 1
114 182 1
114 184 1
114 185 1
114 191 1
114 195 1
114 198 1
114 200 1
114 202 1
114 203 1
114 205 1
114 207 1
114 209 1
114 210 1
114 214 1
114 228 1
114 235 1
114 236 1
114 239 1
114 241 1
114 261 1
114 263 1
114 264 1
114 266 1
114 270 1
114 273 1
114 279 1
114 281 1
114 297 1
114 298 1
114 299 1
114 300 1
114 305 1
114 308 1
114 316 1
114 320 1
114 321 1
114 328 1
114 335 1
114 338 1
114 346 1
114 347 1
114 349 1
114 353 1
114 358 1
114 359 1
114 360 1
114 363 1
114 364 1
114 366 1
114 385 1
114 386 1
114 393 1
114 394 1
114 406 1
114 411 1
114 434 1
114 443 1
114 452 1
114 468 1
114 473 1
114 480 1
114 487 1
114 493 1
114 496 1
114 499 1
114 508 1
114 514 1
114 529 1
114 538 1
114 539 1
114 542 1
114 550 1
114 551 1
114 553 1
114 555 1
114 564 1
114 568 1
114 572 1
114 573 1
114 575 1
114 579 1
114 580 1
114 590 1
114 594 1
115 1 1
115 3 1
115 6 1
115 11 1
115 16 1
115 20 1
115 29 1
115 31 1
115 32 1
115 38 1
115 40 1
115 55 1
115 56 1
115 61 1
115 62 1
115 63 1
115 68 1
115 71 1
115 72 1
115 87 1
115 101 1
115 107 1
115 123 1
115 126 1
115 132 1
115 138 1
115 144 1
115 145 1
115 146 1
115 163 1
115 168 1
115 171 1
115 179 1
115 183 1
115 184 1
115 185 1
115 191 1
115 193 1
115 196 1
115 197 1
115 199 1
115 202 1
115 205 1
115 226 1
115 229 1
115 241 1
115 248 1
115 249 1
115 256 1
115 259 1
115 260 1
115 261 1
115 264 1
115 270 1
115 274 1
115 280 1
115 283 1
115 293 1
115 297 1
115 299 1
115 301 1
115 306 1
115 310 1
115 316 1
115 319 1
115 322 1
115 323 1
115 326 1
115 327 1
115 329 1
115 332 1
115 333 1
115 334 1
115 335 1
115 336 1
115 340 1
115 342 1
115 350 1
115 367 1
115 371 1
115 373 1
115 383 1
115 394 1
115 395 1
115 402 1
115 404 1
115 408 1
115 412 1
115 413 1
115 420 1
115 424 1
115 432 1
115 433 1
115 434 1
115 438 1
115 445 1
115 453 1
115 456 1
115 471 1
115 472 1
115 477 1
115 480 1
115 482 1
115 484 1
115 485 1
115 486 1
115 488 1
115 493 1
115 499 1
115 502 1
115 509 1
115 519 1
115 524 1
115 526 1
115 529 1
115 531 1
115 540 1
115 544 1
115 545 1
115 553 1
115 555 1
115 557 1
115 573 1
115 574 1
115 576 1
115 580 1
115 582 1
115 584 1
115 589 1
115 593 1
115 595 1
116 1 1
116 4 1
116 7 1
116 8 1
116 17 1
116 20 1
116 23 1
116 29 1
116 33 1
116 35 1
116 36 1
116 43 1
116 51 1
116 53 1
116 64 1
116 65 1
116 77 1
116 78 1
116 86 1
116 87 1
116 104 1
116 105 1
116 106 1
116 108 1
116 142 1
116 151 1
116 153 1
116 155 1
116 161 1
116 162 1
116 163 1
116 170 1
116 173 1
116 176 1
116 179 1
116 185 1
116 186 1
116 189 1
116 191 1
116 192 1
116 193 1
116 199 1
116 215 1
116 217 1
116 220 1
116 222 1
116 227 1
116 249 1
116 255 1
116 260 1
116 261 1
116 263 1
116 266 1
116 271 1
116 273 1
116 286 1
116 287 1
116 293 1
116 294 1
116 300 1
116 306 1
116 313 1
116 320 1
116 323 1
116 334 1
116 346 1
116 353 1
116 371 1
116 376 1
116 385 1
116 389 1
116 392 1
116 393 1
116 394 1
116 399 1
116 402 1
116 406 1
116 420 1
116 421 1
116 422 1
116 425 1
116 431 1
116 432 1
116 435 1
116 436 1
116 437 1
116 442 1
116 444 1
116 456 1
116 461 1
116 464 1
116 468 1
116 469 1
116 473 1
116 474 1
116 476 1
116 492 1
116 495 1
116 499 1
116 500 1
116 501 1
116 502 1
116 508 1
116 524 1
116 530 1
116 531 1
116 545 1
116 548 1
116 554 1
116 558 1
116 560 1
116 562 1
116 565 1
116 567 1
116 568 1
116 575 1
116 578 1
116 582 1
116 585 1
116 586 1
116 596 1
116 598 1
117 1 1
117 3 1
117 13 1
117 24 1
117 30 1
117 31 1
117 32 1
117 33 1
117 34 1
117 35 1
117 40 1
117 44 1
117 66 1
117 84 1
117 87 1
117 90 1
117 92 1
117 93 1
117 94 1
117 97 1
117 120 1
117 123 1
117 125 1
117 130 1
117 133 1
117 135 1
117 137 1
117 138 1
117 154 1
117 156 1
117 162 1
117 164 1
117 166 1
117 170 1
117 178 1
117 180 1
117 189 1
117 201 1
117 206 1
117 215 1
117 216 1
117 225 1
117 231 1
117 232 1
117 237 1
117 242 1
117 246 1
117 250 1
117 252 1
117 255 1
117 256 1
117 258 1
117 269 1
117 271 1
117 275 1
117 277 1
117 288 1
117 290 1
117 300 1
117 317 1
117 336 1
117 338 1
117 339 1
117 343 1
117 352 1
117 353 1
117 373 1
117 374 1
117 383 1
117 384 1
117 404 1
117 416 1
117 421 1
117 423 1
117 426 1
117 427 1
117 428 1
117 429 1
117 433 1
117 437 1
117 444 1
117 448 1
117 457 1
117 459 1
117 461 1
117 464 1
117 474 1
117 477 1
117 479 1
117 491 1
117 494 1
117 495 1
117 507 1
117 508 1
117 513 1
117 524 1
117 528 1
117 531 1
117 544 1
117 545 1
117 547 1
117 551 1
117 552 1
117 572 1
117 573 1
117 574 1
117 589 1
117 595 1
117 599 1
118 1 1
118 3 1
118 4 1
118 6 1
118 17 1
118 19 1
118 20 1
118 29 1
118 41 1
118 48 1
118 51 1
118 52 1
118 81 1
118 84 1
118 97 1
118 101 1
118 102 1
118 121 1
118 128 1
118 131 1
118 134 1
118 135 1
118 136 1
118 139 1
118 147 1
118 151 1
118 154 1
118 155 1
118 157 1
118 164 1
118 168 1
118 171 1
118 172 1
118 174 1
118 175 1
118 176 1
118 189 1
118 191 1
118 193 1
118 195 1
118 198 1
118 199 1
118 205 1
118 210 1
118 214 1
118 216 1
118 218 1
118 223 1
118 224 1
118 228 1
118 240 1
118 241 1
118 242 1
118 251 1
118 254 1
118 260 1
118 274 1
118 275 1
118 277 1
118 278 1
118 280 1
118 286 1
118 289 1
118 295 1
118 296 1
118 303 1
118 304 1
118 307 1
118 312 1
118 319 1
118 324 1
118 337 1
118 338 1
118 339 1
118 345 1
118 350 1
118 353 1
118 355 1
118 360 1
118 366 1
118 381 1
118 383 1
118 385 1
118 393 1
118 397 1
118 399 1
118 402 1
118 403 1
118 411 1
118 422 1
118 424 1
118 435 1
118 439 1
118 442 1
118 446 1
118 459 1
118 464 1
118 466 1
118 476 1
118 482 1
118 496 1
118 498 1
118 503 1
118 508 1
118 513 1
118 514 1
118 518 1
118 527 1
118 529 1
118 531 1
118 532 1
118 546 1
118 547 1
118 562 1
118 573 1
118 574 1
118 575 1
118 582 1
118 583 1
118 584 1
118 585 1
118 587 1
118 589 1
119 5 1
119 12 1
119 16 1
119 20 1
119 21 1
119 38 1
119 47 1
119 75 1
119 79 1
119 81 1
119 88 1
119 89 1
119 92 1
119 97 1
119 100 1
119 107 1
119 109 1
119 130 1
119 137 1
119 138 1
119 144 1
119 149 1
119 160 1
119 165 1
119 172 1
119 173 1
119 181 1
119 182 1
119 186 1
119 188 1
119 198 1
119 207 1
119 209 1
119 210 1
119 216 1
119 222 1
119 223 1
119 227 1
119 229 1
119 230 1
119 233 1
119 235 1
119 237 1
119 238 1
119 243 1
119 252 1
119 255 1
119 259 1
119 262 1
119 280 1
119 282 1
119 288 1
119 296 1
119 297 1
119 300 1
119 301 1
119 302 1
119 308 1
119 310 1
119 316 1
119 321 1
119 332 1
119 337 1
119 340 1
119 341 1
119 343 1
119 360 1
119 361 1
119 370 1
119 379 1
119 380 1
119 393 1
119 398 1
119 403 1
119 404 1
119 405 1
119 431 1
119 437 1
119 438 1
119 440 1
119 457 1
119 462 1
119 471 1
119 475 1
119 488 1
119 492 1
119 502 1
119 504 1
119 515 1
119 521 1
119 522 1
119 526 1
119 527 1
119 531 1
119 532 1
119 533 1
119 535 1
119 536 1
119 538 1
119 539 1
119 540 1
119 544 1
119 553 1
119 557 1
119 564 1
119 568 1
119 578 1
119 584 1
119 598 1
119 600 1
120 1 1
120 19 1
120 20 1
120 27 1
120 37 1
120 40 1
120 41 1
120 47 1
120 48 1
120 51 1
120 52 1
120 55 1
120 57 1
120 60 1
120 62 1
120 67 1
120 71 1
120 79 1
120 80 1
120 88 1
120 91 1
120 94 1
120 97 1
120 103 1
120 105 1
120 106 1
120 109 1
120 113 1
120 114 1
120 117 1
120 127 1
120 131 1
120 132 1
120 134 1
120 136 1
120 138 1
120 139 1
120 143 1
120 145 1
120 148 1
120 152 1
120 164 1
120 165 1
120 166 1
120 169 1
120 171 1
120 172 1
120 176 1
120 181 1
120 186 1
120 197 1
120 199 1
120 205 1
120 209 1
120 210 1
120 218 1
120 219 1
120 220 1
120 224 1
120 232 1
120 235 1
120 240 1
120 245 1
120 247 1
120 251 1
120 255 1
120 257 1
120 258 1
120 264 1
120 268 1
120 271 1
120 275 1
120 285 1
120 289 1
120 293 1
120 294 1
120 298 1
120 300 1
120 305 1
120 307 1
120 309 1
120 310 1
120 316 1
120 329 1
120 331 1
120 337 1
120 342 1
120 343 1
120 350 1
120 352 1
120 358 1
120 365 1
120 370 1
120 372 1
120 375 1
120 379 1
120 385 1
120 397 1
120 403 1
120 404 1
120 405 1
120 412 1
120 413 1
120 415 1
120 430 1
120 431 1
120 434 1
120 438 1
120 449 1
120 456 1
120 461 1
120 468 1
120 475 1
120 478 1
120 486 1
120 487 1
120 490 1
120 492 1
120 495 1
120 497 1
120 498 1
120 501 1
120 502 1
120 519 1
120 530 1
120 532 1
120 536 1
120 537 1
120 541 1
120 544 1
120 556 1
120 567 1
120 577 1
120 578 1
120 582 1
120 584 1
120 591 1
120 594 1
121 5 1
121 21 1
121 33 1
121 34 1
121 35 1
121 38 1
121 40 1
121 41 1
121 42 1
121 46 1
121 50 1
121 53 1
121 65 1
121 70 1
121 80 1
121 82 1
121 89 1
121 91 1
121 101 1
121 102 1
121 104 1
121 118 1
121 125 1
121 127 1
121 129 1
121 137 1
121 140 1
121 141 1
121 143 1
121 145 1
121 156 1
121 161 1
121 162 1
121 171 1
121 172 1
121 174 1
121 176 1
121 177 1
121 183 1
121 188 1
121 190 1
121 194 1
121 200 1
121 206 1
121 211 1
121 214 1
121 215 1
121 218 1
121 225 1
121 240 1
121 241 1
121 242 1
121 245 1
121 246 1
121 248 1
121 250 1
121 255 1
121 258 1
121 259 1
121 260 1
121 265 1
121 266 1
121 269 1
121 272 1
121 280 1
121 281 1
121 283 1
121 293 1
121 301 1
121 323 1
121 324 1
121 328 1
121 329 1
121 339 1
121 340 1
121 341 1
121 344 1
121 349 1
121 365 1
121 369 1
121 374 1
121 376 1
121 378 1
121 379 1
121 383 1
121 386 1
121 388 1
121 394 1
121 397 1
121 399 1
121 400 1
121 401 1
121 408 1
121 411 1
121 416 1
121 417 1
121 423 1
121 425 1
121 426 1
121 427 1
121 430 1
121 432 1
121 433 1
121 435 1
121 445 1
121 446 1
121 451 1
121 459 1
121 465 1
121 469 1
121 470 1
121 475 1
121 483 1
121 484 1
121 486 1
121 491 1
121 495 1
121 498 1
121 503 1
121 507 1
121 515 1
121 520 1
121 523 1
121 530 1
121 533 1
121 534 1
121 535 1
121 538 1
121 551 1
121 558 1
121 559 1
121 561 1
121 564 1
121 570 1
121 576 1
121 579 1
121 586 1
121 589 1
122 1 1
122 5 1
122 14 1
122 21 1
122 36 1
122 38 1
122 43 1
122 44 1
122 47 1
122 48 1
122 51 1
122 54 1
122 55 1
122 59 1
122 64 1
122 74 1
122 83 1
122 100 1
122 101 1
122 105 1
122 124 1
122 129 1
122 147 1
122 154 1
122 162 1
122 179 1
122 180 1
122 181 1
122 191 1
122 198 1
122 199 1
122 200 1
122 201 1
122 213 1
122 217 1
122 222 1
122 223 1
122 230 1
122 234 1
122 243 1
122 254 1
122 259 1
122 264 1
122 266 1
122 269 1
122 274 1
122 275 1
122 277 1
122 278 1
122 279 1
122 280 1
122 281 1
122 285 1
122 287 1
122 292 1
122 297 1
122 312 1
122 316 1
122 324 1
122 327 1
122 332 1
122 349 1
122 357 1
122 365 1
122 366 1
122 371 1
122 383 1
122 384 1
122 386 1
122 393 1
122 405 1
122 406 1
122 417 1
122 423 1
122 430 1
122 437 1
122 464 1
122 473 1
122 474 1
122 478 1
122 482 1
122 487 1
122 488 1
122 493 1
122 500 1
122 503 1
122 509 1
122 512 1
122 518 1
122 519 1
122 535 1
122 536 1
122 538 1
122 545 1
122 550 1
122 559 1
122 568 1
122 570 1
122 571 1
122 574 1
122 583 1
122 592 1
122 598 1
123 3 1
123 4 1
123 8 1
123 18 1
123 21 1
123 22 1
123 24 1
123 25 1
123 29 1
123 44 1
123 59 1
123 72 1
123 76 1
123 78 1
123 80 1
123 82 1
123 85 1
123 93 1
123 95 1
123 96 1
123 102 1
123 103 1
123 105 1
123 107 1
123 115 1
123 117 1
123 125 1
123 130 1
123 134 1
123 139 1
123 140 1
123 144 1
123 149 1
123 152 1
123 156 1
123 158 1
123 164 1
123 168 1
123 173 1
123 176 1
123 183 1
123 186 1
123 193 1
123 196 1
123 202 1
123 205 1
123 213 1
123 214 1
123 217 1
123 223 1
123 227 1
123 233 1
123 240 1
123 243 1
123 252 1
123 254 1
123 257 1
123 262 1
123 275 1
123 276 1
123 277 1
123 301 1
123 304 1
123 312 1
123 318 1
123 329 1
123 334 1
123 335 1
123 339 1
123 340 1
123 344 1
123 356 1
123 364 1
123 366 1
123 367 1
123 369 1
123 370 1
123 371 1
123 375 1
123 376 1
123 379 1
123 383 1
123 388 1
123 391 1
123 393 1
123 395 1
123 401 1
123 415 1
123 423 1
123 433 1
123 435 1
123 436 1
123 437 1
123 439 1
123 440 1
123 456 1
123 457 1
123 461 1
123 464 1
123 465 1
123 469 1
123 473 1
123 476 1
123 483 1
123 490 1
123 493 1
123 494 1
123 497 1
123 504 1
123 506 1
123 507 1
123 520 1
123 537 1
123 551 1
123 553 1
123 572 1
123 578 1
123 579 1
123 585 1
123 587 1
123 595 1
123 598 1
123 599 1
123 600 1
124 12 1
124 17 1
124 29 1
124 40 1
124 46 1
124 50 1
124 62 1
124 71 1
124 85 1
124 87 1
124 88 1
124 94 1
124 107 1
124 122 1
124 131 1
124 134 1
124 137 1
124 148 1
124 150 1
124 151 1
124 152 1
124 156 1
124 158 1
124 169 1
124 178 1
124 181 1
124 184 1
124 186 1
124 189 1
124 204 1
124 206 1
124 208 1
124 212 1
124 233 1
124 245 1
124 247 1
124 248 1
124 254 1
124 269 1
124 279 1
124 280 1
124 297 1
124 302 1
124 306 1
124 317 1
124 319 1
124 324 1
124 327 1
124 334 1
124 346 1
124 356 1
124 361 1
124 362 1
124 364 1
124 371 1
124 374 1
124 376 1
124 384 1
124 385 1
124 394 1
124 397 1
124 406 1
124 419 1
124 420 1
124 433 1
124 434 1
124 435 1
124 437 1
124 443 1
124 459 1
124 463 1
124 468 1
124 470 1
124 471 1
124 476 1
124 480 1
124 481 1
124 484 1
124 487 1
124 495 1
124 497 1
124 509 1
124 533 1
124 534 1
124 540 1
124 557 1
124 560 1
124 561 1
124 564 1
124 570 1
124 576 1
124 579 1
124 586 1
124 587 1
124 593 1
124 595 1
125 2 1
125 7 1
125 9 1
125 13 1
125 22 1
125 25 1
125 29 1
125 30 1
125 35 1
125 36 1
125 40 1
125 47 1
125 56 1
125 68 1
125 70 1
125 71 1
125 72 1
125 73 1
125 76 1
125 84 1
125 88 1
125 91 1
125 100 1
125 104 1
125 109 1
125 112 1
125 117 1
125 121 1
125 123 1
125 152 1
125 156 1
125 159 1
125 170 1
125 174 1
125 181 1
125 183 1
125 188 1
125 191 1
125 193 1
125 198 1
125 200 1
125 205 1
125 212 1
125 216 1
125 218 1
125 267 1
125 289 1
125 293 1
125 294 1
125 295 1
125 296 1
125 297 1
125 302 1
125 303 1
125 307 1
125 314 1
125 318 1
125 321 1
125 327 1
125 329 1
125 330 1
125 335 1
125 338 1
125 344 1
125 347 1
125 358 1
125 367 1
125 372 1
125 375 1
125 379 1
125 388 1
125 392 1
125 397 1
125 400 1
125 405 1
125 408 1
125 410 1
125 415 1
125 421 1
125 422 1
125 423 1
125 426 1
125 427 1
125 433 1
125 434 1
125 437 1
125 438 1
125 446 1
125 455 1
125 456 1
125 460 1
125 462 1
125 469 1
125 475 1
125 492 1
125 493 1
125 500 1
125 510 1
125 515 1
125 524 1
125 529 1
125 532 1
125 535 1
125 545 1
125 553 1
125 565 1
125 566 1
125 571 1
125 572 1
125 574 1
125 592 1
125 600 1
126 3 1
126 7 1
126 8 1
126 11 1
126 12 1
126 13 1
126 18 1
126 22 1
126 25 1
126 33 1
126 40 1
126 49 1
126 50 1
126 52 1
126 64 1
126 74 1
126 77 1
126 79 1
126 82 1
126 95 1
126 115 1
126 130 1
126 133 1
126 139 1
126 147 1
126 148 1
126 149 1
126 158 1
126 159 1
126 164 1
126 170 1
126 175 1
126 176 1
126 177 1
126 178 1
126 181 1
126 190 1
126 191 1
126 201 1
126 203 1
126 212 1
126 220 1
126 221 1
126 225 1
126 226 1
126 227 1
126 238 1
126 240 1
126 243 1
126 249 1
126 254 1
126 255 1
126 261 1
126 267 1
126 272 1
126 276 1
126 277 1
126 279 1
126 280 1
126 283 1
126 284 1
126 286 1
126 291 1
126 293 1
126 295 1
126 300 1
126 306 1
126 319 1
126 323 1
126 340 1
126 342 1
126 349 1
126 361 1
126 364 1
126 368 1
126 380 1
126 382 1
126 391 1
126 392 1
126 405 1
126 408 1
126 411 1
126 412 1
126 414 1
126 420 1
126 428 1
126 430 1
126 434 1
126 447 1
126 451 1
126 453 1
126 455 1
126 460 1
126 466 1
126 474 1
126 486 1
126 495 1
126 498 1
126 505 1
126 506 1
126 508 1
126 516 1
126 517 1
126 522 1
126 523 1
126 525 1
126 526 1
126 529 1
126 537 1
126 538 1
126 539 1
126 542 1
126 543 1
126 545 1
126 548 1
126 550 1
126 555 1
126 562 1
126 569 1
126 575 1
126 581 1
126 586 1
126 587 1
126 593 1
127 3 1
127 6 1
127 11 1
127 12 1
127 23 1
127 27 1
127 29 1
127 39 1
127 46 1
127 58 1
127 62 1
127 73 1
127 82 1
127 83 1
127 87 1
127 95 1
127 101 1
127 102 1
127 104 1
127 108 1
127 110 1
127 120 1
127 121 1
127 128 1
127 129 1
127 131 1
127 136 1
127 139 1
127 142 1
127 144 1
127 158 1
127 165 1
127 168 1
127 169 1
127 170 1
127 174 1
127 181 1
127 201 1
127 207 1
127 212 1
127 214 1
127 219 1
127 223 1
127 225 1
127 226 1
127 227 1
127 230 1
127 235 1
127 237 1
127 238 1
127 239 1
127 240 1
127 241 1
127 243 1
127 253 1
127 261 1
127 262 1
127 266 1
127 267 1
127 270 1
127 271 1
127 273 1
127 274 1
127 277 1
127 279 1
127 301 1
127 307 1
127 315 1
127 319 1
127 322 1
127 328 1
127 331 1
127 335 1
127 345 1
127 349 1
127 351 1
127 353 1
127 354 1
127 360 1
127 361 1
127 368 1
127 373 1
127 376 1
127 377 1
127 378 1
127 383 1
127 385 1
127 387 1
127 405 1
127 408 1
127 409 1
127 419 1
127 421 1
127 422 1
127 425 1
127 432 1
127 433 1
127 438 1
127 441 1
127 443 1
127 445 1
127 447 1
127 453 1
127 459 1
127 461 1
127 463 1
127 465 1
127 466 1
127 473 1
127 493 1
127 494 1
127 495 1
127 511 1
127 519 1
127 528 1
127 529 1
127 532 1
127 537 1
127 538 1
127 540 1
127 548 1
127 551 1
127 561 1
127 570 1
127 576 1
127 578 1
127 579 1
127 581 1
127 582 1
127 587 1
127 590 1
127 592 1
127 594 1
128 9 1
128 11 1
128 15 1
128 30 1
128 37 1
128 38 1
128 39 1
128 43 1
128 50 1
128 57 1
128 59 1
128 64 1
128 75 1
128 85 1
128 88 1
128 90 1
128 94 1
128 99 1
128 100 1
128 101 1
128 102 1
128 103 1
128 107 1
128 113 1
128 114 1
128 118 1
128 127 1
128 143 1
128 149 1
128 152 1
128 153 1
128 158 1
128 165 1
128 166 1
128 174 1
128 182 1
128 189 1
128 192 1
128 206 1
128 207 1
128 210 1
128 230 1
128 234 1
128 238 1
128 240 1
128 255 1
128 259 1
128 260 1
128 262 1
128 263 1
128 265 1
128 271 1
128 272 1
128 275 1
128 283 1
128 284 1
128 286 1
128 296 1
128 297 1
128 301 1
128 302 1
128 303 1
128 306 1
128 310 1
128 313 1
128 314 1
128 316 1
128 319 1
128 323 1
128 330 1
128 342 1
128 343 1
128 344 1
128 347 1
128 348 1
128 350 1
128 352 1
128 364 1
128 367 1
128 370 1
128 371 1
128 378 1
128 379 1
128 382 1
128 385 1
128 386 1
128 392 1
128 399 1
128 409 1
128 414 1
128 415 1
128 417 1
128 418 1
128 420 1
128 421 1
128 427 1
128 431 1
128 443 1
128 445 1
128 458 1
128 462 1
128 464 1
128 466 1
128 471 1
128 475 1
128 479 1
128 481 1
128 489 1
128 490 1
128 491 1
128 498 1
128 499 1
128 500 1
128 502 1
128 504 1
128 507 1
128 510 1
128 511 1
128 514 1
128 521 1
128 531 1
128 535 1
128 537 1
128 539 1
128 550 1
128 561 1
128 571 1
128 580 1
128 583 1
128 589 1
128 590 1
128 591 1
128 592 1
128 599 1
129 1 1
129 5 1
129 20 1
129 22 1
129 29 1
129 31 1
129 33 1
129 36 1
129 38 1
129 47 1
129 49 1
129 55 1
129 57 1
129 60 1
129 77 1
129 81 1
129 83 1
129 96 1
129 97 1
129 101 1
129 102 1
129 105 1
129 106 1
129 107 1
129 109 1
129 121 1
129 122 1
129 127 1
129 130 1
129 134 1
129 137 1
129 138 1
129 141 1
129 148 1
129 149 1
129 151 1
129 155 1
129 176 1
129 177 1
129 179 1
129 184 1
129 188 1
129 195 1
129 210 1
129 216 1
129 218 1
129 225 1
129 226 1
129 249 1
129 252 1
129 258 1
129 261 1
129 267 1
129 272 1
129 276 1
129 288 1
129 291 1
129 301 1
129 302 1
129 312 1
129 316 1
129 317 1
129 326 1
129 347 1
129 350 1
129 351 1
129 352 1
129 355 1
129 357 1
129 370 1
129 378 1
129 386 1
129 387 1
129 391 1
129 398 1
129 404 1
129 407 1
129 409 1
129 417 1
129 431 1
129 434 1
129 438 1
129 439 1
129 447 1
129 451 1
129 455 1
129 456 1
129 461 1
129 466 1
129 470 1
129 472 1
129 473 1
129 474 1
129 493 1
129 495 1
129 505 1
129 512 1
129 513 1
129 520 1
129 530 1
129 531 1
129 532 1
129 537 1
129 542 1
129 543 1
129 546 1
129 558 1
129 565 1
129 569 1
129 574 1
129 582 1
129 589 1
129 591 1
129 599 1
130 7 1
130 28 1
130 34 1
130 45 1
130 48 1
130 72 1
130 75 1
130 82 1
130 88 1
130 89 1
130 90 1
130 91 1
130 92 1
130 96 1
130 111 1
130 113 1
130 117 1
130 119 1
130 123 1
130 126 1
130 129 1
130 131 1
130 138 1
130 144 1
130 145 1
130 147 1
130 152 1
130 153 1
130 158 1
130 165 1
130 174 1
130 183 1
130 187 1
130 192 1
130 198 1
130 211 1
130 218 1
130 219 1
130 234 1
130 249 1
130 250 1
130 256 1
130 257 1
130 266 1
130 267 1
130 268 1
130 271 1
130 278 1
130 280 1
130 283 1
130 286 1
130 304 1
130 317 1
130 319 1
130 326 1
130 327 1
130 331 1
130 332 1
130 333 1
130 338 1
130 344 1
130 347 1
130 349 1
130 351 1
130 354 1
130 356 1
130 363 1
130 364 1
130 370 1
130 372 1
130 373 1
130 377 1
130 379 1
130 384 1
130 389 1
130 398 1
130 399 1
130 400 1
130 401 1
130 405 1
130 412 1
130 416 1
130 419 1
130 420 1
130 421 1
130 427 1
130 429 1
130 444 1
130 449 1
130 451 1
130 455 1
130 460 1
130 468 1
130 469 1
130 470 1
130 472 1
130 473 1
130 483 1
130 484 1
130 485 1
130 487 1
130 488 1
130 490 1
130 495 1
130 497 1
130 503 1
130 506 1
130 511 1
130 519 1
130 525 1
130 526 1
130 528 1
130 530 1
130 531 1
130 536 1
130 538 1
130 539 1
130 540 1
130 545 1
130 548 1
130 551 1
130 553 1
130 554 1
130 558 1
130 559 1
130 564 1
130 569 1
130 573 1
130 575 1
130 576 1
130 581 1
130 582 1
130 585 1
130 593 1
130 597 1
131 2 1
131 16 1
131 18 1
131 27 1
131 29 1
131 49 1
131 53 1
131 54 1
131 57 1
131 68 1
131 70 1
131 86 1
131 89 1
131 92 1
131 93 1
131 94 1
131 95 1
131 101 1
131 103 1
131 104 1
131 105 1
131 106 1
131 118 1
131 120 1
131 124 1
131 127 1
131 130 1
131 134 1
131 147 1
131 148 1
131 163 1
131 164 1
131 170 1
131 171 1
131 172 1
131 175 1
131 178 1
131 187 1
131 193 1
131 194 1
131 195 1
131 199 1
131 200 1
131 201 1
131 205 1
131 213 1
131 219 1
131 239 1
131 241 1
131 253 1
131 258 1
131 259 1
131 275 1
131 280 1
131 282 1
131 287 1
131 290 1
131 294 1
131 319 1
131 321 1
131 328 1
131 336 1
131 342 1
131 343 1
131 346 1
131 359 1
131 365 1
131 367 1
131 372 1
131 380 1
131 382 1
131 408 1
131 416 1
131 421 1
131 423 1
131 427 1
131 428 1
131 430 1
131 434 1
131 437 1
131 439 1
131 445 1
131 451 1
131 452 1
131 465 1
131 467 1
131 479 1
131 488 1
131 490 1
131 495 1
131 496 1
131 503 1
131 507 1
131 510 1
131 515 1
131 517 1
131 518 1
131 520 1
131 528 1
131 542 1
131 545 1
131 550 1
131 551 1
131 555 1
131 558 1
131 572 1
131 573 1
131 574 1
131 586 1
131 590 1
131 591 1
131 592 1
132 9 1
132 16 1
132 35 1
132 41 1
132 43 1
132 44 1
132 47 1
132 52 1
132 57 1
132 60 1
132 68 1
132 70 1
132 73 1
132 77 1
132 84 1
132 92 1
132 105 1
132 113 1
132 115 1
132 120 1
132 133 1
132 137 1
132 140 1
132 142 1
132 151 1
132 152 1
132 165 1
132 166 1
132 168 1
132 169 1
132 173 1
132 175 1
132 183 1
132 187 1
132 190 1
132 200 1
132 205 1
132 209 1
132 210 1
132 214 1
132 218 1
132 221 1
132 227 1
132 242 1
132 243 1
132 250 1
132 253 1
132 259 1
132 261 1
132 267 1
132 269 1
132 284 1
132 295 1
132 297 1
132 299 1
132 305 1
132 306 1
132 313 1
132 319 1
132 322 1
132 323 1
132 329 1
132 332 1
132 337 1
132 343 1
132 344 1
132 349 1
132 350 1
132 361 1
132 366 1
132 372 1
132 376 1
132 378 1
132 381 1
132 382 1
132 384 1
132 387 1
132 391 1
132 392 1
132 395 1
132 397 1
132 399 1
132 405 1
132 407 1
132 409 1
132 410 1
132 414 1
132 417 1
132 429 1
132 434 1
132 438 1
132 450 1
132 455 1
132 462 1
132 469 1
132 472 1
132 475 1
132 477 1
132 481 1
132 483 1
132 492 1
132 501 1
132 506 1
132 509 1
132 510 1
132 518 1
132 519 1
132 521 1
132 527 1
132 538 1
132 543 1
132 561 1
132 562 1
132 568 1
132 570 1
132 577 1
132 580 1
132 595 1
133 2 1
133 7 1
133 15 1
133 16 1
133 18 1
133 26 1
133 28 1
133 38 1
133 54 1
133 58 1
133 59 1
133 63 1
133 65 1
133 76 1
133 78 1
133 79 1
133 84 1
133 87 1
133 92 1
133 93 1
133 97 1
133 101 1
133 111 1
133 113 1
133 117 1
133 126 1
133 132 1
133 136 1
133 137 1
133 142 1
133 148 1
133 154 1
133 158 1
133 161 1
133 163 1
133 170 1
133 172 1
133 175 1
133 190 1
133 197 1
133 201 1
133 203 1
133 213 1
133 242 1
133 247 1
133 253 1
133 262 1
133 265 1
133 266 1
133 270 1
133 271 1
133 280 1
133 286 1
133 295 1
133 303 1
133 305 1
133 306 1
133 322 1
133 331 1
133 337 1
133 343 1
133 346 1
133 348 1
133 356 1
133 357 1
133 359 1
133 365 1
133 367 1
133 368 1
133 369 1
133 371 1
133 375 1
133 376 1
133 380 1
133 387 1
133 392 1
133 394 1
133 397 1
133 401 1
133 409 1
133 410 1
133 413 1
133 417 1
133 432 1
133 433 1
133 434 1
133 438 1
133 439 1
133 447 1
133 455 1
133 456 1
133 457 1
133 462 1
133 468 1
133 469 1
133 474 1
133 484 1
133 490 1
133 493 1
133 496 1
133 501 1
133 502 1
133 503 1
133 514 1
133 515 1
133 524 1
133 532 1
133 541 1
133 546 1
133 550 1
133 555 1
133 561 1
133 566 1
133 568 1
133 570 1
133 575 1
133 577 1
133 583 1
133 593 1
133 594 1
133 596 1
133 598 1
134 5 1
134 6 1
134 10 1
134 11 1
134 19 1
134 22 1
134 33 1
134 43 1
134 55 1
134 57 1
134 59 1
134 65 1
134 75 1
134 78 1
134 79 1
134 80 1
134 93 1
134 94 1
134 95 1
134 98 1
134 102 1
134 104 1
134 118 1
134 120 1
134 123 1
134 124 1
134 129 1
134 131 1
134 139 1
134 149 1
134 150 1
134 151 1
134 152 1
134 167 1
134 171 1
134 178 1
134 181 1
134 188 1
134 189 1
134 191 1
134 200 1
134 208 1
134 213 1
134 218 1
134 220 1
134 221 1
134 225 1
134 226 1
134 227 1
134 230 1
134 233 1
134 236 1
134 240 1
134 243 1
134 246 1
134 254 1
134 256 1
134 260 1
134 264 1
134 265 1
134 276 1
134 277 1
134 288 1
134 293 1
134 300 1
134 315 1
134 325 1
134 327 1
134 328 1
134 336 1
134 339 1
134 342 1
134 343 1
134 356 1
134 359 1
134 371 1
134 373 1
134 374 1
134 382 1
134 386 1
134 387 1
134 390 1
134 397 1
134 401 1
134 402 1
134 403 1
134 405 1
134 406 1
134 410 1
134 421 1
134 422 1
134 426 1
134 428 1
134 429 1
134 430 1
134 439 1
134 445 1
134 446 1
134 457 1
134 463 1
134 464 1
134 468 1
134 469 1
134 473 1
134 485 1
134 505 1
134 508 1
134 514 1
134 516 1
134 524 1
134 525 1
134 533 1
134 540 1
134 547 1
134 551 1
134 556 1
134 557 1
134 559 1
134 562 1
134 563 1
134 564 1
134 569 1
134 575 1
134 583 1
134 587 1
134 599 1
134 600 1
135 1 1
135 10 1
135 13 1
135 19 1
135 22 1
135 23 1
135 25 1
135 30 1
135 31 1
135 39 1
135 45 1
135 46 1
135 59 1
135 61 1
135 63 1
135 75 1
135 79 1
135 80 1
135 83 1
135 95 1
135 96 1
135 112 1
135 114 1
135 117 1
135 118 1
135 139 1
135 140 1
135 142 1
135 149 1
135 156 1
135 164 1
135 171 1
135 172 1
135 175 1
135 178 1
135 181 1
135 189 1
135 191 1
135 194 1
135 200 1
135 208 1
135 211 1
135 214 1
135 216 1
135 222 1
135 224 1
135 225 1
135 226 1
135 236 1
135 244 1
135 246 1
135 251 1
135 259 1
135 265 1
135 266 1
135 275 1
135 276 1
135 281 1
135 282 1
135 283 1
135 284 1
135 293 1
135 296 1
135 303 1
135 304 1
135 305 1
135 308 1
135 310 1
135 313 1
135 316 1
135 331 1
135 336 1
135 338 1
135 339 1
135 340 1
135 349 1
135 359 1
135 360 1
135 361 1
135 362 1
135 365 1
135 367 1
135 370 1
135 381 1
135 385 1
135 386 1
135 388 1
135 389 1
135 396 1
135 404 1
135 410 1
135 411 1
135 417 1
135 422 1
135 426 1
135 432 1
135 439 1
135 442 1
135 445 1
135 452 1
135 453 1
135 460 1
135 461 1
135 468 1
135 469 1
135 470 1
135 472 1
135 473 1
135 485 1
135 495 1
135 497 1
135 502 1
135 505 1
135 507 1
135 508 1
135 513 1
135 518 1
135 522 1
135 524 1
135 525 1
135 542 1
135 550 1
135 556 1
135 561 1
135 565 1
135 571 1
135 575 1
135 591 1
135 595 1
136 7 1
136 10 1
136 14 1
136 20 1
136 22 1
136 23 1
136 25 1
136 28 1
136 31 1
136 45 1
136 51 1
136 60 1
136 62 1
136 63 1
136 65 1
136 66 1
136 67 1
136 72 1
136 74 1
136 75 1
136 82 1
136 83 1
136 84 1
136 92 1
136 95 1
136 96 1
136 102 1
136 103 1
136 108 1
136 110 1
136 118 1
136 120 1
136 127 1
136 133 1
136 139 1
136 143 1
136 144 1
136 147 1
136 148 1
136 152 1
136 153 1
136 156 1
136 160 1
136 173 1
136 174 1
136 179 1
136 193 1
136 196 1
136 197 1
136 199 1
136 206 1
136 207 1
136 222 1
136 224 1
136 225 1
136 233 1
136 239 1
136 240 1
136 243 1
136 252 1
136 254 1
136 258 1
136 260 1
136 264 1
136 269 1
136 273 1
136 275 1
136 279 1
136 282 1
136 286 1
136 302 1
136 318 1
136 326 1
136 333 1
136 334 1
136 357 1
136 364 1
136 365 1
136 366 1
136 371 1
136 384 1
136 398 1
136 401 1
136 403 1
136 406 1
136 414 1
136 428 1
136 432 1
136 434 1
136 435 1
136 436 1
136 438 1
136 440 1
136 442 1
136 444 1
136 447 1
136 452 1
136 454 1
136 466 1
136 472 1
136 478 1
136 481 1
136 485 1
136 507 1
136 508 1
136 511 1
136 516 1
136 524 1
136 525 1
136 536 1
136 538 1
136 547 1
136 551 1
136 552 1
136 561 1
136 562 1
136 580 1
136 599 1
137 4 1
137 10 1
137 13 1
137 14 1
137 20 1
137 24 1
137 26 1
137 36 1
137 42 1
137 43 1
137 44 1
137 54 1
137 55 1
137 58 1
137 61 1
137 62 1
137 66 1
137 67 1
137 70 1
137 72 1
137 73 1
137 82 1
137 85 1
137 95 1
137 97 1
137 98 1
137 99 1
137 107 1
137 117 1
137 119 1
137 121 1
137 124 1
137 129 1
137 132 1
137 133 1
137 141 1
137 143 1
137 161 1
137 166 1
137 174 1
137 175 1
137 176 1
137 177 1
137 189 1
137 191 1
137 194 1
137 195 1
137 200 1
137 209 1
137 217 1
137 218 1
137 227 1
137 230 1
137 232 1
137 238 1
137 246 1
137 247 1
137 248 1
137 257 1
137 260 1
137 265 1
137 268 1
137 272 1
137 274 1
137 282 1
137 284 1
137 288 1
137 293 1
137 295 1
137 300 1
137 304 1
137 310 1
137 311 1
137 316 1
137 318 1
137 323 1
137 324 1
137 328 1
137 331 1
137 332 1
137 340 1
137 343 1
137 351 1
137 356 1
137 361 1
137 364 1
137 366 1
137 369 1
137 375 1
137 387 1
137 388 1
137 398 1
137 404 1
137 407 1
137 419 1
137 424 1
137 425 1
137 432 1
137 440 1
137 454 1
137 455 1
137 457 1
137 472 1
137 483 1
137 484 1
137 486 1
137 494 1
137 503 1
137 506 1
137 507 1
137 508 1
137 510 1
137 513 1
137 527 1
137 534 1
137 564 1
137 565 1
137 572 1
137 574 1
137 576 1
137 581 1
137 593 1
138 7 1
138 18 1
138 19 1
138 27 1
138 28 1
138 30 1
138 39 1
138 41 1
138 48 1
138 49 1
138 54 1
138 65 1
138 77 1
138 83 1
138 91 1
138 96 1
138 97 1
138 102 1
138 103 1
138 108 1
138 115 1
138 117 1
138 119 1
138 120 1
138 129 1
138 130 1
138 151 1
138 155 1
138 160 1
138 161 1
138 164 1
138 165 1
138 166 1
138 184 1
138 192 1
138 211 1
138 216 1
138 225 1
138 232 1
138 240 1
138 241 1
138 249 1
138 253 1
138 264 1
138 266 1
138 272 1
138 282 1
138 283 1
138 284 1
138 286 1
138 302 1
138 313 1
138 315 1
138 316 1
138 319 1
138 324 1
138 329 1
138 337 1
138 342 1
138 344 1
138 345 1
138 353 1
138 358 1
138 361 1
138 363 1
138 367 1
138 378 1
138 387 1
138 388 1
138 389 1
138 390 1
138 392 1
138 393 1
138 401 1
138 412 1
138 413 1
138 415 1
138 417 1
138 423 1
138 425 1
138 427 1
138 430 1
138 436 1
138 437 1
138 450 1
138 462 1
138 464 1
138 474 1
138 479 1
138 481 1
138 482 1
138 486 1
138 487 1
138 495 1
138 509 1
138 510 1
138 511 1
138 515 1
138 526 1
138 528 1
138 540 1
138 544 1
138 548 1
138 550 1
138 551 1
138 552 1
138 553 1
138 554 1
138 563 1
138 570 1
138 575 1
138 578 1
138 580 1
138 581 1
138 587 1
138 595 1
138 596 1
138 597 1
139 2 1
139 4 1
139 6 1
139 12 1
139 17 1
139 29 1
139 30 1
139 33 1
139 38 1
139 42 1
139 46 1
139 50 1
139 51 1
139 56 1
139 58 1
139 64 1
139 65 1
139 77 1
139 78 1
139 90 1
139 92 1
139 95 1
139 97 1
139 100 1
139 102 1
139 103 1
139 118 1
139 120 1
139 123 1
139 126 1
139 127 1
139 134 1
139 135 1
139 136 1
139 140 1
139 155 1
139 170 1
139 173 1
139 174 1
139 175 1
139 185 1
139 189 1
139 194 1
139 198 1
139 199 1
139 205 1
139 214 1
139 215 1
139 216 1
139 223 1
139 229 1
139 239 1
139 245 1
139 256 1
139 263 1
139 265 1
139 268 1
139 285 1
139 293 1
139 303 1
139 306 1
139 316 1
139 318 1
139 320 1
139 332 1
139 335 1
139 338 1
139 339 1
139 341 1
139 342 1
139 346 1
139 348 1
139 353 1
139 365 1
139 390 1
139 391 1
139 393 1
139 396 1
139 400 1
139 402 1
139 406 1
139 409 1
139 410 1
139 412 1
139 433 1
139 435 1
139 436 1
139 438 1
139 440 1
139 452 1
139 454 1
139 455 1
139 461 1
139 463 1
139 468 1
139 477 1
139 487 1
139 493 1
139 509 1
139 514 1
139 518 1
139 521 1
139 546 1
139 559 1
139 563 1
139 575 1
139 586 1
139 591 1
139 598 1
140 1 1
140 6 1
140 10 1
140 12 1
140 13 1
140 17 1
140 28 1
140 30 1
140 49 1
140 53 1
140 55 1
140 60 1
140 67 1
140 78 1
140 80 1
140 83 1
140 85 1
140 91 1
140 95 1
140 96 1
140 97 1
140 109 1
140 121 1
140 123 1
140 132 1
140 135 1
140 139 1
140 144 1
140 145 1
140 150 1
140 151 1
140 160 1
140 163 1
140 168 1
140 169 1
140 174 1
140 186 1
140 192 1
140 205 1
140 209 1
140 212 1
140 222 1
140 223 1
140 229 1
140 230 1
140 241 1
140 245 1
140 246 1
140 247 1
140 250 1
140 251 1
140 254 1
140 257 1
140 263 1
140 266 1
140 272 1
140 274 1
140 276 1
140 278 1
140 281 1
140 292 1
140 295 1
140 296 1
140 297 1
140 298 1
140 302 1
140 303 1
140 304 1
140 310 1
140 312 1
140 313 1
140 316 1
140 318 1
140 320 1
140 324 1
140 331 1
140 333 1
140 335 1
140 340 1
140 344 1
140 348 1
140 363 1
140 366 1
140 380 1
140 382 1
140 386 1
140 392 1
140 412 1
140 415 1
140 417 1
140 423 1
140 428 1
140 437 1
140 439 1
140 445 1
140 455 1
140 456 1
140 460 1
140 471 1
140 476 1
140 477 1
140 481 1
140 485 1
140 489 1
140 496 1
140 500 1
140 502 1
140 503 1
140 508 1
140 509 1
140 515 1
140 520 1
140 527 1
140 528 1
140 530 1
140 531 1
140 537 1
140 538 1
140 540 1
140 541 1
140 542 1
140 571 1
140 582 1
141 2 1
141 17 1
141 19 1
141 20 1
141 32 1
141 36 1
141 43 1
141 45 1
141 48 1
141 51 1
141 52 1
141 56 1
141 58 1
141 60 1
141 61 1
141 63 1
141 68 1
141 70 1
141 71 1
141 73 1
141 77 1
141 78 1
141 83 1
141 84 1
141 86 1
141 90 1
141 93 1
141 95 1
141 99 1
141 101 1
141 121 1
141 129 1
141 137 1
141 151 1
141 159 1
141 162 1
141 164 1
141 170 1
141 180 1
141 181 1
141 190 1
141 191 1
141 195 1
141 201 1
141 207 1
141 216 1
141 238 1
141 240 1
141 249 1
141 251 1
141 255 1
141 262 1
141 265 1
141 268 1
141 270 1
141 277 1
141 288 1
141 292 1
141 294 1
141 295 1
141 298 1
141 312 1
141 313 1
141 321 1
141 331 1
141 334 1
141 342 1
141 345 1
141 347 1
141 349 1
141 357 1
141 362 1
141 366 1
141 375 1
141 385 1
141 388 1
141 392 1
141 405 1
141 406 1
141 421 1
141 429 1
141 430 1
141 433 1
141 439 1
141 440 1
141 443 1
141 445 1
141 467 1
141 479 1
141 483 1
141 506 1
141 510 1
141 514 1
141 516 1
141 518 1
141 520 1
141 522 1
141 530 1
141 532 1
141 536 1
141 538 1
141 541 1
141 542 1
141 549 1
141 553 1
141 557 1
141 562 1
141 567 1
141 573 1
141 582 1
141 584 1
141 585 1
141 587 1
141 596 1
142 4 1
142 9 1
142 12 1
142 14 1
142 25 1
142 27 1
142 29 1
142 31 1
142 38 1
142 43 1
142 53 1
142 63 1
142 64 1
142 69 1
142 75 1
142 79 1
142 85 1
142 87 1
142 99 1
142 101 1
142 105 1
142 110 1
142 113 1
142 114 1
142 116 1
142 127 1
142 132 1
142 133 1
142 135 1
142 146 1
142 156 1
142 160 1
142 162 1
142 171 1
142 175 1
142 178 1
142 182 1
142 184 1
142 193 1
142 196 1
142 198 1
142 204 1
142 209 1
142 219 1
142 222 1
142 223 1
142 225 1
142 233 1
142 234 1
142 235 1
142 238 1
142 240 1
142 257 1
142 258 1
142 259 1
142 262 1
142 265 1
142 268 1
142 274 1
142 280 1
142 283 1
142 290 1
142 292 1
142 296 1
142 301 1
142 304 1
142 307 1
142 313 1
142 316 1
142 317 1
142 326 1
142 331 1
142 332 1
142 333 1
142 343 1
142 347 1
142 360 1
142 365 1
142 367 1
142 370 1
142 371 1
142 372 1
142 376 1
142 377 1
142 382 1
142 390 1
142 402 1
142 419 1
142 421 1
142 422 1
142 425 1
142 427 1
142 434 1
142 435 1
142 440 1
142 441 1
142 445 1
142 450 1
142 451 1
142 469 1
142 476 1
142 478 1
142 479 1
142 480 1
142 488 1
142 496 1
142 513 1
142 515 1
142 521 1
142 523 1
142 530 1
142 533 1
142 537 1
142 538 1
142 541 1
142 547 1
142 552 1
142 554 1
142 573 1
142 585 1
142 591 1
143 1 1
143 8 1
143 9 1
143 10 1
143 12 1
143 20 1
143 21 1
143 23 1
143 25 1
143 31 1
143 39 1
143 43 1
143 49 1
143 54 1
143 61 1
143 70 1
143 81 1
143 87 1
143 91 1
143 94 1
143 95 1
143 109 1
143 110 1
143 120 1
143 121 1
143 128 1
143 136 1
143 137 1
143 144 1
143 147 1
143 148 1
143 149 1
143 155 1
143 157 1
143 173 1
143 176 1
143 178 1
143 181 1
143 190 1
143 203 1
143 208 1
143 212 1
143 213 1
143 218 1
143 219 1
143 221 1
143 231 1
143 233 1
143 238 1
143 246 1
143 252 1
143 264 1
143 268 1
143 269 1
143 271 1
143 275 1
143 290 1
143 291 1
143 302 1
143 303 1
143 310 1
143 318 1
143 322 1
143 339 1
143 356 1
143 369 1
143 374 1
143 375 1
143 380 1
143 381 1
143 390 1
143 391 1
143 397 1
143 400 1
143 401 1
143 404 1
143 408 1
143 414 1
143 416 1
143 418 1
143 423 1
143 427 1
143 428 1
143 439 1
143 456 1
143 459 1
143 462 1
143 466 1
143 484 1
143 485 1
143 488 1
143 490 1
143 494 1
143 496 1
143 504 1
143 514 1
143 521 1
143 525 1
143 526 1
143 533 1
143 544 1
143 561 1
143 564 1
143 568 1
143 570 1
143 577 1
143 578 1
143 588 1
143 590 1
143 592 1
143 593 1
143 594 1
143 596 1
143 599 1
144 1 1
144 5 1
144 10 1
144 15 1
144 21 1
144 26 1
144 29 1
144 32 1
144 37 1
144 38 1
144 40 1
144 56 1
144 64 1
144 69 1
144 74 1
144 79 1
144 83 1
144 85 1
144 90 1
144 93 1
144 105 1
144 107 1
144 108 1
144 111 1
144 112 1
144 115 1
144 119 1
144 123 1
144 127 1
144 130 1
144 136 1
144 140 1
144 143 1
144 149 1
144 154 1
144 165 1
144 168 1
144 170 1
144 178 1
144 192 1
144 197 1
144 201 1
144 203 1
144 204 1
144 219 1
144 220 1
144 225 1
144 239 1
144 240 1
144 242 1
144 245 1
144 246 1
144 248 1
144 249 1
144 250 1
144 255 1
144 261 1
144 262 1
144 278 1
144 286 1
144 288 1
144 296 1
144 312 1
144 315 1
144 322 1
144 326 1
144 327 1
144 331 1
144 332 1
144 336 1
144 338 1
144 345 1
144 348 1
144 358 1
144 361 1
144 365 1
144 369 1
144 379 1
144 390 1
144 391 1
144 393 1
144 402 1
144 403 1
144 415 1
144 426 1
144 429 1
144 433 1
144 436 1
144 441 1
144 445 1
144 446 1
144 453 1
144 456 1
144 459 1
144 469 1
144 473 1
144 479 1
144 483 1
144 488 1
144 489 1
144 491 1
144 496 1
144 499 1
144 501 1
144 502 1
144 514 1
144 520 1
144 529 1
144 533 1
144 541 1
144 548 1
144 549 1
144 557 1
144 559 1
144 561 1
144 569 1
144 575 1
144 583 1
144 586 1
145 9 1
145 16 1
145 17 1
145 18 1
145 22 1
145 23 1
145 26 1
145 30 1
145 34 1
145 35 1
145 37 1
145 39 1
145 42 1
145 43 1
145 47 1
145 48 1
145 55 1
145 56 1
145 64 1
145 65 1
145 67 1
145 74 1
145 76 1
145 82 1
145 88 1
145 99 1
145 100 1
145 108 1
145 110 1
145 114 1
145 115 1
145 120 1
145 121 1
145 130 1
145 140 1
145 152 1
145 156 1
145 162 1
145 176 1
145 177 1
145 178 1
145 188 1
145 189 1
145 190 1
145 192 1
145 198 1
145 204 1
145 211 1
145 219 1
145 220 1
145 225 1
145 226 1
145 233 1
145 235 1
145 238 1
145 239 1
145 240 1
145 242 1
145 253 1
145 254 1
145 258 1
145 259 1
145 260 1
145 261 1
145 262 1
145 268 1
145 277 1
145 286 1
145 287 1
145 291 1
145 293 1
145 298 1
145 303 1
145 307 1
145 314 1
145 318 1
145 330 1
145 334 1
145 337 1
145 353 1
145 365 1
145 367 1
145 387 1
145 404 1
145 414 1
145 417 1
145 421 1
145 423 1
145 429 1
145 446 1
145 452 1
145 458 1
145 459 1
145 473 1
145 484 1
145 489 1
145 493 1
145 497 1
145 505 1
145 520 1
145 523 1
145 524 1
145 527 1
145 531 1
145 541 1
145 548 1
145 556 1
145 565 1
145 566 1
145 568 1
145 574 1
145 576 1
145 580 1
145 586 1
145 593 1
145 594 1
145 597 1
145 600 1
146 6 1
146 9 1
146 11 1
146 18 1
146 23 1
146 25 1
146 40 1
146 41 1
146 47 1
146 49 1
146 50 1
146 51 1
146 55 1
146 57 1
146 61 1
146 62 1
146 66 1
146 79 1
146 81 1
146 83 1
146 89 1
146 90 1
146 92 1
146 93 1
146 94 1
146 98 1
146 100 1
146 105 1
146 108 1
146 115 1
146 142 1
146 147 1
146 152 1
146 154 1
146 156 1
146 157 1
146 158 1
146 163 1
146 169 1
146 170 1
146 174 1
146 177 1
146 180 1
146 182 1
146 189 1
146 203 1
146 218 1
146 224 1
146 227 1
146 231 1
146 233 1
146 244 1
146 249 1
146 253 1
146 259 1
146 272 1
146 275 1
146 278 1
146 280 1
146 288 1
146 294 1
146 305 1
146 306 1
146 308 1
146 309 1
146 310 1
146 315 1
146 316 1
146 317 1
146 318 1
146 320 1
146 322 1
146 339 1
146 342 1
146 343 1
146 345 1
146 348 1
146 354 1
146 356 1
146 360 1
146 361 1
146 363 1
146 367 1
146 368 1
146 370 1
146 377 1
146 384 1
146 388 1
146 390 1
146 391 1
146 392 1
146 395 1
146 398 1
146 399 1
146 409 1
146 423 1
146 425 1
146 435 1
146 450 1
146 451 1
146 452 1
146 454 1
146 458 1
146 462 1
146 467 1
146 474 1
146 476 1
146 479 1
146 488 1
146 493 1
146 503 1
146 504 1
146 507 1
146 511 1
146 520 1
146 522 1
146 535 1
146 539 1
146 567 1
146 570 1
146 579 1
146 580 1
146 586 1
146 588 1
146 597 1
146 600 1
147 18 1
147 23 1
147 24 1
147 31 1
147 32 1
147 33 1
147 34 1
147 37 1
147 38 1
147 51 1
147 56 1
147 58 1
147 61 1
147 63 1
147 74 1
147 79 1
147 81 1
147 91 1
147 93 1
147 94 1
147 98 1
147 108 1
147 118 1
147 122 1
147 126 1
147 130 1
147 131 1
147 136 1
147 143 1
147 146 1
147 153 1
147 155 1
147 156 1
147 157 1
147 160 1
147 164 1
147 176 1
147 177 1
147 180 1
147 184 1
147 188 1
147 198 1
147 199 1
147 200 1
147 203 1
147 206 1
147 215 1
147 217 1
147 218 1
147 232 1
147 233 1
147 234 1
147 242 1
147 251 1
147 257 1
147 260 1
147 263 1
147 270 1
147 273 1
147 275 1
147 278 1
147 280 1
147 282 1
147 289 1
147 294 1
147 302 1
147 305 1
147 308 1
147 310 1
147 313 1
147 316 1
147 318 1
147 322 1
147 327 1
147 332 1
147 341 1
147 343 1
147 346 1
147 353 1
147 355 1
147 356 1
147 360 1
147 364 1
147 369 1
147 370 1
147 375 1
147 376 1
147 377 1
147 384 1
147 386 1
147 394 1
147 398 1
147 401 1
147 404 1
147 406 1
147 411 1
147 412 1
147 419 1
147 422 1
147 425 1
147 436 1
147 455 1
147 456 1
147 468 1
147 469 1
147 472 1
147 476 1
147 478 1
147 479 1
147 480 1
147 482 1
147 485 1
147 495 1
147 501 1
147 504 1
147 511 1
147 512 1
147 515 1
147 523 1
147 527 1
147 532 1
147 546 1
147 550 1
147 554 1
147 556 1
147 563 1
147 566 1
147 568 1
147 569 1
147 576 1
147 578 1
147 584 1
147 590 1
147 594 1
147 597 1
147 598 1
148 4 1
148 7 1
148 9 1
148 15 1
148 16 1
148 21 1
148 22 1
148 23 1
148 35 1
148 40 1
148 44 1
148 58 1
148 63 1
148 65 1
148 66 1
148 71 1
148 82 1
148 83 1
148 84 1
148 86 1
148 89 1
148 95 1
148 100 1
148 107 1
148 110 1
148 120 1
148 124 1
148 126 1
148 129 1
148 131 1
148 133 1
148 136 1
148 143 1
148 155 1
148 157 1
148 163 1
148 168 1
148 170 1
148 179 1
148 183 1
148 190 1
148 193 1
148 194 1
148 214 1
148 216 1
148 217 1
148 219 1
148 230 1
148 236 1
148 238 1
148 241 1
148 245 1
148 247 1
148 251 1
148 252 1
148 253 1
148 259 1
148 260 1
148 270 1
148 275 1
148 280 1
148 283 1
148 284 1
148 292 1
148 295 1
148 296 1
148 299 1
148 301 1
148 308 1
148 310 1
148 314 1
148 318 1
148 327 1
148 333 1
148 336 1
148 350 1
148 358 1
148 365 1
148 366 1
148 373 1
148 378 1
148 393 1
148 395 1
148 397 1
148 398 1
148 402 1
148 404 1
148 407 1
148 412 1
148 414 1
148 419 1
148 420 1
148 427 1
148 432 1
148 437 1
148 441 1
148 444 1
148 447 1
148 450 1
148 451 1
148 467 1
148 472 1
148 475 1
148 477 1
148 487 1
148 489 1
148 498 1
148 499 1
148 501 1
148 502 1
148 506 1
148 514 1
148 515 1
148 518 1
148 520 1
148 524 1
148 527 1
148 556 1
148 560 1
148 564 1
148 572 1
148 573 1
148 576 1
148 584 1
148 587 1
148 588 1
148 600 1
149 5 1
149 32 1
149 41 1
149 51 1
149 55 1
149 59 1
149 65 1
149 73 1
149 76 1
149 93 1
149 101 1
149 102 1
149 107 1
149 119 1
149 123 1
149 126 1
149 128 1
149 129 1
149 134 1
149 135 1
149 143 1
149 144 1
149 154 1
149 156 1
149 157 1
149 158 1
149 159 1
149 160 1
149 165 1
149 169 1
149 170 1
149 187 1
149 189 1
149 193 1
149 195 1
149 197 1
149 199 1
149 206 1
149 208 1
149 209 1
149 211 1
149 212 1
149 213 1
149 217 1
149 235 1
149 237 1
149 244 1
149 248 1
149 249 1
149 254 1
149 258 1
149 260 1
149 270 1
149 284 1
149 290 1
149 293 1
149 299 1
149 302 1
149 303 1
149 306 1
149 309 1
149 312 1
149 313 1
149 315 1
149 316 1
149 318 1
149 319 1
149 324 1
149 330 1
149 331 1
149 333 1
149 338 1
149 342 1
149 350 1
149 351 1
149 352 1
149 353 1
149 359 1
149 363 1
149 391 1
149 397 1
149 398 1
149 404 1
149 416 1
149 428 1
149 429 1
149 433 1
149 435 1
149 437 1
149 445 1
149 451 1
149 452 1
149 456 1
149 465 1
149 469 1
149 475 1
149 476 1
149 486 1
149 488 1
149 498 1
149 500 1
149 502 1
149 510 1
149 511 1
149 516 1
149 519 1
149 523 1
149 525 1
149 530 1
149 532 1
149 548 1
149 552 1
149 556 1
149 558 1
149 559 1
149 571 1
149 572 1
149 584 1
149 590 1
149 594 1
150 5 1
150 7 1
150 10 1
150 11 1
150 25 1
150 26 1
150 31 1
150 34 1
150 40 1
150 41 1
150 42 1
150 52 1
150 54 1
150 59 1
150 63 1
150 70 1
150 72 1
150 75 1
150 79 1
150 93 1
150 100 1
150 103 1
150 107 1
150 109 1
150 110 1
150 124 1
150 134 1
150 140 1
150 153 1
150 154 1
150 159 1
150 161 1
150 162 1
150 163 1
150 174 1
150 176 1
150 181 1
150 187 1
150 190 1
150 196 1
150 199 1
150 202 1
150 209 1
150 215 1
150 217 1
150 222 1
150 226 1
150 229 1
150 230 1
150 242 1
150 248 1
150 256 1
150 259 1
150 260 1
150 263 1
150 269 1
150 270 1
150 272 1
150 274 1
150 276 1
150 285 1
150 305 1
150 306 1
150 308 1
150 310 1
150 311 1
150 314 1
150 318 1
150 319 1
150 322 1
150 327 1
150 332 1
150 336 1
150 338 1
150 340 1
150 346 1
150 352 1
150 360 1
150 361 1
150 372 1
150 373 1
150 381 1
150 383 1
150 386 1
150 390 1
150 397 1
150 402 1
150 412 1
150 420 1
150 425 1
150 427 1
150 430 1
150 432 1
150 437 1
150 439 1
150 441 1
150 442 1
150 449 1
150 458 1
150 473 1
150 475 1
150 479 1
150 492 1
150 494 1
150 495 1
150 502 1
150 506 1
150 508 1
150 512 1
150 514 1
150 519 1
150 531 1
150 539 1
150 540 1
150 550 1
150 571 1
150 577 1
150 578 1
150 582 1
150 586 1
150 599 1
151 1 1
151 2 1
151 3 1
151 9 1
151 12 1
151 17 1
151 22 1
151 30 1
151 36 1
151 46 1
151 50 1
151 54 1
151 57 1
151 68 1
151 71 1
151 77 1
151 80 1
151 81 1
151 82 1
151 83 1
151 84 1
151 86 1
151 90 1
151 91 1
151 96 1
151 104 1
151 110 1
151 116 1
151 118 1
151 124 1
151 129 1
151 132 1
151 134 1
151 138 1
151 140 1
151 141 1
151 157 1
151 160 1
151 167 1
151 180 1
151 186 1
151 198 1
151 200 1
151 204 1
151 210 1
151 214 1
151 224 1
151 227 1
151 232 1
151 234 1
151 245 1
151 258 1
151 259 1
151 263 1
151 271 1
151 282 1
151 283 1
151 284 1
151 287 1
151 289 1
151 290 1
151 301 1
151 302 1
151 305 1
151 306 1
151 311 1
151 313 1
151 320 1
151 322 1
151 326 1
151 328 1
151 331 1
151 335 1
151 341 1
151 366 1
151 372 1
151 378 1
151 383 1
151 396 1
151 398 1
151 404 1
151 409 1
151 414 1
151 418 1
151 421 1
151 422 1
151 423 1
151 426 1
151 428 1
151 436 1
151 438 1
151 443 1
151 448 1
151 455 1
151 457 1
151 458 1
151 461 1
151 475 1
151 484 1
151 492 1
151 505 1
151 509 1
151 518 1
151 524 1
151 527 1
151 530 1
151 535 1
151 539 1
151 542 1
151 549 1
151 557 1
151 559 1
151 560 1
151 564 1
151 569 1
151 570 1
151 578 1
151 581 1
151 583 1
151 589 1
151 593 1
152 2 1
152 6 1
152 7 1
152 16 1
152 23 1
152 24 1
152 29 1
152 30 1
152 32 1
152 47 1
152 48 1
152 49 1
152 54 1
152 57 1
152 58 1
152 66 1
152 70 1
152 85 1
152 87 1
152 100 1
152 101 1
152 103 1
152 104 1
152 120 1
152 123 1
152 124 1
152 125 1
152 128 1
152 130 1
152 132 1
152 134 1
152 136 1
152 145 1
152 146 1
152 155 1
152 156 1
152 165 1
152 169 1
152 175 1
152 178 1
152 181 1
152 182 1
152 184 1
152 186 1
152 190 1
152 192 1
152 194 1
152 199 1
152 201 1
152 202 1
152 210 1
152 211 1
152 213 1
152 214 1
152 215 1
152 216 1
152 220 1
152 221 1
152 222 1
152 225 1
152 227 1
152 231 1
152 236 1
152 244 1
152 247 1
152 249 1
152 251 1
152 255 1
152 256 1
152 258 1
152 265 1
152 268 1
152 273 1
152 277 1
152 282 1
152 283 1
152 286 1
152 290 1
152 295 1
152 308 1
152 326 1
152 328 1
152 331 1
152 333 1
152 335 1
152 340 1
152 356 1
152 363 1
152 364 1
152 366 1
152 372 1
152 399 1
152 402 1
152 409 1
152 417 1
152 419 1
152 420 1
152 425 1
152 428 1
152 432 1
152 448 1
152 449 1
152 453 1
152 459 1
152 460 1
152 464 1
152 465 1
152 469 1
152 470 1
152 476 1
152 485 1
152 487 1
152 498 1
152 510 1
152 513 1
152 517 1
152 522 1
152 523 1
152 531 1
152 532 1
152 539 1
152 548 1
152 550 1
152 553 1
152 561 1
152 564 1
152 568 1
152 572 1
152 576 1
152 580 1
152 581 1
152 587 1
152 589 1
153 7 1
153 20 1
153 52 1
153 55 1
153 57 1
153 65 1
153 66 1
153 71 1
153 73 1
153 74 1
153 77 1
153 78 1
153 96 1
153 110 1
153 113 1
153 116 1
153 128 1
153 130 1
153 136 1
153 147 1
153 150 1
153 155 1
153 171 1
153 172 1
153 180 1
153 187 1
153 201 1
153 207 1
153 212 1
153 223 1
153 227 1
153 231 1
153 241 1
153 242 1
153 244 1
153 254 1
153 260 1
153 265 1
153 266 1
153 267 1
153 268 1
153 271 1
153 294 1
153 299 1
153 303 1
153 310 1
153 322 1
153 323 1
153 327 1
153 339 1
153 340 1
153 349 1
153 351 1
153 358 1
153 362 1
153 365 1
153 367 1
153 375 1
153 377 1
153 384 1
153 387 1
153 390 1
153 400 1
153 401 1
153 410 1
153 412 1
153 415 1
153 416 1
153 417 1
153 418 1
153 420 1
153 423 1
153 427 1
153 429 1
153 431 1
153 432 1
153 440 1
153 452 1
153 456 1
153 471 1
153 472 1
153 474 1
153 482 1
153 487 1
153 492 1
153 493 1
153 501 1
153 504 1
153 523 1
153 524 1
153 527 1
153 529 1
153 532 1
153 535 1
153 539 1
153 550 1
153 551 1
153 553 1
153 557 1
153 565 1
153 569 1
153 576 1
153 578 1
153 579 1
153 596 1
153 598 1
154 13 1
154 21 1
154 22 1
154 24 1
154 42 1
154 52 1
154 59 1
154 69 1
154 74 1
154 75 1
154 80 1
154 83 1
154 84 1
154 85 1
154 88 1
154 104 1
154 105 1
154 106 1
154 117 1
154 118 1
154 122 1
154 133 1
154 144 1
154 146 1
154 149 1
154 150 1
154 165 1
154 184 1
154 185 1
154 190 1
154 197 1
154 208 1
154 211 1
154 220 1
154 234 1
154 240 1
154 241 1
154 252 1
154 255 1
154 262 1
154 266 1
154 283 1
154 292 1
154 296 1
154 303 1
154 306 1
154 316 1
154 317 1
154 325 1
154 326 1
154 328 1
154 329 1
154 332 1
154 335 1
154 346 1
154 347 1
154 356 1
154 360 1
154 364 1
154 372 1
154 379 1
154 380 1
154 389 1
154 396 1
154 399 1
154 403 1
154 412 1
154 417 1
154 421 1
154 425 1
154 427 1
154 430 1
154 431 1
154 432 1
154 436 1
154 438 1
154 441 1
154 450 1
154 451 1
154 457 1
154 461 1
154 467 1
154 472 1
154 473 1
154 474 1
154 488 1
154 490 1
154 491 1
154 504 1
154 505 1
154 514 1
154 515 1
154 518 1
154 522 1
154 531 1
154 532 1
154 534 1
154 539 1
154 541 1
154 545 1
154 547 1
154 555 1
154 568 1
154 571 1
154 584 1
154 586 1
154 587 1
154 589 1
154 597 1
155 2 1
155 6 1
155 11 1
155 24 1
155 27 1
155 32 1
155 34 1
155 41 1
155 45 1
155 46 1
155 52 1
155 55 1
155 56 1
155 60 1
155 67 1
155 70 1
155 71 1
155 73 1
155 74 1
155 76 1
155 77 1
155 81 1
155 84 1
155 88 1
155 93 1
155 98 1
155 99 1
155 101 1
155 105 1
155 107 1
155 116 1
155 118 1
155 129 1
155 138 1
155 139 1
155 143 1
155 147 1
155 148 1
155 152 1
155 153 1
155 168 1
155 171 1
155 175 1
155 184 1
155 210 1
155 211 1
155 219 1
155 232 1
155 242 1
155 244 1
155 246 1
155 249 1
155 256 1
155 257 1
155 268 1
155 270 1
155 271 1
155 273 1
155 290 1
155 295 1
155 297 1
155 304 1
155 312 1
155 319 1
155 325 1
155 335 1
155 337 1
155 346 1
155 347 1
155 348 1
155 388 1
155 389 1
155 392 1
155 416 1
155 421 1
155 422 1
155 423 1
155 426 1
155 427 1
155 430 1
155 432 1
155 436 1
155 442 1
155 448 1
155 452 1
155 454 1
155 467 1
155 475 1
155 483 1
155 484 1
155 490 1
155 494 1
155 518 1
155 521 1
155 524 1
155 525 1
155 529 1
155 533 1
155 535 1
155 536 1
155 544 1
155 548 1
155 559 1
155 561 1
155 562 1
155 566 1
155 568 1
155 570 1
155 572 1
155 577 1
155 578 1
155 582 1
155 591 1
155 595 1
155 600 1
156 1 1
156 4 1
156 5 1
156 8 1
156 11 1
156 13 1
156 14 1
156 18 1
156 28 1
156 31 1
156 32 1
156 38 1
156 41 1
156 47 1
156 49 1
156 68 1
156 74 1
156 77 1
156 78 1
156 81 1
156 84 1
156 96 1
156 101 1
156 102 1
156 105 1
156 108 1
156 117 1
156 121 1
156 123 1
156 124 1
156 125 1
156 135 1
156 136 1
156 142 1
156 145 1
156 146 1
156 147 1
156 149 1
156 152 1
156 159 1
156 163 1
156 165 1
156 166 1
156 176 1
156 178 1
156 180 1
156 183 1
156 190 1
156 192 1
156 193 1
156 196 1
156 205 1
156 207 1
156 216 1
156 220 1
156 223 1
156 224 1
156 227 1
156 232 1
156 245 1
156 260 1
156 264 1
156 266 1
156 275 1
156 283 1
156 285 1
156 286 1
156 289 1
156 295 1
156 296 1
156 303 1
156 317 1
156 318 1
156 319 1
156 320 1
156 325 1
156 326 1
156 331 1
156 335 1
156 343 1
156 349 1
156 359 1
156 363 1
156 365 1
156 370 1
156 381 1
156 384 1
156 390 1
156 399 1
156 401 1
156 405 1
156 406 1
156 407 1
156 410 1
156 414 1
156 419 1
156 420 1
156 434 1
156 441 1
156 448 1
156 449 1
156 453 1
156 456 1
156 460 1
156 462 1
156 464 1
156 478 1
156 480 1
156 484 1
156 485 1
156 491 1
156 492 1
156 500 1
156 505 1
156 508 1
156 509 1
156 511 1
156 513 1
156 520 1
156 523 1
156 527 1
156 530 1
156 532 1
156 540 1
156 541 1
156 547 1
156 553 1
156 560 1
156 565 1
156 566 1
156 574 1
156 576 1
156 581 1
156 584 1
156 586 1
156 589 1
156 590 1
156 591 1
156 596 1
157 1 1
157 2 1
157 6 1
157 7 1
157 9 1
157 15 1
157 19 1
157 24 1
157 29 1
157 30 1
157 42 1
157 46 1
157 55 1
157 62 1
157 69 1
157 76 1
157 84 1
157 89 1
157 93 1
157 95 1
157 100 1
157 102 1
157 107 1
157 110 1
157 118 1
157 143 1
157 146 1
157 147 1
157 148 1
157 149 1
157 151 1
157 158 1
157 166 1
157 169 1
157 177 1
157 179 1
157 183 1
157 190 1
157 193 1
157 200 1
157 201 1
157 203 1
157 207 1
157 208 1
157 214 1
157 215 1
157 226 1
157 243 1
157 245 1
157 247 1
157 248 1
157 250 1
157 251 1
157 258 1
157 260 1
157 261 1
157 274 1
157 275 1
157 279 1
157 281 1
157 291 1
157 293 1
157 309 1
157 315 1
157 318 1
157 320 1
157 326 1
157 330 1
157 339 1
157 348 1
157 349 1
157 354 1
157 355 1
157 357 1
157 360 1
157 361 1
157 366 1
157 368 1
157 370 1
157 373 1
157 375 1
157 379 1
157 381 1
157 384 1
157 396 1
157 401 1
157 403 1
157 408 1
157 413 1
157 421 1
157 422 1
157 423 1
157 427 1
157 428 1
157 429 1
157 437 1
157 442 1
157 444 1
157 447 1
157 455 1
157 460 1
157 463 1
157 464 1
157 478 1
157 492 1
157 495 1
157 505 1
157 516 1
157 520 1
157 522 1
157 524 1
157 525 1
157 527 1
157 530 1
157 537 1
157 539 1
157 540 1
157 544 1
157 553 1
157 563 1
157 567 1
157 568 1
157 577 1
157 578 1
158 6 1
158 9 1
158 15 1
158 22 1
158 24 1
158 25 1
158 27 1
158 28 1
158 44 1
158 49 1
158 51 1
158 54 1
158 58 1
158 61 1
158 66 1
158 68 1
158 72 1
158 83 1
158 86 1
158 87 1
158 88 1
158 98 1
158 104 1
158 111 1
158 113 1
158 114 1
158 123 1
158 124 1
158 126 1
158 127 1
158 128 1
158 130 1
158 133 1
158 146 1
158 149 1
158 157 1
158 161 1
158 163 1
158 177 1
158 181 1
158 194 1
158 195 1
158 204 1
158 216 1
158 220 1
158 222 1
158 227 1
158 244 1
158 252 1
158 259 1
158 260 1
158 261 1
158 267 1
158 274 1
158 276 1
158 277 1
158 281 1
158 282 1
158 290 1
158 293 1
158 307 1
158 309 1
158 314 1
158 318 1
158 321 1
158 324 1
158 329 1
158 336 1
158 338 1
158 339 1
158 348 1
158 349 1
158 350 1
158 352 1
158 359 1
158 360 1
158 361 1
158 367 1
158 377 1
158 378 1
158 379 1
158 382 1
158 383 1
158 385 1
158 389 1
158 394 1
158 403 1
158 406 1
158 431 1
158 432 1
158 435 1
158 437 1
158 439 1
158 446 1
158 459 1
158 462 1
158 464 1
158 470 1
158 485 1
158 486 1
158 489 1
158 490 1
158 491 1
158 494 1
158 495 1
158 499 1
158 507 1
158 527 1
158 528 1
158 531 1
158 541 1
158 548 1
158 556 1
158 563 1
158 565 1
158 566 1
158 567 1
158 573 1
158 577 1
158 580 1
158 589 1
158 595 1
158 599 1
159 10 1
159 12 1
159 14 1
159 20 1
159 21 1
159 22 1
159 23 1
159 29 1
159 38 1
159 39 1
159 42 1
159 47 1
159 52 1
159 57 1
159 60 1
159 65 1
159 75 1
159 78 1
159 83 1
159 90 1
159 91 1
159 98 1
159 99 1
159 109 1
159 114 1
159 125 1
159 126 1
159 141 1
159 149 1
159 150 1
159 156 1
159 160 1
159 162 1
159 172 1
159 173 1
159 181 1
159 192 1
159 193 1
159 196 1
159 199 1
159 206 1
159 213 1
159 214 1
159 217 1
159 218 1
159 222 1
159 224 1
159 227 1
159 231 1
159 237 1
159 241 1
159 242 1
159 243 1
159 245 1
159 248 1
159 249 1
159 260 1
159 267 1
159 270 1
159 273 1
159 278 1
159 283 1
159 291 1
159 292 1
159 300 1
159 302 1
159 303 1
159 308 1
159 311 1
159 313 1
159 321 1
159 322 1
159 328 1
159 336 1
159 341 1
159 345 1
159 354 1
159 365 1
159 371 1
159 373 1
159 377 1
159 385 1
159 391 1
159 397 1
159 398 1
159 401 1
159 405 1
159 407 1
159 412 1
159 415 1
159 417 1
159 419 1
159 422 1
159 423 1
159 427 1
159 431 1
159 432 1
159 436 1
159 440 1
159 441 1
159 444 1
159 445 1
159 452 1
159 455 1
159 469 1
159 470 1
159 472 1
159 474 1
159 476 1
159 478 1
159 480 1
159 484 1
159 486 1
159 487 1
159 491 1
159 492 1
159 497 1
159 501 1
159 502 1
159 509 1
159 519 1
159 522 1
159 534 1
159 544 1
159 547 1
159 555 1
159 560 1
159 566 1
159 568 1
159 573 1
159 575 1
159 582 1
159 590 1
160 3 1
160 17 1
160 29 1
160 30 1
160 35 1
160 46 1
160 50 1
160 58 1
160 70 1
160 71 1
160 75 1
160 76 1
160 79 1
160 105 1
160 107 1
160 110 1
160 119 1
160 136 1
160 138 1
160 140 1
160 142 1
160 147 1
160 149 1
160 151 1
160 159 1
160 167 1
160 169 1
160 183 1
160 184 1
160 190 1
160 202 1
160 206 1
160 212 1
160 220 1
160 221 1
160 235 1
160 239 1
160 241 1
160 243 1
160 244 1
160 257 1
160 261 1
160 262 1
160 264 1
160 271 1
160 280 1
160 281 1
160 285 1
160 286 1
160 298 1
160 308 1
160 314 1
160 321 1
160 322 1
160 325 1
160 328 1
160 329 1
160 333 1
160 336 1
160 337 1
160 341 1
160 345 1
160 347 1
160 350 1
160 354 1
160 359 1
160 361 1
160 366 1
160 378 1
160 379 1
160 380 1
160 384 1
160 391 1
160 393 1
160 396 1
160 399 1
160 401 1
160 410 1
160 419 1
160 421 1
160 422 1
160 425 1
160 428 1
160 430 1
160 434 1
160 438 1
160 440 1
160 447 1
160 450 1
160 456 1
160 471 1
160 480 1
160 483 1
160 491 1
160 494 1
160 500 1
160 511 1
160 512 1
160 517 1
160 519 1
160 527 1
160 531 1
160 534 1
160 537 1
160 544 1
160 549 1
160 558 1
160 566 1
160 567 1
160 572 1
160 577 1
160 579 1
160 580 1
160 582 1
160 585 1
160 587 1
160 588 1
160 590 1
160 597 1
161 1 1
161 6 1
161 7 1
161 17 1
161 19 1
161 33 1
161 35 1
161 44 1
161 48 1
161 51 1
161 52 1
161 56 1
161 58 1
161 64 1
161 84 1
161 88 1
161 93 1
161 104 1
161 105 1
161 107 1
161 116 1
161 121 1
161 133 1
161 137 1
161 138 1
161 150 1
161 158 1
161 167 1
161 170 1
161 172 1
161 182 1
161 191 1
161 201 1
161 204 1
161 212 1
161 225 1
161 226 1
161 229 1
161 238 1
161 249 1
161 251 1
161 257 1
161 262 1
161 265 1
161 279 1
161 280 1
161 281 1
161 289 1
161 294 1
161 297 1
161 301 1
161 312 1
161 314 1
161 316 1
161 317 1
161 322 1
161 332 1
161 334 1
161 335 1
161 343 1
161 344 1
161 347 1
161 350 1
161 354 1
161 358 1
161 363 1
161 370 1
161 378 1
161 387 1
161 388 1
161 396 1
161 405 1
161 411 1
161 428 1
161 436 1
161 438 1
161 439 1
161 440 1
161 443 1
161 447 1
161 451 1
161 454 1
161 459 1
161 467 1
161 470 1
161 471 1
161 477 1
161 487 1
161 494 1
161 513 1
161 533 1
161 534 1
161 537 1
161 541 1
161 545 1
161 549 1
161 556 1
161 566 1
161 568 1
161 578 1
161 579 1
161 583 1
161 595 1
161 600 1
162 1 1
162 7 1
162 11 1
162 30 1
162 40 1
162 43 1
162 48 1
162 51 1
162 52 1
162 56 1
162 64 1
162 67 1
162 68 1
162 72 1
162 74 1
162 76 1
162 78 1
162 79 1
162 83 1
162 84 1
162 86 1
162 113 1
162 116 1
162 117 1
162 121 1
162 122 1
162 141 1
162 142 1
162 145 1
162 150 1
162 159 1
162 169 1
162 178 1
162 179 1
162 186 1
162 196 1
162 198 1
162 202 1
162 207 1
162 219 1
162 224 1
162 231 1
162 233 1
162 239 1
162 242 1
162 245 1
162 251 1
162 257 1
162 260 1
162 261 1
162 262 1
162 264 1
162 266 1
162 268 1
162 279 1
162 284 1
162 285 1
162 286 1
162 288 1
162 297 1
162 299 1
162 300 1
162 303 1
162 309 1
162 310 1
162 314 1
162 316 1
162 320 1
162 337 1
162 342 1
162 343 1
162 351 1
162 355 1
162 361 1
162 382 1
162 383 1
162 391 1
162 393 1
162 400 1
162 403 1
162 404 1
162 407 1
162 411 1
162 414 1
162 418 1
162 421 1
162 426 1
162 447 1
162 450 1
162 456 1
162 460 1
162 461 1
162 473 1
162 485 1
162 489 1
162 507 1
162 512 1
162 521 1
162 526 1
162 531 1
162 532 1
162 533 1
162 534 1
162 537 1
162 539 1
162 553 1
162 561 1
162 563 1
162 572 1
162 573 1
162 577 1
162 578 1
162 587 1
162 591 1
162 594 1
163 9 1
163 15 1
163 28 1
163 29 1
163 43 1
163 47 1
163 51 1
163 52 1
163 58 1
163 67 1
163 68 1
163 69 1
163 70 1
163 72 1
163 75 1
163 83 1
163 92 1
163 94 1
163 101 1
163 103 1
163 108 1
163 109 1
163 115 1
163 116 1
163 131 1
163 133 1
163 140 1
163 146 1
163 148 1
163 150 1
163 156 1
163 158 1
163 166 1
163 169 1
163 170 1
163 186 1
163 189 1
163 194 1
163 197 1
163 198 1
163 204 1
163 206 1
163 208 1
163 209 1
163 212 1
163 219 1
163 227 1
163 229 1
163 230 1
163 233 1
163 246 1
163 247 1
163 252 1
163 257 1
163 258 1
163 260 1
163 262 1
163 264 1
163 273 1
163 278 1
163 285 1
163 286 1
163 292 1
163 306 1
163 307 1
163 314 1
163 321 1
163 333 1
163 338 1
163 339 1
163 340 1
163 346 1
163 364 1
163 366 1
163 375 1
163 378 1
163 382 1
163 389 1
163 394 1
163 395 1
163 397 1
163 408 1
163 411 1
163 414 1
163 417 1
163 419 1
163 426 1
163 427 1
163 431 1
163 437 1
163 440 1
163 447 1
163 448 1
163 450 1
163 451 1
163 457 1
163 461 1
163 466 1
163 471 1
163 474 1
163 476 1
163 478 1
163 488 1
163 493 1
163 495 1
163 497 1
163 517 1
163 520 1
163 532 1
163 537 1
163 548 1
163 558 1
163 563 1
163 566 1
163 571 1
163 573 1
163 591 1
163 595 1
164 1 1
164 3 1
164 7 1
164 9 1
164 11 1
164 13 1
164 16 1
164 19 1
164 22 1
164 27 1
164 30 1
164 42 1
164 46 1
164 56 1
164 58 1
164 59 1
164 60 1
164 66 1
164 78 1
164 80 1
164 84 1
164 93 1
164 97 1
164 102 1
164 111 1
164 117 1
164 118 1
164 120 1
164 123 1
164 126 1
164 131 1
164 135 1
164 138 1
164 141 1
164 147 1
164 176 1
164 177 1
164 187 1
164 188 1
164 202 1
164 217 1
164 223 1
164 228 1
164 230 1
164 231 1
164 235 1
164 236 1
164 237 1
164 259 1
164 266 1
164 272 1
164 274 1
164 280 1
164 281 1
164 284 1
164 290 1
164 294 1
164 296 1
164 301 1
164 302 1
164 303 1
164 308 1
164 311 1
164 314 1
164 315 1
164 319 1
164 324 1
164 333 1
164 339 1
164 343 1
164 346 1
164 350 1
164 351 1
164 353 1
164 364 1
164 365 1
164 368 1
164 374 1
164 376 1
164 381 1
164 386 1
164 387 1
164 398 1
164 409 1
164 415 1
164 416 1
164 417 1
164 419 1
164 445 1
164 447 1
164 449 1
164 450 1
164 460 1
164 466 1
164 477 1
164 478 1
164 479 1
164 480 1
164 488 1
164 489 1
164 491 1
164 494 1
164 496 1
164 498 1
164 508 1
164 523 1
164 527 1
164 528 1
164 538 1
164 543 1
164 548 1
164 549 1
164 550 1
164 551 1
164 554 1
164 556 1
164 561 1
164 566 1
164 568 1
164 575 1
164 582 1
164 585 1
164 591 1
164 594 1
164 595 1
164 598 1
165 5 1
165 7 1
165 8 1
165 14 1
165 18 1
165 22 1
165 26 1
165 27 1
165 32 1
165 34 1
165 35 1
165 37 1
165 38 1
165 44 1
165 48 1
165 53 1
165 58 1
165 64 1
165 66 1
165 70 1
165 71 1
165 83 1
165 84 1
165 85 1
165 87 1
165 90 1
165 101 1
165 104 1
165 108 1
165 110 1
165 119 1
165 120 1
165 127 1
165 128 1
165 130 1
165 132 1
165 138 1
165 144 1
165 149 1
165 152 1
165 154 1
165 156 1
165 170 1
165 173 1
165 182 1
165 184 1
165 186 1
165 187 1
165 192 1
165 200 1
165 204 1
165 213 1
165 219 1
165 224 1
165 226 1
165 231 1
165 233 1
165 234 1
165 235 1
165 236 1
165 240 1
165 248 1
165 250 1
165 253 1
165 256 1
165 257 1
165 261 1
165 271 1
165 273 1
165 276 1
165 279 1
165 280 1
165 284 1
165 289 1
165 299 1
165 303 1
165 306 1
165 308 1
165 310 1
165 311 1
165 315 1
165 317 1
165 319 1
165 327 1
165 328 1
165 331 1
165 346 1
165 348 1
165 350 1
165 352 1
165 361 1
165 362 1
165 363 1
165 367 1
165 379 1
165 382 1
165 386 1
165 387 1
165 394 1
165 396 1
165 405 1
165 406 1
165 415 1
165 427 1
165 431 1
165 432 1
165 436 1
165 437 1
165 439 1
165 440 1
165 441 1
165 448 1
165 457 1
165 463 1
165 465 1
165 470 1
165 472 1
165 477 1
165 480 1
165 483 1
165 486 1
165 492 1
165 499 1
165 500 1
165 504 1
165 510 1
165 512 1
165 520 1
165 524 1
165 526 1
165 531 1
165 535 1
165 543 1
165 551 1
165 557 1
165 558 1
165 559 1
165 568 1
165 571 1
165 577 1
165 586 1
165 592 1
166 7 1
166 9 1
166 14 1
166 16 1
166 20 1
166 21 1
166 27 1
166 30 1
166 31 1
166 34 1
166 38 1
166 40 1
166 41 1
166 42 1
166 48 1
166 53 1
166 54 1
166 58 1
166 65 1
166 71 1
166 76 1
166 78 1
166 86 1
166 87 1
166 90 1
166 92 1
166 94 1
166 99 1
166 105 1
166 107 1
166 117 1
166 120 1
166 128 1
166 132 1
166 137 1
166 138 1
166 156 1
166 157 1
166 163 1
166 168 1
166 175 1
166 186 1
166 188 1
166 190 1
166 192 1
166 194 1
166 207 1
166 208 1
166 212 1
166 213 1
166 223 1
166 224 1
166 225 1
166 240 1
166 251 1
166 254 1
166 262 1
166 263 1
166 264 1
166 268 1
166 272 1
166 276 1
166 277 1
166 285 1
166 290 1
166 291 1
166 293 1
166 309 1
166 315 1
166 317 1
166 324 1
166 331 1
166 333 1
166 336 1
166 342 1
166 343 1
166 349 1
166 367 1
166 370 1
166 371 1
166 384 1
166 387 1
166 396 1
166 398 1
166 402 1
166 403 1
166 413 1
166 415 1
166 417 1
166 427 1
166 431 1
166 432 1
166 433 1
166 434 1
166 436 1
166 438 1
166 439 1
166 443 1
166 448 1
166 451 1
166 454 1
166 455 1
166 480 1
166 499 1
166 502 1
166 508 1
166 509 1
166 514 1
166 515 1
166 516 1
166 517 1
166 522 1
166 526 1
166 528 1
166 537 1
166 542 1
166 550 1
166 565 1
166 570 1
166 573 1
166 574 1
166 584 1
166 586 1
166 593 1
166 595 1
166 597 1
167 8 1
167 16 1
167 27 1
167 28 1
167 33 1
167 38 1
167 41 1
167 45 1
167 47 1
167 53 1
167 54 1
167 56 1
167 59 1
167 69 1
167 73 1
167 75 1
167 79 1
167 87 1
167 93 1
167 94 1
167 95 1
167 98 1
167 100 1
167 110 1
167 112 1
167 134 1
167 151 1
167 160 1
167 161 1
167 172 1
167 173 1
167 175 1
167 176 1
167 179 1
167 182 1
167 184 1
167 190 1
167 195 1
167 207 1
167 209 1
167 210 1
167 211 1
167 214 1
167 217 1
167 221 1
167 222 1
167 225 1
167 227 1
167 228 1
167 230 1
167 245 1
167 258 1
167 262 1
167 263 1
167 264 1
167 265 1
167 266 1
167 269 1
167 281 1
167 284 1
167 298 1
167 303 1
167 309 1
167 317 1
167 323 1
167 324 1
167 325 1
167 329 1
167 342 1
167 345 1
167 346 1
167 348 1
167 351 1
167 353 1
167 355 1
167 370 1
167 376 1
167 384 1
167 385 1
167 399 1
167 400 1
167 406 1
167 412 1
167 419 1
167 425 1
167 429 1
167 430 1
167 432 1
167 433 1
167 438 1
167 442 1
167 444 1
167 450 1
167 456 1
167 457 1
167 460 1
167 469 1
167 471 1
167 476 1
167 477 1
167 485 1
167 486 1
167 502 1
167 506 1
167 507 1
167 518 1
167 521 1
167 523 1
167 531 1
167 539 1
167 544 1
167 545 1
167 550 1
167 555 1
167 558 1
167 566 1
167 576 1
167 593 1
167 595 1
167 598 1
168 9 1
168 13 1
168 19 1
168 23 1
168 25 1
168 28 1
168 31 1
168 34 1
168 38 1
168 39 1
168 44 1
168 45 1
168 50 1
168 56 1
168 59 1
168 60 1
168 67 1
168 79 1
168 81 1
168 92 1
168 99 1
168 100 1
168 105 1
168 108 1
168 112 1
168 115 1
168 118 1
168 123 1
168 127 1
168 132 1
168 140 1
168 144 1
168 148 1
168 155 1
168 166 1
168 169 1
168 172 1
168 176 1
168 180 1
168 183 1
168 185 1
168 186 1
168 196 1
168 216 1
168 218 1
168 221 1
168 222 1
168 223 1
168 228 1
168 229 1
168 235 1
168 253 1
168 262 1
168 269 1
168 272 1
168 278 1
168 281 1
168 287 1
168 294 1
168 306 1
168 308 1
168 309 1
168 314 1
168 315 1
168 316 1
168 319 1
168 332 1
168 334 1
168 335 1
168 337 1
168 339 1
168 342 1
168 344 1
168 357 1
168 358 1
168 361 1
168 364 1
168 367 1
168 373 1
168 379 1
168 390 1
168 399 1
168 402 1
168 408 1
168 411 1
168 422 1
168 435 1
168 442 1
168 445 1
168 451 1
168 456 1
168 462 1
168 464 1
168 470 1
168 475 1
168 479 1
168 484 1
168 487 1
168 489 1
168 491 1
168 492 1
168 497 1
168 505 1
168 512 1
168 513 1
168 517 1
168 521 1
168 522 1
168 526 1
168 537 1
168 538 1
168 546 1
168 556 1
168 557 1
168 568 1
168 569 1
168 574 1
168 575 1
168 578 1
168 579 1
168 580 1
168 583 1
168 586 1
168 591 1
169 4 1
169 9 1
169 26 1
169 27 1
169 36 1
169 45 1
169 53 1
169 59 1
169 71 1
169 73 1
169 83 1
169 84 1
169 85 1
169 86 1
169 88 1
169 89 1
169 92 1
169 94 1
169 96 1
169 102 1
169 109 1
169 114 1
169 120 1
169 124 1
169 127 1
169 132 1
169 140 1
169 146 1
169 149 1
169 152 1
169 157 1
169 160 1
169 162 1
169 163 1
169 168 1
169 175 1
169 180 1
169 181 1
169 187 1
169 189 1
169 190 1
169 192 1
169 197 1
169 208 1
169 212 1
169 214 1
169 215 1
169 216 1
169 218 1
169 222 1
169 232 1
169 233 1
169 236 1
169 244 1
169 251 1
169 269 1
169 271 1
169 273 1
169 276 1
169 277 1
169 290 1
169 301 1
169 303 1
169 309 1
169 311 1
169 314 1
169 316 1
169 317 1
169 323 1
169 328 1
169 338 1
169 353 1
169 361 1
169 365 1
169 367 1
169 369 1
169 389 1
169 392 1
169 395 1
169 398 1
169 406 1
169 412 1
169 413 1
169 414 1
169 421 1
169 428 1
169 433 1
169 438 1
169 442 1
169 443 1
169 445 1
169 446 1
169 448 1
169 456 1
169 462 1
169 463 1
169 466 1
169 471 1
169 472 1
169 479 1
169 480 1
169 481 1
169 484 1
169 485 1
169 490 1
169 493 1
169 500 1
169 501 1
169 506 1
169 515 1
169 518 1
169 523 1
169 524 1
169 542 1
169 556 1
169 557 1
169 560 1
169 562 1
169 563 1
169 564 1
169 566 1
169 576 1
169 578 1
169 582 1
169 589 1
169 590 1
169 591 1
169 592 1
170 13 1
170 16 1
170 19 1
170 22 1
170 35 1
170 36 1
170 42 1
170 43 1
170 53 1
170 65 1
170 69 1
170 74 1
170 76 1
170 82 1
170 102 1
170 116 1
170 117 1
170 125 1
170 126 1
170 127 1
170 131 1
170 133 1
170 139 1
170 141 1
170 144 1
170 146 1
170 148 1
170 149 1
170 161 1
170 163 1
170 165 1
170 171 1
170 176 1
170 178 1
170 180 1
170 184 1
170 205 1
170 206 1
170 213 1
170 217 1
170 221 1
170 222 1
170 229 1
170 231 1
170 236 1
170 244 1
170 247 1
170 268 1
170 274 1
170 282 1
170 285 1
170 286 1
170 289 1
170 291 1
170 297 1
170 309 1
170 312 1
170 313 1
170 317 1
170 319 1
170 324 1
170 326 1
170 329 1
170 330 1
170 331 1
170 332 1
170 334 1
170 337 1
170 343 1
170 345 1
170 346 1
170 347 1
170 354 1
170 360 1
170 363 1
170 372 1
170 373 1
170 376 1
170 379 1
170 386 1
170 393 1
170 394 1
170 396 1
170 398 1
170 401 1
170 409 1
170 410 1
170 413 1
170 419 1
170 422 1
170 426 1
170 427 1
170 428 1
170 439 1
170 453 1
170 458 1
170 468 1
170 480 1
170 485 1
170 493 1
170 501 1
170 503 1
170 505 1
170 517 1
170 520 1
170 522 1
170 524 1
170 525 1
170 528 1
170 530 1
170 537 1
170 538 1
170 542 1
170 558 1
170 559 1
170 570 1
170 574 1
170 576 1
170 577 1
170 581 1
170 584 1
170 588 1
170 589 1
171 3 1
171 7 1
171 9 1
171 11 1
171 19 1
171 24 1
171 29 1
171 30 1
171 31 1
171 32 1
171 33 1
171 37 1
171 39 1
171 42 1
171 44 1
171 48 1
171 51 1
171 52 1
171 55 1
171 57 1
171 63 1
171 64 1
171 65 1
171 68 1
171 72 1
171 76 1
171 80 1
171 83 1
171 89 1
171 98 1
171 99 1
171 103 1
171 105 1
171 107 1
171 114 1
171 115 1
171 118 1
171 120 1
171 121 1
171 131 1
171 134 1
171 135 1
171 142 1
171 153 1
171 155 1
171 170 1
171 175 1
171 178 1
171 183 1
171 187 1
171 189 1
171 195 1
171 197 1
171 203 1
171 212 1
171 213 1
171 214 1
171 218 1
171 219 1
171 221 1
171 222 1
171 228 1
171 231 1
171 234 1
171 237 1
171 238 1
171 248 1
171 256 1
171 260 1
171 275 1
171 279 1
171 281 1
171 283 1
171 298 1
171 302 1
171 308 1
171 332 1
171 338 1
171 339 1
171 341 1
171 342 1
171 344 1
171 347 1
171 348 1
171 352 1
171 354 1
171 368 1
171 376 1
171 380 1
171 381 1
171 389 1
171 393 1
171 395 1
171 397 1
171 399 1
171 402 1
171 405 1
171 418 1
171 430 1
171 439 1
171 443 1
171 444 1
171 448 1
171 452 1
171 462 1
171 463 1
171 468 1
171 470 1
171 473 1
171 474 1
171 475 1
171 486 1
171 487 1
171 490 1
171 491 1
171 495 1
171 507 1
171 508 1
171 509 1
171 511 1
171 516 1
171 526 1
171 528 1
171 533 1
171 536 1
171 539 1
171 543 1
171 546 1
171 553 1
171 555 1
171 557 1
171 558 1
171 560 1
171 567 1
171 576 1
171 579 1
171 582 1
172 13 1
172 15 1
172 20 1
172 28 1
172 30 1
172 35 1
172 42 1
172 48 1
172 63 1
172 66 1
172 70 1
172 74 1
172 84 1
172 90 1
172 94 1
172 114 1
172 118 1
172 119 1
172 120 1
172 121 1
172 131 1
172 133 1
172 135 1
172 153 1
172 159 1
172 161 1
172 167 1
172 168 1
172 181 1
172 183 1
172 185 1
172 195 1
172 196 1
172 199 1
172 202 1
172 205 1
172 206 1
172 227 1
172 232 1
172 233 1
172 235 1
172 241 1
172 242 1
172 243 1
172 260 1
172 268 1
172 277 1
172 286 1
172 290 1
172 292 1
172 294 1
172 298 1
172 308 1
172 319 1
172 320 1
172 324 1
172 333 1
172 335 1
172 345 1
172 346 1
172 348 1
172 349 1
172 358 1
172 370 1
172 375 1
172 376 1
172 383 1
172 386 1
172 387 1
172 390 1
172 394 1
172 398 1
172 403 1
172 409 1
172 414 1
172 419 1
172 422 1
172 424 1
172 425 1
172 438 1
172 439 1
172 441 1
172 442 1
172 445 1
172 449 1
172 453 1
172 458 1
172 462 1
172 468 1
172 471 1
172 475 1
172 478 1
172 480 1
172 481 1
172 486 1
172 488 1
172 489 1
172 493 1
172 501 1
172 502 1
172 506 1
172 521 1
172 534 1
172 535 1
172 536 1
172 552 1
172 555 1
172 567 1
172 569 1
172 572 1
172 580 1
172 588 1
172 589 1
172 593 1
172 594 1
172 600 1
173 4 1
173 5 1
173 8 1
173 22 1
173 23 1
173 30 1
173 37 1
173 40 1
173 44 1
173 45 1
173 47 1
173 51 1
173 55 1
173 56 1
173 57 1
173 61 1
173 72 1
173 79 1
173 95 1
173 97 1
173 100 1
173 113 1
173 114 1
173 116 1
173 119 1
173 123 1
173 132 1
173 136 1
173 139 1
173 143 1
173 159 1
173 165 1
173 167 1
173 174 1
173 176 1
173 178 1
173 182 1
173 183 1
173 184 1
173 189 1
173 194 1
173 196 1
173 201 1
173 205 1
173 220 1
173 221 1
173 224 1
173 229 1
173 231 1
173 232 1
173 235 1
173 236 1
173 258 1
173 260 1
173 261 1
173 263 1
173 266 1
173 271 1
173 298 1
173 302 1
173 304 1
173 307 1
173 308 1
173 310 1
173 312 1
173 313 1
173 314 1
173 315 1
173 318 1
173 322 1
173 328 1
173 329 1
173 330 1
173 347 1
173 348 1
173 349 1
173 351 1
173 358 1
173 359 1
173 362 1
173 366 1
173 370 1
173 372 1
173 373 1
173 376 1
173 380 1
173 404 1
173 406 1
173 412 1
173 415 1
173 421 1
173 424 1
173 440 1
173 441 1
173 452 1
173 465 1
173 466 1
173 477 1
173 478 1
173 490 1
173 493 1
173 494 1
173 496 1
173 500 1
173 501 1
173 509 1
173 515 1
173 518 1
173 520 1
173 522 1
173 534 1
173 537 1
173 540 1
173 546 1
173 548 1
173 549 1
173 556 1
173 565 1
173 573 1
173 584 1
173 585 1
173 594 1
173 598 1
174 7 1
174 8 1
174 9 1
174 15 1
174 18 1
174 27 1
174 28 1
174 33 1
174 38 1
174 43 1
174 46 1
174 48 1
174 52 1
174 53 1
174 55 1
174 62 1
174 67 1
174 73 1
174 74 1
174 78 1
174 82 1
174 84 1
174 88 1
174 90 1
174 98 1
174 100 1
174 101 1
174 104 1
174 106 1
174 107 1
174 109 1
174 118 1
174 121 1
174 125 1
174 127 1
174 128 1
174 130 1
174 136 1
174 137 1
174 139 1
174 140 1
174 146 1
174 150 1
174 173 1
174 185 1
174 187 1
174 190 1
174 193 1
174 197 1
174 202 1
174 206 1
174 208 1
174 221 1
174 230 1
174 236 1
174 241 1
174 261 1
174 262 1
174 278 1
174 286 1
174 291 1
174 292 1
174 294 1
174 295 1
174 296 1
174 303 1
174 306 1
174 310 1
174 319 1
174 321 1
174 327 1
174 328 1
174 329 1
174 341 1
174 346 1
174 355 1
174 359 1
174 370 1
174 371 1
174 375 1
174 377 1
174 390 1
174 393 1
174 394 1
174 396 1
174 404 1
174 405 1
174 407 1
174 408 1
174 423 1
174 425 1
174 429 1
174 434 1
174 435 1
174 439 1
174 444 1
174 446 1
174 447 1
174 448 1
174 449 1
174 454 1
174 459 1
174 463 1
174 467 1
174 469 1
174 473 1
174 474 1
174 475 1
174 488 1
174 490 1
174 493 1
174 494 1
174 503 1
174 514 1
174 518 1
174 540 1
174 542 1
174 553 1
174 554 1
174 559 1
174 570 1
174 572 1
174 580 1
174 595 1
174 597 1
175 2 1
175 3 1
175 5 1
175 10 1
175 14 1
175 17 1
175 22 1
175 26 1
175 27 1
175 28 1
175 33 1
175 35 1
175 55 1
175 56 1
175 70 1
175 72 1
175 80 1
175 82 1
175 84 1
175 86 1
175 87 1
175 96 1
175 101 1
175 107 1
175 108 1
175 111 1
175 113 1
175 118 1
175 126 1
175 131 1
175 132 1
175 133 1
175 135 1
175 137 1
175 139 1
175 142 1
175 152 1
175 155 1
175 166 1
175 167 1
175 169 1
175 171 1
175 180 1
175 182 1
175 190 1
175 200 1
175 208 1
175 219 1
175 225 1
175 227 1
175 233 1
175 234 1
175 236 1
175 239 1
175 240 1
175 247 1
175 259 1
175 265 1
175 272 1
175 277 1
175 282 1
175 284 1
175 289 1
175 293 1
175 298 1
175 313 1
175 316 1
175 325 1
175 326 1
175 331 1
175 332 1
175 334 1
175 340 1
175 342 1
175 346 1
175 352 1
175 355 1
175 361 1
175 363 1
175 366 1
175 375 1
175 385 1
175 397 1
175 401 1
175 414 1
175 416 1
175 419 1
175 429 1
175 433 1
175 441 1
175 443 1
175 444 1
175 445 1
175 451 1
175 461 1
175 475 1
175 495 1
175 498 1
175 501 1
175 504 1
175 508 1
175 510 1
175 513 1
175 514 1
175 520 1
175 524 1
175 526 1
175 535 1
175 540 1
175 542 1
175 544 1
175 553 1
175 555 1
175 561 1
175 562 1
175 564 1
175 574 1
175 577 1
175 578 1
175 591 1
175 593 1
175 595 1
175 597 1
176 3 1
176 13 1
176 21 1
176 27 1
176 36 1
176 37 1
176 39 1
176 40 1
176 41 1
176 47 1
176 53 1
176 59 1
176 60 1
176 62 1
176 70 1
176 73 1
176 75 1
176 77 1
176 78 1
176 86 1
176 90 1
176 100 1
176 106 1
176 109 1
176 112 1
176 114 1
176 116 1
176 118 1
176 120 1
176 121 1
176 123 1
176 126 1
176 129 1
176 137 1
176 143 1
176 145 1
176 147 1
176 150 1
176 156 1
176 164 1
176 167 1
176 168 1
176 170 1
176 173 1
176 177 1
176 187 1
176 189 1
176 191 1
176 193 1
176 196 1
176 197 1
176 200 1
176 205 1
176 212 1
176 215 1
176 223 1
176 235 1
176 239 1
176 243 1
176 246 1
176 249 1
176 253 1
176 254 1
176 256 1
176 262 1
176 270 1
176 271 1
176 274 1
176 288 1
176 290 1
176 292 1
176 296 1
176 297 1
176 321 1
176 323 1
176 326 1
176 340 1
176 341 1
176 342 1
176 349 1
176 352 1
176 353 1
176 355 1
176 359 1
176 364 1
176 368 1
176 369 1
176 372 1
176 374 1
176 381 1
176 383 1
176 385 1
176 386 1
176 401 1
176 402 1
176 407 1
176 415 1
176 418 1
176 429 1
176 430 1
176 431 1
176 440 1
176 444 1
176 449 1
176 450 1
176 458 1
176 459 1
176 465 1
176 477 1
176 483 1
176 487 1
176 491 1
176 493 1
176 503 1
176 507 1
176 514 1
176 537 1
176 538 1
176 541 1
176 542 1
176 546 1
176 552 1
176 553 1
176 559 1
176 565 1
176 576 1
176 582 1
176 583 1
176 596 1
176 599 1
177 11 1
177 16 1
177 20 1
177 24 1
177 28 1
177 29 1
177 31 1
177 34 1
177 44 1
177 51 1
177 52 1
177 63 1
177 79 1
177 83 1
177 89 1
177 95 1
177 106 1
177 114 1
177 121 1
177 126 1
177 129 1
177 137 1
177 145 1
177 146 1
177 147 1
177 157 1
177 158 1
177 164 1
177 176 1
177 180 1
177 182 1
177 189 1
177 190 1
177 194 1
177 197 1
177 212 1
177 221 1
177 232 1
177 235 1
177 238 1
177 241 1
177 242 1
177 245 1
177 251 1
177 254 1
177 255 1
177 259 1
177 261 1
177 265 1
177 268 1
177 273 1
177 277 1
177 282 1
177 288 1
177 293 1
177 295 1
177 301 1
177 303 1
177 318 1
177 340 1
177 341 1
177 345 1
177 346 1
177 368 1
177 374 1
177 375 1
177 376 1
177 381 1
177 383 1
177 389 1
177 396 1
177 398 1
177 410 1
177 412 1
177 413 1
177 417 1
177 419 1
177 421 1
177 422 1
177 423 1
177 427 1
177 434 1
177 443 1
177 453 1
177 461 1
177 463 1
177 466 1
177 482 1
177 484 1
177 487 1
177 496 1
177 498 1
177 504 1
177 516 1
177 517 1
177 519 1
177 520 1
177 524 1
177 525 1
177 529 1
177 531 1
177 532 1
177 539 1
177 544 1
177 546 1
177 550 1
177 558 1
177 559 1
177 568 1
177 569 1
177 579 1
177 585 1
177 589 1
177 591 1
177 594 1
178 4 1
178 5 1
178 12 1
178 14 1
178 22 1
178 23 1
178 26 1
178 33 1
178 35 1
178 38 1
178 41 1
178 43 1
178 45 1
178 47 1
178 50 1
178 53 1
178 60 1
178 68 1
178 77 1
178 79 1
178 80 1
178 81 1
178 87 1
178 90 1
178 92 1
178 97 1
178 99 1
178 117 1
178 124 1
178 126 1
178 131 1
178 134 1
178 135 1
178 142 1
178 143 1
178 144 1
178 145 1
178 152 1
178 156 1
178 162 1
178 170 1
178 171 1
178 173 1
178 179 1
178 184 1
178 196 1
178 198 1
178 202 1
178 206 1
178 214 1
178 217 1
178 218 1
178 221 1
178 225 1
178 230 1
178 239 1
178 260 1
178 263 1
178 264 1
178 273 1
178 284 1
178 285 1
178 286 1
178 290 1
178 292 1
178 297 1
178 298 1
178 301 1
178 304 1
178 311 1
178 312 1
178 314 1
178 323 1
178 325 1
178 327 1
178 328 1
178 340 1
178 343 1
178 345 1
178 347 1
178 348 1
178 353 1
178 354 1
178 357 1
178 359 1
178 369 1
178 378 1
178 379 1
178 382 1
178 383 1
178 384 1
178 388 1
178 405 1
178 407 1
178 409 1
178 419 1
178 420 1
178 425 1
178 428 1
178 430 1
178 437 1
178 443 1
178 445 1
178 446 1
178 448 1
178 454 1
178 460 1
178 462 1
178 466 1
178 470 1
178 473 1
178 501 1
178 503 1
178 504 1
178 510 1
178 512 1
178 513 1
178 514 1
178 516 1
178 520 1
178 528 1
178 530 1
178 531 1
178 543 1
178 546 1
178 547 1
178 550 1
178 558 1
178 561 1
178 563 1
178 565 1
178 567 1
178 571 1
178 577 1
178 578 1
178 579 1
178 591 1
178 600 1
179 5 1
179 10 1
179 13 1
179 27 1
179 30 1
179 31 1
179 34 1
179 37 1
179 44 1
179 48 1
179 50 1
179 54 1
179 55 1
179 57 1
179 62 1
179 63 1
179 66 1
179 67 1
179 68 1
179 69 1
179 70 1
179 73 1
179 80 1
179 91 1
179 97 1
179 107 1
179 111 1
179 115 1
179 116 1
179 122 1
179 129 1
179 136 1
179 148 1
179 157 1
179 162 1
179 167 1
179 178 1
179 182 1
179 203 1
179 204 1
179 210 1
179 215 1
179 222 1
179 224 1
179 230 1
179 232 1
179 233 1
179 240 1
179 252 1
179 270 1
179 291 1
179 295 1
179 298 1
179 303 1
179 306 1
179 311 1
179 319 1
179 320 1
179 324 1
179 330 1
179 334 1
179 336 1
179 341 1
179 346 1
179 348 1
179 353 1
179 354 1
179 356 1
179 363 1
179 366 1
179 371 1
179 373 1
179 397 1
179 405 1
179 406 1
179 427 1
179 432 1
179 433 1
179 435 1
179 440 1
179 449 1
179 450 1
179 452 1
179 453 1
179 454 1
179 455 1
179 456 1
179 461 1
179 469 1
179 474 1
179 478 1
179 484 1
179 490 1
179 496 1
179 500 1
179 501 1
179 505 1
179 508 1
179 510 1
179 513 1
179 521 1
179 529 1
179 538 1
179 541 1
179 543 1
179 546 1
179 549 1
179 559 1
179 560 1
179 568 1
179 577 1
179 586 1
179 599 1
180 3 1
180 4 1
180 12 1
180 18 1
180 31 1
180 32 1
180 38 1
180 45 1
180 51 1
180 61 1
180 63 1
180 70 1
180 74 1
180 78 1
180 79 1
180 81 1
180 82 1
180 90 1
180 91 1
180 102 1
180 117 1
180 122 1
180 141 1
180 146 1
180 147 1
180 151 1
180 153 1
180 156 1
180 168 1
180 169 1
180 170 1
180 175 1
180 177 1
180 185 1
180 186 1
180 189 1
180 194 1
180 199 1
180 202 1
180 204 1
180 222 1
180 223 1
180 228 1
180 229 1
180 237 1
180 242 1
180 246 1
180 250 1
180 257 1
180 272 1
180 276 1
180 282 1
180 283 1
180 295 1
180 298 1
180 303 1
180 304 1
180 305 1
180 307 1
180 309 1
180 321 1
180 325 1
180 334 1
180 337 1
180 340 1
180 345 1
180 346 1
180 348 1
180 359 1
180 360 1
180 366 1
180 374 1
180 383 1
180 392 1
180 402 1
180 417 1
180 423 1
180 427 1
180 428 1
180 444 1
180 454 1
180 462 1
180 475 1
180 478 1
180 479 1
180 483 1
180 485 1
180 491 1
180 492 1
180 494 1
180 497 1
180 510 1
180 516 1
180 517 1
180 521 1
180 525 1
180 526 1
180 542 1
180 551 1
180 552 1
180 555 1
180 557 1
180 558 1
180 559 1
180 561 1
180 562 1
180 564 1
180 572 1
180 590 1
180 600 1
181 3 1
181 25 1
181 27 1
181 32 1
181 37 1
181 42 1
181 55 1
181 57 1
181 59 1
181 63 1
181 65 1
181 67 1
181 68 1
181 69 1
181 76 1
181 79 1
181 92 1
181 95 1
181 101 1
181 105 1
181 111 1
181 113 1
181 114 1
181 119 1
181 120 1
181 122 1
181 124 1
181 125 1
181 126 1
181 127 1
181 134 1
181 135 1
181 141 1
181 143 1
181 150 1
181 152 1
181 158 1
181 159 1
181 169 1
181 172 1
181 182 1
181 186 1
181 190 1
181 198 1
181 207 1
181 221 1
181 242 1
181 244 1
181 250 1
181 251 1
181 266 1
181 269 1
181 280 1
181 284 1
181 287 1
181 297 1
181 299 1
181 313 1
181 340 1
181 351 1
181 354 1
181 361 1
181 366 1
181 368 1
181 373 1
181 378 1
181 387 1
181 391 1
181 393 1
181 395 1
181 401 1
181 411 1
181 415 1
181 416 1
181 427 1
181 429 1
181 431 1
181 433 1
181 436 1
181 438 1
181 439 1
181 442 1
181 452 1
181 460 1
181 482 1
181 488 1
181 489 1
181 490 1
181 496 1
181 502 1
181 505 1
181 507 1
181 508 1
181 526 1
181 533 1
181 534 1
181 546 1
181 553 1
181 555 1
181 557 1
181 562 1
181 584 1
181 587 1
181 588 1
182 9 1
182 11 1
182 18 1
182 22 1
182 25 1
182 34 1
182 36 1
182 39 1
182 47 1
182 51 1
182 58 1
182 62 1
182 64 1
182 73 1
182 76 1
182 85 1
182 93 1
182 94 1
182 95 1
182 100 1
182 101 1
182 107 1
182 111 1
182 114 1
182 119 1
182 128 1
182 142 1
182 146 1
182 152 1
182 161 1
182 165 1
182 167 1
182 173 1
182 175 1
182 177 1
182 179 1
182 181 1
182 184 1
182 186 1
182 187 1
182 199 1
182 201 1
182 202 1
182 203 1
182 204 1
182 206 1
182 208 1
182 212 1
182 229 1
182 232 1
182 239 1
182 252 1
182 254 1
182 256 1
182 257 1
182 258 1
182 260 1
182 273 1
182 277 1
182 281 1
182 284 1
182 285 1
182 287 1
182 299 1
182 322 1
182 334 1
182 337 1
182 340 1
182 343 1
182 351 1
182 354 1
182 360 1
182 362 1
182 363 1
182 373 1
182 378 1
182 379 1
182 382 1
182 384 1
182 389 1
182 397 1
182 402 1
182 421 1
182 425 1
182 432 1
182 433 1
182 435 1
182 437 1
182 439 1
182 443 1
182 451 1
182 452 1
182 461 1
182 462 1
182 470 1
182 471 1
182 472 1
182 475 1
182 482 1
182 490 1
182 497 1
182 499 1
182 500 1
182 504 1
182 507 1
182 512 1
182 520 1
182 522 1
182 530 1
182 533 1
182 551 1
182 554 1
182 576 1
182 577 1
182 590 1
182 591 1
182 592 1
182 594 1
182 596 1
182 599 1
183 9 1
183 13 1
183 36 1
183 40 1
183 44 1
183 47 1
183 55 1
183 56 1
183 64 1
183 66 1
183 72 1
183 76 1
183 86 1
183 91 1
183 94 1
183 98 1
183 104 1
183 105 1
183 115 1
183 121 1
183 123 1
183 125 1
183 130 1
183 132 1
183 148 1
183 156 1
183 157 1
183 160 1
183 168 1
183 171 1
183 172 1
183 173 1
183 204 1
183 220 1
183 221 1
183 224 1
183 225 1
183 237 1
183 245 1
183 247 1
183 249 1
183 250 1
183 254 1
183 255 1
183 261 1
183 262 1
183 266 1
183 273 1
183 274 1
183 276 1
183 277 1
183 283 1
183 295 1
183 307 1
183 319 1
183 326 1
183 334 1
183 336 1
183 339 1
183 347 1
183 352 1
183 355 1
183 364 1
183 366 1
183 367 1
183 372 1
183 373 1
183 377 1
183 380 1
183 383 1
183 391 1
183 395 1
183 401 1
183 406 1
183 407 1
183 411 1
183 412 1
183 414 1
183 419 1
183 424 1
183 430 1
183 431 1
183 435 1
183 442 1
183 450 1
183 457 1
183 459 1
183 469 1
183 479 1
183 484 1
183 487 1
183 489 1
183 490 1
183 495 1
183 499 1
183 502 1
183 504 1
183 514 1
183 517 1
183 518 1
183 519 1
183 520 1
183 521 1
183 530 1
183 531 1
183 533 1
183 535 1
183 546 1
183 551 1
183 552 1
183 561 1
183 564 1
183 567 1
183 569 1
183 572 1
183 589 1
183 590 1
183 592 1
183 596 1
184 9 1
184 12 1
184 21 1
184 22 1
184 28 1
184 29 1
184 31 1
184 32 1
184 39 1
184 56 1
184 57 1
184 58 1
184 68 1
184 69 1
184 71 1
184 72 1
184 74 1
184 84 1
184 85 1
184 86 1
184 92 1
184 96 1
184 106 1
184 114 1
184 115 1
184 124 1
184 129 1
184 138 1
184 142 1
184 147 1
184 152 1
184 154 1
184 155 1
184 160 1
184 165 1
184 167 1
184 170 1
184 173 1
184 178 1
184 182 1
184 189 1
184 192 1
184 193 1
184 210 1
184 212 1
184 219 1
184 223 1
184 224 1
184 226 1
184 231 1
184 232 1
184 235 1
184 236 1
184 243 1
184 251 1
184 256 1
184 268 1
184 270 1
184 284 1
184 285 1
184 288 1
184 289 1
184 294 1
184 306 1
184 314 1
184 316 1
184 318 1
184 320 1
184 322 1
184 324 1
184 325 1
184 327 1
184 331 1
184 335 1
184 345 1
184 348 1
184 358 1
184 360 1
184 364 1
184 369 1
184 384 1
184 388 1
184 396 1
184 397 1
184 399 1
184 400 1
184 402 1
184 409 1
184 413 1
184 421 1
184 422 1
184 432 1
184 439 1
184 450 1
184 454 1
184 455 1
184 459 1
184 462 1
184 463 1
184 465 1
184 472 1
184 475 1
184 485 1
184 487 1
184 497 1
184 498 1
184 499 1
184 501 1
184 503 1
184 505 1
184 513 1
184 522 1
184 532 1
184 541 1
184 547 1
184 550 1
184 556 1
184 576 1
184 587 1
184 591 1
184 596 1
184 598 1
185 4 1
185 10 1
185 13 1
185 17 1
185 29 1
185 35 1
185 42 1
185 46 1
185 47 1
185 48 1
185 55 1
185 57 1
185 61 1
185 62 1
185 63 1
185 67 1
185 69 1
185 73 1
185 75 1
185 79 1
185 92 1
185 98 1
185 102 1
185 105 1
185 106 1
185 111 1
185 112 1
185 114 1
185 115 1
185 116 1
185 139 1
185 154 1
185 168 1
185 172 1
185 174 1
185 180 1
185 187 1
185 188 1
185 194 1
185 196 1
185 199 1
185 203 1
185 208 1
185 211 1
185 213 1
185 221 1
185 225 1
185 229 1
185 230 1
185 231 1
185 239 1
185 246 1
185 248 1
185 249 1
185 250 1
185 251 1
185 256 1
185 268 1
185 273 1
185 276 1
185 278 1
185 282 1
185 288 1
185 289 1
185 302 1
185 306 1
185 308 1
185 316 1
185 319 1
185 323 1
185 331 1
185 337 1
185 345 1
185 347 1
185 349 1
185 350 1
185 358 1
185 363 1
185 367 1
185 373 1
185 375 1
185 378 1
185 379 1
185 380 1
185 387 1
185 403 1
185 409 1
185 411 1
185 412 1
185 415 1
185 420 1
185 428 1
185 429 1
185 437 1
185 446 1
185 455 1
185 459 1
185 471 1
185 472 1
185 477 1
185 487 1
185 496 1
185 498 1
185 500 1
185 503 1
185 519 1
185 532 1
185 542 1
185 547 1
185 562 1
185 574 1
185 578 1
185 585 1
185 588 1
185 592 1
185 593 1
185 594 1
185 595 1
186 1 1
186 6 1
186 9 1
186 25 1
186 27 1
186 32 1
186 36 1
186 49 1
186 52 1
186 55 1
186 59 1
186 61 1
186 69 1
186 80 1
186 101 1
186 110 1
186 116 1
186 119 1
186 120 1
186 123 1
186 124 1
186 140 1
186 151 1
186 152 1
186 162 1
186 163 1
186 165 1
186 166 1
186 168 1
186 180 1
186 181 1
186 182 1
186 191 1
186 202 1
186 203 1
186 204 1
186 209 1
186 221 1
186 228 1
186 231 1
186 236 1
186 237 1
186 240 1
186 245 1
186 250 1
186 253 1
186 254 1
186 256 1
186 261 1
186 269 1
186 274 1
186 276 1
186 282 1
186 287 1
186 296 1
186 297 1
186 299 1
186 304 1
186 309 1
186 311 1
186 312 1
186 336 1
186 339 1
186 345 1
186 349 1
186 352 1
186 357 1
186 362 1
186 366 1
186 373 1
186 377 1
186 386 1
186 399 1
186 403 1
186 405 1
186 416 1
186 417 1
186 424 1
186 430 1
186 440 1
186 442 1
186 444 1
186 446 1
186 448 1
186 454 1
186 459 1
186 460 1
186 475 1
186 478 1
186 483 1
186 486 1
186 487 1
186 490 1
186 495 1
186 496 1
186 500 1
186 505 1
186 512 1
186 517 1
186 524 1
186 528 1
186 529 1
186 531 1
186 538 1
186 545 1
186 552 1
186 556 1
186 559 1
186 561 1
186 564 1
186 569 1
186 570 1
186 573 1
186 578 1
186 581 1
186 588 1
186 594 1
186 597 1
186 600 1
187 8 1
187 19 1
187 25 1
187 30 1
187 33 1
187 38 1
187 40 1
187 46 1
187 52 1
187 55 1
187 57 1
187 58 1
187 69 1
187 74 1
187 89 1
187 93 1
187 96 1
187 100 1
187 105 1
187 107 1
187 111 1
187 112 1
187 130 1
187 131 1
187 132 1
187 149 1
187 150 1
187 153 1
187 164 1
187 165 1
187 169 1
187 171 1
187 174 1
187 176 1
187 182 1
187 185 1
187 195 1
187 198 1
187 201 1
187 219 1
187 224 1
187 225 1
187 230 1
187 233 1
187 235 1
187 240 1
187 242 1
187 243 1
187 246 1
187 250 1
187 251 1
187 252 1
187 255 1
187 256 1
187 257 1
187 265 1
187 267 1
187 277 1
187 279 1
187 292 1
187 302 1
187 304 1
187 305 1
187 308 1
187 314 1
187 316 1
187 331 1
187 338 1
187 340 1
187 341 1
187 350 1
187 353 1
187 356 1
187 359 1
187 362 1
187 365 1
187 371 1
187 373 1
187 374 1
187 413 1
187 423 1
187 429 1
187 430 1
187 433 1
187 435 1
187 439 1
187 454 1
187 458 1
187 473 1
187 483 1
187 485 1
187 491 1
187 494 1
187 503 1
187 505 1
187 532 1
187 537 1
187 544 1
187 554 1
187 556 1
187 570 1
187 571 1
187 576 1
187 577 1
187 582 1
187 586 1
187 588 1
187 589 1
187 593 1
187 598 1
188 2 1
188 3 1
188 8 1
188 10 1
188 16 1
188 17 1
188 18 1
188 19 1
188 27 1
188 28 1
188 31 1
188 44 1
188 47 1
188 50 1
188 52 1
188 54 1
188 59 1
188 67 1
188 69 1
188 70 1
188 77 1
188 78 1
188 81 1
188 82 1
188 87 1
188 88 1
188 91 1
188 95 1
188 100 1
188 103 1
188 104 1
188 119 1
188 121 1
188 125 1
188 129 1
188 134 1
188 145 1
188 147 1
188 164 1
188 166 1
188 185 1
188 193 1
188 195 1
188 198 1
188 203 1
188 214 1
188 222 1
188 224 1
188 226 1
188 229 1
188 232 1
188 233 1
188 234 1
188 247 1
188 249 1
188 250 1
188 251 1
188 280 1
188 281 1
188 282 1
188 286 1
188 287 1
188 290 1
188 298 1
188 305 1
188 308 1
188 311 1
188 313 1
188 316 1
188 318 1
188 319 1
188 322 1
188 326 1
188 328 1
188 332 1
188 333 1
188 341 1
188 342 1
188 351 1
188 361 1
188 367 1
188 380 1
188 382 1
188 385 1
188 387 1
188 394 1
188 400 1
188 406 1
188 407 1
188 408 1
188 414 1
188 419 1
188 425 1
188 426 1
188 436 1
188 440 1
188 443 1
188 444 1
188 447 1
188 457 1
188 467 1
188 468 1
188 475 1
188 476 1
188 480 1
188 483 1
188 492 1
188 501 1
188 522 1
188 532 1
188 537 1
188 540 1
188 544 1
188 548 1
188 549 1
188 555 1
188 558 1
188 562 1
188 573 1
188 575 1
188 577 1
188 589 1
189 1 1
189 10 1
189 20 1
189 29 1
189 36 1
189 40 1
189 42 1
189 49 1
189 50 1
189 53 1
189 60 1
189 71 1
189 76 1
189 79 1
189 86 1
189 98 1
189 105 1
189 111 1
189 112 1
189 113 1
189 116 1
189 117 1
189 118 1
189 124 1
189 128 1
189 134 1
189 135 1
189 137 1
189 139 1
189 145 1
189 146 1
189 149 1
189 163 1
189 169 1
189 171 1
189 173 1
189 176 1
189 177 1
189 180 1
189 184 1
189 190 1
189 202 1
189 213 1
189 219 1
189 225 1
189 232 1
189 234 1
189 237 1
189 241 1
189 248 1
189 249 1
189 254 1
189 255 1
189 258 1
189 260 1
189 264 1
189 267 1
189 268 1
189 270 1
189 273 1
189 274 1
189 275 1
189 277 1
189 280 1
189 281 1
189 288 1
189 295 1
189 299 1
189 303 1
189 323 1
189 338 1
189 341 1
189 344 1
189 355 1
189 361 1
189 366 1
189 373 1
189 379 1
189 380 1
189 384 1
189 386 1
189 387 1
189 388 1
189 423 1
189 424 1
189 433 1
189 435 1
189 447 1
189 449 1
189 459 1
189 465 1
189 468 1
189 471 1
189 482 1
189 485 1
189 488 1
189 509 1
189 515 1
189 520 1
189 523 1
189 524 1
189 526 1
189 534 1
189 535 1
189 537 1
189 540 1
189 545 1
189 549 1
189 551 1
189 559 1
189 564 1
189 571 1
189 575 1
189 577 1
189 599 1
190 2 1
190 5 1
190 7 1
190 12 1
190 13 1
190 16 1
190 17 1
190 20 1
190 25 1
190 26 1
190 36 1
190 49 1
190 57 1
190 62 1
190 64 1
190 69 1
190 79 1
190 94 1
190 95 1
190 99 1
190 105 1
190 121 1
190 126 1
190 132 1
190 133 1
190 141 1
190 143 1
190 145 1
190 148 1
190 150 1
190 152 1
190 154 1
190 156 1
190 157 1
190 160 1
190 166 1
190 167 1
190 169 1
190 174 1
190 175 1
190 177 1
190 181 1
190 189 1
190 194 1
190 206 1
190 214 1
190 217 1
190 220 1
190 235 1
190 238 1
190 242 1
190 243 1
190 244 1
190 247 1
190 253 1
190 261 1
190 262 1
190 266 1
190 272 1
190 277 1
190 280 1
190 285 1
190 289 1
190 296 1
190 300 1
190 320 1
190 325 1
190 333 1
190 334 1
190 340 1
190 341 1
190 346 1
190 351 1
190 355 1
190 356 1
190 363 1
190 373 1
190 375 1
190 392 1
190 398 1
190 402 1
190 406 1
190 411 1
190 434 1
190 440 1
190 444 1
190 463 1
190 464 1
190 465 1
190 469 1
190 473 1
190 476 1
190 477 1
190 482 1
190 488 1
190 489 1
190 501 1
190 502 1
190 503 1
190 504 1
190 516 1
190 517 1
190 519 1
190 523 1
190 524 1
190 527 1
190 531 1
190 537 1
190 540 1
190 550 1
190 557 1
190 565 1
190 567 1
190 579 1
190 588 1
190 600 1
191 18 1
191 20 1
191 24 1
191 34 1
191 39 1
191 44 1
191 46 1
191 49 1
191 52 1
191 71 1
191 74 1
191 80 1
191 81 1
191 87 1
191 90 1
191 93 1
191 97 1
191 100 1
191 102 1
191 104 1
191 105 1
191 107 1
191 114 1
191 115 1
191 116 1
191 118 1
191 122 1
191 125 1
191 126 1
191 134 1
191 135 1
191 137 1
191 141 1
191 161 1
191 176 1
191 186 1
191 202 1
191 210 1
191 224 1
191 227 1
191 232 1
191 237 1
191 246 1
191 249 1
191 253 1
191 261 1
191 264 1
191 265 1
191 266 1
191 267 1
191 273 1
191 279 1
191 280 1
191 283 1
191 286 1
191 290 1
191 293 1
191 297 1
191 299 1
191 302 1
191 311 1
191 317 1
191 321 1
191 327 1
191 340 1
191 348 1
191 352 1
191 364 1
191 365 1
191 370 1
191 372 1
191 374 1
191 378 1
191 379 1
191 391 1
191 392 1
191 406 1
191 409 1
191 422 1
191 425 1
191 426 1
191 429 1
191 433 1
191 448 1
191 452 1
191 453 1
191 454 1
191 457 1
191 468 1
191 471 1
191 481 1
191 482 1
191 487 1
191 490 1
191 499 1
191 502 1
191 509 1
191 510 1
191 518 1
191 519 1
191 522 1
191 535 1
191 546 1
191 554 1
191 562 1
191 569 1
191 572 1
191 573 1
191 576 1
191 581 1
191 583 1
191 595 1
191 597 1
191 598 1
192 10 1
192 11 1
192 16 1
192 21 1
192 24 1
192 37 1
192 38 1
192 41 1
192 47 1
192 50 1
192 52 1
192 54 1
192 59 1
192 60 1
192 63 1
192 64 1
192 66 1
192 69 1
192 72 1
192 73 1
192 74 1
192 79 1
192 91 1
192 94 1
192 101 1
192 104 1
192 107 1
192 116 1
192 128 1
192 130 1
192 138 1
192 140 1
192 144 1
192 145 1
192 152 1
192 156 1
192 159 1
192 165 1
192 166 1
192 169 1
192 184 1
192 197 1
192 200 1
192 205 1
192 207 1
192 218 1
192 223 1
192 229 1
192 246 1
192 251 1
192 255 1
192 262 1
192 269 1
192 271 1
192 276 1
192 283 1
192 311 1
192 323 1
192 326 1
192 334 1
192 335 1
192 336 1
192 343 1
192 344 1
192 346 1
192 347 1
192 349 1
192 353 1
192 359 1
192 368 1
192 370 1
192 372 1
192 375 1
192 383 1
192 384 1
192 388 1
192 389 1
192 393 1
192 396 1
192 400 1
192 422 1
192 436 1
192 448 1
192 454 1
192 457 1
192 473 1
192 477 1
192 481 1
192 489 1
192 491 1
192 518 1
192 526 1
192 527 1
192 550 1
192 551 1
192 554 1
192 560 1
192 561 1
192 562 1
192 565 1
192 582 1
192 597 1
193 8 1
193 20 1
193 22 1
193 23 1
193 29 1
193 32 1
193 33 1
193 38 1
193 46 1
193 47 1
193 48 1
193 50 1
193 52 1
193 57 1
193 62 1
193 68 1
193 71 1
193 72 1
193 81 1
193 88 1
193 92 1
193 95 1
193 106 1
193 108 1
193 115 1
193 116 1
193 118 1
193 123 1
193 125 1
193 131 1
193 136 1
193 142 1
193 148 1
193 149 1
193 156 1
193 157 1
193 159 1
193 174 1
193 176 1
193 184 1
193 188 1
193 197 1
193 214 1
193 219 1
193 222 1
193 227 1
193 228 1
193 232 1
193 233 1
193 242 1
193 244 1
193 248 1
193 249 1
193 251 1
193 256 1
193 258 1
193 260 1
193 262 1
193 269 1
193 277 1
193 279 1
193 283 1
193 290 1
193 303 1
193 315 1
193 318 1
193 328 1
193 331 1
193 338 1
193 341 1
193 346 1
193 353 1
193 354 1
193 357 1
193 358 1
193 360 1
193 365 1
193 370 1
193 373 1
193 390 1
193 393 1
193 394 1
193 395 1
193 402 1
193 403 1
193 404 1
193 405 1
193 409 1
193 411 1
193 425 1
193 432 1
193 440 1
193 442 1
193 446 1
193 456 1
193 467 1
193 478 1
193 479 1
193 485 1
193 489 1
193 505 1
193 514 1
193 519 1
193 520 1
193 521 1
193 522 1
193 528 1
193 538 1
193 550 1
193 561 1
193 563 1
193 565 1
193 570 1
193 573 1
193 576 1
193 577 1
193 590 1
193 591 1
193 593 1
193 596 1
193 597 1
193 599 1
194 1 1
194 5 1
194 6 1
194 8 1
194 14 1
194 18 1
194 20 1
194 24 1
194 27 1
194 36 1
194 37 1
194 40 1
194 42 1
194 44 1
194 47 1
194 48 1
194 49 1
194 53 1
194 59 1
194 65 1
194 69 1
194 73 1
194 77 1
194 81 1
194 83 1
194 97 1
194 99 1
194 100 1
194 106 1
194 121 1
194 131 1
194 135 1
194 137 1
194 139 1
194 148 1
194 152 1
194 158 1
194 163 1
194 166 1
194 173 1
194 177 1
194 180 1
194 185 1
194 190 1
194 198 1
194 208 1
194 210 1
194 211 1
194 212 1
194 213 1
194 226 1
194 227 1
194 230 1
194 237 1
194 247 1
194 248 1
194 256 1
194 257 1
194 258 1
194 259 1
194 262 1
194 263 1
194 264 1
194 271 1
194 272 1
194 289 1
194 292 1
194 295 1
194 297 1
194 302 1
194 303 1
194 304 1
194 311 1
194 315 1
194 328 1
194 336 1
194 344 1
194 346 1
194 350 1
194 354 1
194 360 1
194 361 1
194 365 1
194 366 1
194 367 1
194 372 1
194 373 1
194 382 1
194 384 1
194 390 1
194 391 1
194 408 1
194 409 1
194 423 1
194 427 1
194 436 1
194 441 1
194 442 1
194 446 1
194 448 1
194 453 1
194 463 1
194 465 1
194 476 1
194 478 1
194 483 1
194 485 1
194 493 1
194 495 1
194 499 1
194 500 1
194 510 1
194 512 1
194 515 1
194 523 1
194 528 1
194 533 1
194 535 1
194 536 1
194 538 1
194 545 1
194 546 1
194 547 1
194 558 1
194 563 1
194 565 1
194 581 1
194 582 1
194 585 1
194 588 1
194 589 1
194 594 1
195 2 1
195 4 1
195 5 1
195 15 1
195 21 1
195 23 1
195 29 1
195 42 1
195 45 1
195 60 1
195 61 1
195 67 1
195 70 1
195 71 1
195 76 1
195 85 1
195 86 1
195 87 1
195 90 1
195 107 1
195 110 1
195 112 1
195 113 1
195 114 1
195 118 1
195 129 1
195 131 1
195 137 1
195 141 1
195 149 1
195 158 1
195 167 1
195 171 1
195 172 1
195 187 1
195 188 1
195 200 1
195 208 1
195 212 1
195 216 1
195 219 1
195 222 1
195 223 1
195 224 1
195 231 1
195 242 1
195 246 1
195 261 1
195 264 1
195 266 1
195 272 1
195 274 1
195 280 1
195 284 1
195 286 1
195 289 1
195 295 1
195 302 1
195 304 1
195 305 1
195 310 1
195 323 1
195 335 1
195 336 1
195 343 1
195 345 1
195 351 1
195 358 1
195 367 1
195 375 1
195 376 1
195 380 1
195 384 1
195 387 1
195 388 1
195 392 1
195 411 1
195 412 1
195 413 1
195 428 1
195 429 1
195 430 1
195 433 1
195 436 1
195 438 1
195 440 1
195 450 1
195 451 1
195 454 1
195 456 1
195 459 1
195 461 1
195 463 1
195 469 1
195 470 1
195 479 1
195 498 1
195 501 1
195 509 1
195 514 1
195 515 1
195 517 1
195 522 1
195 523 1
195 529 1
195 543 1
195 544 1
195 545 1
195 553 1
195 557 1
195 558 1
195 560 1
195 569 1
195 572 1
195 575 1
195 580 1
195 589 1
195 591 1
195 594 1
195 595 1
195 598 1
196 4 1
196 6 1
196 8 1
196 13 1
196 17 1
196 21 1
196 24 1
196 28 1
196 32 1
196 33 1
196 36 1
196 40 1
196 41 1
196 51 1
196 55 1
196 59 1
196 63 1
196 65 1
196 66 1
196 70 1
196 82 1
196 92 1
196 103 1
196 111 1
196 115 1
196 123 1
196 136 1
196 142 1
196 150 1
196 156 1
196 159 1
196 162 1
196 168 1
196 172 1
196 173 1
196 176 1
196 178 1
196 185 1
196 197 1
196 198 1
196 200 1
196 207 1
196 208 1
196 211 1
196 214 1
196 215 1
196 216 1
196 221 1
196 224 1
196 230 1
196 231 1
196 239 1
196 244 1
196 256 1
196 259 1
196 262 1
196 263 1
196 274 1
196 275 1
196 279 1
196 280 1
196 281 1
196 287 1
196 296 1
196 301 1
196 322 1
196 325 1
196 327 1
196 330 1
196 332 1
196 338 1
196 339 1
196 344 1
196 351 1
196 358 1
196 361 1
196 362 1
196 367 1
196 369 1
196 373 1
196 374 1
196 377 1
196 387 1
196 398 1
196 400 1
196 405 1
196 412 1
196 413 1
196 415 1
196 419 1
196 436 1
196 451 1
196 452 1
196 456 1
196 457 1
196 479 1
196 483 1
196 488 1
196 495 1
196 496 1
196 507 1
196 508 1
196 510 1
196 515 1
196 518 1
196 524 1
196 525 1
196 529 1
196 530 1
196 531 1
196 543 1
196 546 1
196 555 1
196 560 1
196 566 1
196 571 1
196 573 1
196 574 1
196 581 1
196 582 1
196 583 1
196 587 1
196 590 1
196 591 1
196 596 1
196 598 1
196 599 1
197 10 1
197 12 1
197 15 1
197 25 1
197 26 1
197 27 1
197 35 1
197 41 1
197 45 1
197 56 1
197 60 1
197 64 1
197 70 1
197 84 1
197 95 1
197 97 1
197 98 1
197 105 1
197 110 1
197 111 1
197 115 1
197 120 1
197 133 1
197 136 1
197 144 1
197 149 1
197 154 1
197 163 1
197 169 1
197 171 1
197 174 1
197 176 1
197 177 1
197 192 1
197 193 1
197 196 1
197 198 1
197 200 1
197 205 1
197 222 1
197 240 1
197 247 1
197 258 1
197 263 1
197 265 1
197 277 1
197 280 1
197 283 1
197 286 1
197 290 1
197 299 1
197 304 1
197 305 1
197 316 1
197 321 1
197 324 1
197 328 1
197 332 1
197 334 1
197 341 1
197 345 1
197 346 1
197 349 1
197 356 1
197 357 1
197 359 1
197 361 1
197 366 1
197 369 1
197 376 1
197 382 1
197 383 1
197 386 1
197 394 1
197 396 1
197 409 1
197 413 1
197 423 1
197 428 1
197 430 1
197 431 1
197 433 1
197 438 1
197 445 1
197 448 1
197 450 1
197 451 1
197 460 1
197 462 1
197 473 1
197 484 1
197 490 1
197 492 1
197 493 1
197 498 1
197 511 1
197 518 1
197 519 1
197 520 1
197 523 1
197 524 1
197 528 1
197 529 1
197 530 1
197 531 1
197 537 1
197 538 1
197 550 1
197 553 1
197 564 1
197 568 1
197 570 1
197 573 1
197 575 1
197 577 1
197 588 1
197 598 1
197 600 1
198 12 1
198 13 1
198 15 1
198 19 1
198 20 1
198 22 1
198 26 1
198 34 1
198 49 1
198 53 1
198 58 1
198 62 1
198 64 1
198 72 1
198 74 1
198 75 1
198 85 1
198 94 1
198 102 1
198 105 1
198 106 1
198 114 1
198 118 1
198 119 1
198 122 1
198 125 1
198 130 1
198 139 1
198 142 1
198 145 1
198 147 1
198 151 1
198 162 1
198 163 1
198 178 1
198 181 1
198 187 1
198 188 1
198 194 1
198 196 1
198 197 1
198 201 1
198 202 1
198 206 1
198 207 1
198 208 1
198 210 1
198 211 1
198 215 1
198 221 1
198 226 1
198 228 1
198 230 1
198 239 1
198 246 1
198 251 1
198 259 1
198 265 1
198 271 1
198 273 1
198 274 1
198 275 1
198 277 1
198 283 1
198 287 1
198 291 1
198 301 1
198 310 1
198 313 1
198 321 1
198 323 1
198 334 1
198 337 1
198 338 1
198 339 1
198 346 1
198 348 1
198 349 1
198 350 1
198 361 1
198 363 1
198 365 1
198 367 1
198 372 1
198 376 1
198 377 1
198 378 1
198 382 1
198 383 1
198 402 1
198 404 1
198 407 1
198 413 1
198 416 1
198 425 1
198 442 1
198 446 1
198 449 1
198 450 1
198 455 1
198 461 1
198 465 1
198 466 1
198 474 1
198 478 1
198 480 1
198 488 1
198 489 1
198 494 1
198 502 1
198 512 1
198 514 1
198 517 1
198 522 1
198 531 1
198 533 1
198 534 1
198 535 1
198 536 1
198 553 1
198 562 1
198 564 1
198 568 1
198 569 1
198 571 1
198 572 1
198 574 1
198 582 1
198 583 1
198 589 1
199 1 1
199 3 1
199 7 1
199 15 1
199 16 1
199 19 1
199 25 1
199 27 1
199 33 1
199 35 1
199 40 1
199 49 1
199 53 1
199 57 1
199 63 1
199 68 1
199 70 1
199 72 1
199 74 1
199 76 1
199 77 1
199 78 1
199 84 1
199 90 1
199 95 1
199 102 1
199 105 1
199 107 1
199 112 1
199 115 1
199 116 1
199 118 1
199 120 1
199 122 1
199 131 1
199 136 1
199 139 1
199 147 1
199 149 1
199 150 1
199 152 1
199 159 1
199 172 1
199 180 1
199 182 1
199 185 1
199 201 1
199 205 1
199 219 1
199 223 1
199 226 1
199 253 1
199 265 1
199 271 1
199 283 1
199 292 1
199 296 1
199 304 1
199 305 1
199 325 1
199 343 1
199 345 1
199 352 1
199 357 1
199 361 1
199 373 1
199 375 1
199 377 1
199 384 1
199 388 1
199 390 1
199 403 1
199 413 1
199 420 1
199 421 1
199 434 1
199 437 1
199 446 1
199 447 1
199 449 1
199 450 1
199 465 1
199 482 1
199 486 1
199 493 1
199 504 1
199 521 1
199 524 1
199 525 1
199 538 1
199 539 1
199 575 1
199 577 1
199 578 1
199 582 1
200 1 1
200 7 1
200 13 1
200 26 1
200 31 1
200 41 1
200 57 1
200 66 1
200 71 1
200 73 1
200 77 1
200 78 1
200 85 1
200 88 1
200 89 1
200 96 1
200 101 1
200 102 1
200 103 1
200 106 1
200 114 1
200 121 1
200 122 1
200 125 1
200 131 1
200 132 1
200 134 1
200 135 1
200 137 1
200 147 1
200 151 1
200 157 1
200 165 1
200 175 1
200 176 1
200 192 1
200 195 1
200 196 1
200 197 1
200 210 1
200 217 1
200 221 1
200 227 1
200 235 1
200 239 1
200 246 1
200 256 1
200 260 1
200 265 1
200 272 1
200 275 1
200 280 1
200 282 1
200 285 1
200 286 1
200 292 1
200 317 1
200 322 1
200 328 1
200 329 1
200 331 1
200 334 1
200 336 1
200 347 1
200 348 1
200 352 1
200 354 1
200 362 1
200 365 1
200 377 1
200 392 1
200 395 1
200 396 1
200 398 1
200 399 1
200 407 1
200 415 1
200 416 1
200 419 1
200 420 1
200 424 1
200 428 1
200 431 1
200 433 1
200 468 1
200 470 1
200 473 1
200 475 1
200 485 1
200 493 1
200 494 1
200 496 1
200 500 1
200 505 1
200 514 1
200 519 1
200 521 1
200 529 1
200 534 1
200 538 1
200 539 1
200 540 1
200 542 1
200 543 1
200 545 1
200 551 1
200 553 1
200 560 1
200 562 1
200 566 1
200 581 1
200 583 1
200 587 1
200 588 1
200 592 1
200 593 1
201 2 1
201 12 1
201 17 1
201 23 1
201 25 1
201 29 1
201 32 1
201 40 1
201 48 1
201 50 1
201 55 1
201 66 1
201 81 1
201 84 1
201 87 1
201 96 1
201 99 1
201 113 1
201 117 1
201 122 1
201 126 1
201 127 1
201 131 1
201 133 1
201 141 1
201 144 1
201 152 1
201 153 1
201 157 1
201 161 1
201 173 1
201 182 1
201 187 1
201 198 1
201 199 1
201 202 1
201 206 1
201 208 1
201 216 1
201 225 1
201 228 1
201 233 1
201 234 1
201 236 1
201 240 1
201 246 1
201 251 1
201 256 1
201 258 1
201 261 1
201 263 1
201 269 1
201 271 1
201 272 1
201 273 1
201 282 1
201 292 1
201 297 1
201 299 1
201 301 1
201 302 1
201 304 1
201 320 1
201 322 1
201 346 1
201 348 1
201 350 1
201 360 1
201 365 1
201 382 1
201 385 1
201 388 1
201 390 1
201 394 1
201 404 1
201 405 1
201 410 1
201 430 1
201 433 1
201 434 1
201 436 1
201 444 1
201 452 1
201 459 1
201 466 1
201 467 1
201 471 1
201 479 1
201 481 1
201 484 1
201 488 1
201 489 1
201 494 1
201 496 1
201 499 1
201 508 1
201 515 1
201 520 1
201 524 1
201 525 1
201 533 1
201 536 1
201 545 1
201 547 1
201 551 1
201 552 1
201 554 1
201 555 1
201 560 1
201 565 1
201 568 1
201 570 1
201 575 1
201 582 1
201 583 1
201 585 1
201 595 1
202 1 1
202 8 1
202 15 1
202 16 1
202 18 1
202 20 1
202 22 1
202 31 1
202 33 1
202 38 1
202 43 1
202 52 1
202 56 1
202 65 1
202 71 1
202 80 1
202 84 1
202 87 1
202 89 1
202 93 1
202 96 1
202 100 1
202 102 1
202 105 1
202 108 1
202 114 1
202 115 1
202 123 1
202 150 1
202 152 1
202 160 1
202 162 1
202 164 1
202 172 1
202 174 1
202 178 1
202 180 1
202 182 1
202 186 1
202 189 1
202 191 1
202 198 1
202 201 1
202 213 1
202 219 1
202 221 1
202 224 1
202 229 1
202 230 1
202 232 1
202 235 1
202 238 1
202 244 1
202 246 1
202 247 1
202 251 1
202 254 1
202 257 1
202 260 1
202 263 1
202 264 1
202 267 1
202 278 1
202 282 1
202 283 1
202 308 1
202 315 1
202 329 1
202 331 1
202 336 1
202 338 1
202 340 1
202 342 1
202 343 1
202 348 1
202 349 1
202 350 1
202 361 1
202 367 1
202 372 1
202 376 1
202 388 1
202 394 1
202 396 1
202 401 1
202 407 1
202 408 1
202 409 1
202 413 1
202 421 1
202 426 1
202 430 1
202 437 1
202 446 1
202 447 1
202 452 1
202 455 1
202 456 1
202 460 1
202 463 1
202 464 1
202 469 1
202 473 1
202 481 1
202 485 1
202 496 1
202 498 1
202 499 1
202 505 1
202 507 1
202 509 1
202 511 1
202 512 1
202 525 1
202 528 1
202 546 1
202 547 1
202 555 1
202 566 1
202 577 1
202 580 1
202 585 1
202 586 1
202 597 1
202 598 1
203 5 1
203 7 1
203 9 1
203 12 1
203 15 1
203 16 1
203 24 1
203 27 1
203 30 1
203 31 1
203 32 1
203 33 1
203 39 1
203 45 1
203 48 1
203 53 1
203 64 1
203 80 1
203 81 1
203 84 1
203 85 1
203 95 1
203 110 1
203 111 1
203 114 1
203 126 1
203 133 1
203 143 1
203 144 1
203 146 1
203 147 1
203 157 1
203 171 1
203 179 1
203 182 1
203 185 1
203 186 1
203 188 1
203 208 1
203 210 1
203 217 1
203 224 1
203 227 1
203 228 1
203 237 1
203 240 1
203 242 1
203 243 1
203 246 1
203 249 1
203 251 1
203 253 1
203 254 1
203 263 1
203 268 1
203 273 1
203 281 1
203 290 1
203 295 1
203 298 1
203 306 1
203 310 1
203 311 1
203 323 1
203 331 1
203 339 1
203 343 1
203 345 1
203 346 1
203 347 1
203 349 1
203 357 1
203 359 1
203 368 1
203 372 1
203 373 1
203 375 1
203 376 1
203 385 1
203 386 1
203 387 1
203 389 1
203 390 1
203 391 1
203 395 1
203 401 1
203 411 1
203 413 1
203 424 1
203 428 1
203 436 1
203 438 1
203 439 1
203 441 1
203 442 1
203 443 1
203 444 1
203 445 1
203 447 1
203 453 1
203 455 1
203 461 1
203 467 1
203 472 1
203 473 1
203 486 1
203 488 1
203 496 1
203 502 1
203 511 1
203 513 1
203 519 1
203 527 1
203 528 1
203 538 1
203 539 1
203 550 1
203 563 1
203 564 1
203 569 1
203 582 1
203 591 1
203 593 1
203 594 1
204 5 1
204 6 1
204 7 1
204 12 1
204 19 1
204 28 1
204 32 1
204 48 1
204 53 1
204 55 1
204 57 1
204 72 1
204 73 1
204 75 1
204 76 1
204 77 1
204 83 1
204 96 1
204 100 1
204 105 1
204 107 1
204 124 1
204 142 1
204 144 1
204 145 1
204 151 1
204 158 1
204 161 1
204 163 1
204 165 1
204 179 1
204 180 1
204 182 1
204 183 1
204 186 1
204 212 1
204 217 1
204 229 1
204 243 1
204 255 1
204 267 1
204 269 1
204 279 1
204 282 1
204 286 1
204 295 1
204 296 1
204 299 1
204 303 1
204 305 1
204 308 1
204 310 1
204 315 1
204 321 1
204 331 1
204 335 1
204 338 1
204 348 1
204 349 1
204 358 1
204 364 1
204 367 1
204 368 1
204 373 1
204 378 1
204 392 1
204 401 1
204 410 1
204 414 1
204 416 1
204 419 1
204 433 1
204 445 1
204 449 1
204 453 1
204 465 1
204 471 1
204 472 1
204 474 1
204 475 1
204 479 1
204 481 1
204 487 1
204 490 1
204 500 1
204 508 1
204 509 1
204 511 1
204 512 1
204 521 1
204 532 1
204 549 1
204 555 1
204 558 1
204 560 1
204 561 1
204 565 1
204 569 1
204 571 1
204 574 1
204 589 1
204 592 1
204 594 1
204 596 1
204 598 1
205 1 1
205 2 1
205 4 1
205 8 1
205 14 1
205 16 1
205 21 1
205 23 1
205 25 1
205 33 1
205 37 1
205 40 1
205 45 1
205 50 1
205 63 1
205 66 1
205 71 1
205 86 1
205 88 1
205 89 1
205 90 1
205 93 1
205 102 1
205 106 1
205 110 1
205 114 1
205 115 1
205 118 1
205 120 1
205 123 1
205 125 1
205 131 1
205 132 1
205 139 1
205 140 1
205 156 1
205 170 1
205 172 1
205 173 1
205 176 1
205 192 1
205 197 1
205 199 1
205 207 1
205 209 1
205 211 1
205 212 1
205 221 1
205 223 1
205 224 1
205 225 1
205 238 1
205 239 1
205 244 1
205 247 1
205 253 1
205 266 1
205 267 1
205 269 1
205 271 1
205 273 1
205 276 1
205 286 1
205 287 1
205 293 1
205 298 1
205 300 1
205 301 1
205 305 1
205 310 1
205 317 1
205 323 1
205 327 1
205 340 1
205 349 1
205 354 1
205 363 1
205 366 1
205 367 1
205 377 1
205 378 1
205 380 1
205 389 1
205 391 1
205 401 1
205 404 1
205 410 1
205 411 1
205 416 1
205 421 1
205 435 1
205 442 1
205 448 1
205 453 1
205 468 1
205 477 1
205 478 1
205 484 1
205 494 1
205 497 1
205 501 1
205 513 1
205 518 1
205 526 1
205 535 1
205 536 1
205 545 1
205 556 1
205 569 1
205 572 1
205 578 1
205 581 1
205 590 1
205 591 1
205 592 1
206 15 1
206 17 1
206 23 1
206 25 1
206 30 1
206 32 1
206 33 1
206 37 1
206 41 1
206 42 1
206 43 1
206 48 1
206 51 1
206 53 1
206 55 1
206 62 1
206 69 1
206 71 1
206 76 1
206 77 1
206 79 1
206 80 1
206 84 1
206 85 1
206 88 1
206 89 1
206 99 1
206 102 1
206 107 1
206 109 1
206 110 1
206 117 1
206 121 1
206 124 1
206 128 1
206 136 1
206 147 1
206 149 1
206 159 1
206 160 1
206 163 1
206 170 1
206 172 1
206 174 1
206 178 1
206 182 1
206 190 1
206 198 1
206 201 1
206 221 1
206 226 1
206 231 1
206 259 1
206 269 1
206 274 1
206 277 1
206 278 1
206 293 1
206 294 1
206 295 1
206 297 1
206 302 1
206 313 1
206 317 1
206 320 1
206 321 1
206 323 1
206 325 1
206 332 1
206 337 1
206 340 1
206 346 1
206 351 1
206 355 1
206 361 1
206 377 1
206 378 1
206 379 1
206 382 1
206 394 1
206 399 1
206 403 1
206 404 1
206 406 1
206 412 1
206 425 1
206 431 1
206 434 1
206 437 1
206 440 1
206 446 1
206 452 1
206 462 1
206 467 1
206 472 1
206 474 1
206 480 1
206 481 1
206 488 1
206 497 1
206 501 1
206 504 1
206 506 1
206 509 1
206 510 1
206 511 1
206 517 1
206 522 1
206 532 1
206 533 1
206 537 1
206 539 1
206 540 1
206 543 1
206 546 1
206 547 1
206 553 1
206 555 1
206 557 1
206 563 1
206 567 1
206 573 1
206 574 1
206 578 1
206 579 1
206 582 1
206 592 1
206 594 1
206 598 1
206 600 1
207 2 1
207 16 1
207 18 1
207 22 1
207 25 1
207 32 1
207 37 1
207 40 1
207 51 1
207 53 1
207 64 1
207 70 1
207 74 1
207 78 1
207 84 1
207 86 1
207 97 1
207 104 1
207 111 1
207 112 1
207 114 1
207 119 1
207 127 1
207 128 1
207 136 1
207 141 1
207 153 1
207 156 1
207 157 1
207 162 1
207 166 1
207 167 1
207 181 1
207 192 1
207 196 1
207 198 1
207 205 1
207 213 1
207 217 1
207 222 1
207 223 1
207 227 1
207 228 1
207 229 1
207 235 1
207 241 1
207 242 1
207 243 1
207 244 1
207 245 1
207 248 1
207 249 1
207 259 1
207 264 1
207 266 1
207 267 1
207 268 1
207 277 1
207 278 1
207 279 1
207 286 1
207 288 1
207 289 1
207 291 1
207 296 1
207 301 1
207 304 1
207 309 1
207 310 1
207 320 1
207 321 1
207 322 1
207 325 1
207 326 1
207 333 1
207 334 1
207 340 1
207 346 1
207 356 1
207 372 1
207 376 1
207 377 1
207 381 1
207 393 1
207 399 1
207 402 1
207 403 1
207 404 1
207 422 1
207 427 1
207 428 1
207 431 1
207 435 1
207 440 1
207 443 1
207 448 1
207 451 1
207 457 1
207 463 1
207 479 1
207 480 1
207 484 1
207 494 1
207 496 1
207 497 1
207 511 1
207 513 1
207 518 1
207 539 1
207 549 1
207 553 1
207 555 1
207 557 1
207 562 1
207 573 1
207 574 1
207 585 1
207 588 1
207 600 1
208 1 1
208 3 1
208 4 1
208 9 1
208 14 1
208 16 1
208 20 1
208 23 1
208 34 1
208 37 1
208 39 1
208 50 1
208 56 1
208 71 1
208 75 1
208 77 1
208 80 1
208 81 1
208 89 1
208 92 1
208 98 1
208 99 1
208 103 1
208 109 1
208 124 1
208 134 1
208 135 1
208 143 1
208 149 1
208 154 1
208 157 1
208 163 1
208 166 1
208 169 1
208 174 1
208 175 1
208 182 1
208 185 1
208 194 1
208 195 1
208 196 1
208 198 1
208 201 1
208 203 1
208 226 1
208 239 1
208 250 1
208 254 1
208 263 1
208 273 1
208 276 1
208 280 1
208 289 1
208 291 1
208 296 1
208 300 1
208 320 1
208 323 1
208 324 1
208 326 1
208 330 1
208 341 1
208 348 1
208 350 1
208 357 1
208 362 1
208 368 1
208 373 1
208 378 1
208 379 1
208 381 1
208 385 1
208 386 1
208 388 1
208 395 1
208 400 1
208 406 1
208 412 1
208 420 1
208 428 1
208 432 1
208 435 1
208 444 1
208 447 1
208 450 1
208 461 1
208 462 1
208 466 1
208 471 1
208 474 1
208 480 1
208 481 1
208 488 1
208 497 1
208 498 1
208 502 1
208 509 1
208 512 1
208 520 1
208 524 1
208 526 1
208 531 1
208 535 1
208 536 1
208 544 1
208 558 1
208 560 1
208 574 1
208 588 1
208 591 1
208 592 1
208 597 1
208 598 1
208 600 1
209 9 1
209 17 1
209 18 1
209 24 1
209 29 1
209 33 1
209 40 1
209 45 1
209 46 1
209 47 1
209 48 1
209 51 1
209 58 1
209 61 1
209 62 1
209 64 1
209 65 1
209 68 1
209 70 1
209 87 1
209 106 1
209 114 1
209 119 1
209 120 1
209 132 1
209 137 1
209 140 1
209 142 1
209 149 1
209 150 1
209 163 1
209 167 1
209 186 1
209 205 1
209 214 1
209 216 1
209 222 1
209 227 1
209 231 1
209 255 1
209 257 1
209 271 1
209 273 1
209 277 1
209 284 1
209 286 1
209 294 1
209 301 1
209 304 1
209 307 1
209 309 1
209 325 1
209 351 1
209 367 1
209 371 1
209 374 1
209 377 1
209 384 1
209 393 1
209 394 1
209 395 1
209 398 1
209 401 1
209 402 1
209 406 1
209 416 1
209 417 1
209 418 1
209 419 1
209 424 1
209 432 1
209 440 1
209 441 1
209 446 1
209 449 1
209 467 1
209 471 1
209 473 1
209 480 1
209 481 1
209 488 1
209 496 1
209 513 1
209 518 1
209 521 1
209 529 1
209 538 1
209 539 1
209 543 1
209 548 1
209 551 1
209 555 1
209 560 1
209 565 1
209 566 1
209 570 1
209 573 1
209 578 1
209 579 1
209 584 1
209 590 1
209 591 1
209 593 1
209 600 1
210 6 1
210 7 1
210 15 1
210 16 1
210 25 1
210 26 1
210 27 1
210 31 1
210 34 1
210 37 1
210 40 1
210 51 1
210 52 1
210 74 1
210 77 1
210 79 1
210 81 1
210 83 1
210 87 1
210 95 1
210 97 1
210 99 1
210 107 1
210 112 1
210 114 1
210 118 1
210 119 1
210 120 1
210 128 1
210 129 1
210 132 1
210 151 1
210 152 1
210 155 1
210 167 1
210 179 1
210 184 1
210 191 1
210 194 1
210 198 1
210 200 1
210 203 1
210 211 1
210 215 1
210 224 1
210 225 1
210 227 1
210 230 1
210 236 1
210 246 1
210 266 1
210 276 1
210 277 1
210 286 1
210 294 1
210 299 1
210 304 1
210 305 1
210 308 1
210 309 1
210 310 1
210 321 1
210 331 1
210 333 1
210 335 1
210 343 1
210 346 1
210 351 1
210 352 1
210 361 1
210 362 1
210 364 1
210 365 1
210 369 1
210 370 1
210 378 1
210 384 1
210 386 1
210 388 1
210 394 1
210 399 1
210 405 1
210 406 1
210 407 1
210 413 1
210 418 1
210 422 1
210 423 1
210 430 1
210 437 1
210 438 1
210 441 1
210 452 1
210 461 1
210 465 1
210 470 1
210 473 1
210 477 1
210 478 1
210 480 1
210 481 1
210 482 1
210 483 1
210 484 1
210 485 1
210 491 1
210 497 1
210 506 1
210 508 1
210 509 1
210 520 1
210 521 1
210 523 1
210 533 1
210 543 1
210 544 1
210 550 1
210 552 1
210 555 1
210 568 1
210 572 1
210 573 1
210 574 1
210 579 1
210 582 1
210 590 1
210 591 1
210 593 1
210 594 1
210 595 1
210 598 1
211 3 1
211 11 1
211 12 1
211 21 1
211 25 1
211 29 1
211 30 1
211 32 1
211 41 1
211 65 1
211 66 1
211 67 1
211 73 1
211 74 1
211 83 1
211 89 1
211 96 1
211 102 1
211 105 1
211 106 1
211 108 1
211 121 1
211 130 1
211 135 1
211 138 1
211 145 1
211 149 1
211 152 1
211 154 1
211 155 1
211 167 1
211 185 1
211 194 1
211 196 1
211 198 1
211 205 1
211 210 1
211 215 1
211 216 1
211 225 1
211 230 1
211 242 1
211 243 1
211 247 1
211 261 1
211 264 1
211 265 1
211 269 1
211 286 1
211 292 1
211 295 1
211 305 1
211 307 1
211 310 1
211 314 1
211 315 1
211 325 1
211 327 1
211 328 1
211 330 1
211 333 1
211 341 1
211 343 1
211 344 1
211 346 1
211 349 1
211 353 1
211 354 1
211 360 1
211 363 1
211 364 1
211 366 1
211 368 1
211 370 1
211 372 1
211 373 1
211 375 1
211 378 1
211 386 1
211 388 1
211 393 1
211 400 1
211 401 1
211 402 1
211 405 1
211 408 1
211 413 1
211 417 1
211 419 1
211 421 1
211 426 1
211 433 1
211 441 1
211 442 1
211 448 1
211 450 1
211 458 1
211 493 1
211 495 1
211 498 1
211 499 1
211 500 1
211 501 1
211 504 1
211 510 1
211 511 1
211 514 1
211 515 1
211 516 1
211 527 1
211 539 1
211 545 1
211 550 1
211 557 1
211 560 1
211 565 1
211 569 1
211 570 1
211 580 1
211 586 1
211 588 1
211 592 1
211 594 1
211 596 1
211 598 1
212 2 1
212 7 1
212 12 1
212 15 1
212 16 1
212 20 1
212 28 1
212 29 1
212 31 1
212 33 1
212 35 1
212 45 1
212 47 1
212 50 1
212 52 1
212 53 1
212 56 1
212 62 1
212 68 1
212 70 1
212 73 1
212 79 1
212 88 1
212 91 1
212 108 1
212 124 1
212 125 1
212 126 1
212 127 1
212 140 1
212 143 1
212 149 1
212 153 1
212 160 1
212 161 1
212 163 1
212 166 1
212 169 1
212 171 1
212 176 1
212 177 1
212 182 1
212 184 1
212 194 1
212 195 1
212 204 1
212 205 1
212 214 1
212 215 1
212 219 1
212 220 1
212 223 1
212 227 1
212 230 1
212 244 1
212 245 1
212 251 1
212 268 1
212 270 1
212 273 1
212 275 1
212 284 1
212 287 1
212 289 1
212 291 1
212 298 1
212 299 1
212 304 1
212 308 1
212 311 1
212 314 1
212 320 1
212 321 1
212 323 1
212 325 1
212 352 1
212 355 1
212 359 1
212 360 1
212 363 1
212 364 1
212 366 1
212 367 1
212 377 1
212 381 1
212 383 1
212 385 1
212 392 1
212 395 1
212 402 1
212 406 1
212 407 1
212 415 1
212 418 1
212 420 1
212 422 1
212 426 1
212 428 1
212 430 1
212 442 1
212 444 1
212 454 1
212 457 1
212 460 1
212 462 1
212 463 1
212 468 1
212 471 1
212 475 1
212 480 1
212 482 1
212 489 1
212 494 1
212 498 1
212 502 1
212 511 1
212 514 1
212 519 1
212 521 1
212 524 1
212 526 1
212 535 1
212 536 1
212 540 1
212 550 1
212 553 1
212 554 1
212 556 1
212 566 1
212 570 1
212 571 1
212 579 1
212 583 1
213 4 1
213 7 1
213 10 1
213 14 1
213 18 1
213 37 1
213 42 1
213 57 1
213 59 1
213 61 1
213 62 1
213 72 1
213 74 1
213 75 1
213 89 1
213 90 1
213 92 1
213 96 1
213 98 1
213 101 1
213 122 1
213 123 1
213 131 1
213 133 1
213 134 1
213 143 1
213 149 1
213 152 1
213 159 1
213 165 1
213 166 1
213 170 1
213 171 1
213 185 1
213 189 1
213 194 1
213 202 1
213 207 1
213 218 1
213 226 1
213 228 1
213 232 1
213 235 1
213 237 1
213 241 1
213 243 1
213 244 1
213 246 1
213 248 1
213 249 1
213 266 1
213 268 1
213 277 1
213 280 1
213 287 1
213 293 1
213 298 1
213 301 1
213 311 1
213 316 1
213 317 1
213 324 1
213 328 1
213 334 1
213 341 1
213 346 1
213 349 1
213 354 1
213 358 1
213 366 1
213 382 1
213 392 1
213 397 1
213 399 1
213 404 1
213 412 1
213 422 1
213 429 1
213 432 1
213 441 1
213 442 1
213 447 1
213 449 1
213 455 1
213 456 1
213 476 1
213 477 1
213 478 1
213 484 1
213 485 1
213 487 1
213 497 1
213 498 1
213 503 1
213 505 1
213 520 1
213 521 1
213 522 1
213 525 1
213 532 1
213 533 1
213 534 1
213 543 1
213 545 1
213 548 1
213 567 1
213 569 1
213 577 1
213 581 1
213 583 1
213 587 1
213 589 1
213 595 1
213 596 1
213 599 1
214 1 1
214 2 1
214 4 1
214 8 1
214 10 1
214 14 1
214 22 1
214 29 1
214 34 1
214 42 1
214 51 1
214 55 1
214 58 1
214 59 1
214 65 1
214 70 1
214 75 1
214 83 1
214 86 1
214 89 1
214 93 1
214 102 1
214 109 1
214 113 1
214 114 1
214 118 1
214 121 1
214 123 1
214 127 1
214 132 1
214 135 1
214 139 1
214 148 1
214 151 1
214 152 1
214 157 1
214 159 1
214 167 1
214 169 1
214 171 1
214 178 1
214 188 1
214 190 1
214 193 1
214 196 1
214 209 1
214 212 1
214 221 1
214 237 1
214 239 1
214 249 1
214 253 1
214 256 1
214 260 1
214 271 1
214 272 1
214 279 1
214 287 1
214 290 1
214 297 1
214 307 1
214 309 1
214 312 1
214 313 1
214 315 1
214 326 1
214 328 1
214 329 1
214 336 1
214 338 1
214 341 1
214 342 1
214 350 1
214 355 1
214 359 1
214 363 1
214 364 1
214 370 1
214 372 1
214 373 1
214 384 1
214 387 1
214 389 1
214 399 1
214 405 1
214 411 1
214 416 1
214 426 1
214 428 1
214 436 1
214 452 1
214 458 1
214 461 1
214 462 1
214 463 1
214 468 1
214 474 1
214 475 1
214 483 1
214 484 1
214 489 1
214 496 1
214 507 1
214 509 1
214 510 1
214 512 1
214 513 1
214 515 1
214 531 1
214 532 1
214 537 1
214 539 1
214 542 1
214 547 1
214 548 1
214 550 1
214 553 1
214 559 1
214 563 1
214 565 1
214 577 1
214 584 1
214 589 1
214 591 1
214 594 1
214 596 1
214 598 1
215 4 1
215 7 1
215 15 1
215 16 1
215 18 1
215 21 1
215 23 1
215 25 1
215 26 1
215 27 1
215 28 1
215 32 1
215 35 1
215 39 1
215 40 1
215 48 1
215 50 1
215 53 1
215 63 1
215 65 1
215 66 1
215 67 1
215 69 1
215 72 1
215 73 1
215 74 1
215 82 1
215 88 1
215 97 1
215 103 1
215 105 1
215 116 1
215 117 1
215 121 1
215 139 1
215 147 1
215 150 1
215 152 1
215 157 1
215 169 1
215 176 1
215 179 1
215 196 1
215 198 1
215 210 1
215 211 1
215 212 1
215 219 1
215 226 1
215 235 1
215 240 1
215 244 1
215 250 1
215 251 1
215 258 1
215 269 1
215 274 1
215 275 1
215 289 1
215 290 1
215 294 1
215 298 1
215 303 1
215 313 1
215 323 1
215 325 1
215 327 1
215 328 1
215 329 1
215 330 1
215 332 1
215 334 1
215 335 1
215 341 1
215 347 1
215 365 1
215 373 1
215 375 1
215 387 1
215 392 1
215 394 1
215 396 1
215 405 1
215 410 1
215 411 1
215 416 1
215 419 1
215 420 1
215 423 1
215 425 1
215 433 1
215 434 1
215 435 1
215 438 1
215 444 1
215 445 1
215 456 1
215 462 1
215 464 1
215 473 1
215 476 1
215 480 1
215 483 1
215 485 1
215 497 1
215 503 1
215 505 1
215 508 1
215 513 1
215 514 1
215 517 1
215 519 1
215 522 1
215 528 1
215 537 1
215 540 1
215 552 1
215 559 1
215 562 1
215 566 1
215 575 1
215 584 1
215 593 1
215 597 1
216 3 1
216 12 1
216 16 1
216 17 1
216 20 1
216 21 1
216 26 1
216 28 1
216 30 1
216 31 1
216 39 1
216 46 1
216 47 1
216 54 1
216 56 1
216 59 1
216 60 1
216 62 1
216 63 1
216 65 1
216 66 1
216 67 1
216 71 1
216 72 1
216 73 1
216 74 1
216 79 1
216 82 1
216 83 1
216 90 1
216 91 1
216 96 1
216 99 1
216 100 1
216 101 1
216 113 1
216 117 1
216 118 1
216 119 1
216 125 1
216 129 1
216 135 1
216 138 1
216 139 1
216 141 1
216 148 1
216 152 1
216 156 1
216 158 1
216 168 1
216 169 1
216 195 1
216 196 1
216 201 1
216 209 1
216 211 1
216 226 1
216 230 1
216 232 1
216 236 1
216 243 1
216 248 1
216 250 1
216 254 1
216 257 1
216 267 1
216 278 1
216 279 1
216 284 1
216 288 1
216 299 1
216 304 1
216 308 1
216 309 1
216 311 1
216 325 1
216 328 1
216 329 1
216 334 1
216 337 1
216 338 1
216 339 1
216 342 1
216 348 1
216 350 1
216 358 1
216 361 1
216 362 1
216 369 1
216 390 1
216 426 1
216 432 1
216 433 1
216 437 1
216 440 1
216 442 1
216 449 1
216 453 1
216 460 1
216 462 1
216 464 1
216 467 1
216 471 1
216 478 1
216 486 1
216 491 1
216 492 1
216 499 1
216 507 1
216 517 1
216 519 1
216 529 1
216 530 1
216 537 1
216 540 1
216 542 1
216 550 1
216 559 1
216 562 1
216 570 1
216 573 1
216 574 1
216 576 1
216 580 1
216 581 1
216 585 1
216 586 1
216 600 1
217 1 1
217 6 1
217 27 1
217 33 1
217 39 1
217 40 1
217 41 1
217 44 1
217 51 1
217 58 1
217 59 1
217 62 1
217 77 1
217 82 1
217 83 1
217 85 1
217 96 1
217 110 1
217 116 1
217 122 1
217 123 1
217 137 1
217 147 1
217 148 1
217 149 1
217 150 1
217 159 1
217 164 1
217 167 1
217 170 1
217 178 1
217 190 1
217 200 1
217 203 1
217 204 1
217 207 1
217 224 1
217 248 1
217 249 1
217 251 1
217 253 1
217 261 1
217 264 1
217 277 1
217 280 1
217 281 1
217 282 1
217 283 1
217 286 1
217 306 1
217 309 1
217 316 1
217 319 1
217 324 1
217 334 1
217 342 1
217 344 1
217 346 1
217 355 1
217 356 1
217 359 1
217 363 1
217 365 1
217 366 1
217 371 1
217 373 1
217 374 1
217 377 1
217 379 1
217 384 1
217 388 1
217 391 1
217 392 1
217 399 1
217 400 1
217 403 1
217 406 1
217 409 1
217 419 1
217 432 1
217 439 1
217 442 1
217 443 1
217 452 1
217 457 1
217 459 1
217 479 1
217 485 1
217 498 1
217 505 1
217 506 1
217 513 1
217 516 1
217 517 1
217 522 1
217 524 1
217 531 1
217 542 1
217 545 1
217 548 1
217 549 1
217 561 1
217 562 1
217 565 1
217 569 1
217 570 1
217 579 1
217 581 1
217 596 1
217 598 1
217 599 1
218 6 1
218 14 1
218 16 1
218 18 1
218 20 1
218 22 1
218 26 1
218 30 1
218 32 1
218 37 1
218 39 1
218 43 1
218 45 1
218 50 1
218 54 1
218 58 1
218 69 1
218 72 1
218 77 1
218 81 1
218 83 1
218 88 1
218 90 1
218 118 1
218 120 1
218 121 1
218 125 1
218 129 1
218 130 1
218 132 1
218 134 1
218 137 1
218 143 1
218 146 1
218 147 1
218 159 1
218 168 1
218 169 1
218 171 1
218 178 1
218 192 1
218 213 1
218 223 1
218 227 1
218 230 1
218 245 1
218 248 1
218 268 1
218 269 1
218 272 1
218 279 1
218 297 1
218 302 1
218 306 1
218 323 1
218 326 1
218 335 1
218 356 1
218 357 1
218 358 1
218 362 1
218 366 1
218 373 1
218 374 1
218 376 1
218 381 1
218 389 1
218 390 1
218 392 1
218 393 1
218 398 1
218 400 1
218 401 1
218 406 1
218 411 1
218 412 1
218 414 1
218 417 1
218 420 1
218 424 1
218 426 1
218 439 1
218 441 1
218 461 1
218 462 1
218 464 1
218 465 1
218 468 1
218 478 1
218 486 1
218 492 1
218 493 1
218 501 1
218 502 1
218 504 1
218 505 1
218 509 1
218 513 1
218 518 1
218 519 1
218 525 1
218 532 1
218 538 1
218 539 1
218 541 1
218 546 1
218 547 1
218 557 1
218 561 1
218 569 1
218 570 1
218 576 1
218 577 1
218 586 1
218 587 1
218 591 1
218 594 1
218 595 1
219 6 1
219 10 1
219 14 1
219 18 1
219 19 1
219 20 1
219 22 1
219 32 1
219 34 1
219 42 1
219 46 1
219 47 1
219 50 1
219 56 1
219 60 1
219 64 1
219 66 1
219 71 1
219 76 1
219 84 1
219 88 1
219 94 1
219 95 1
219 104 1
219 105 1
219 120 1
219 127 1
219 130 1
219 131 1
219 142 1
219 143 1
219 144 1
219 145 1
219 148 1
219 155 1
219 162 1
219 163 1
219 165 1
219 171 1
219 175 1
219 184 1
219 187 1
219 189 1
219 193 1
219 195 1
219 199 1
219 202 1
219 212 1
219 215 1
219 226 1
219 229 1
219 230 1
219 237 1
219 243 1
219 247 1
219 256 1
219 261 1
219 263 1
219 269 1
219 270 1
219 278 1
219 284 1
219 287 1
219 300 1
219 303 1
219 310 1
219 315 1
219 323 1
219 329 1
219 345 1
219 353 1
219 356 1
219 359 1
219 361 1
219 366 1
219 367 1
219 372 1
219 374 1
219 378 1
219 382 1
219 386 1
219 390 1
219 393 1
219 409 1
219 411 1
219 412 1
219 415 1
219 420 1
219 422 1
219 428 1
219 430 1
219 431 1
219 433 1
219 434 1
219 438 1
219 446 1
219 448 1
219 459 1
219 465 1
219 475 1
219 478 1
219 492 1
219 504 1
219 507 1
219 511 1
219 525 1
219 528 1
219 529 1
219 530 1
219 543 1
219 547 1
219 549 1
219 561 1
219 578 1
219 581 1
219 587 1
219 588 1
219 590 1
219 592 1
219 595 1
219 598 1
219 600 1
220 16 1
220 23 1
220 26 1
220 29 1
220 30 1
220 35 1
220 49 1
220 52 1
220 59 1
220 61 1
220 65 1
220 68 1
220 71 1
220 73 1
220 74 1
220 76 1
220 78 1
220 83 1
220 85 1
220 89 1
220 107 1
220 109 1
220 116 1
220 120 1
220 126 1
220 134 1
220 144 1
220 145 1
220 152 1
220 154 1
220 156 1
220 158 1
220 160 1
220 173 1
220 183 1
220 190 1
220 212 1
220 228 1
220 239 1
220 242 1
220 248 1
220 250 1
220 258 1
220 259 1
220 260 1
220 278 1
220 284 1
220 293 1
220 294 1
220 298 1
220 306 1
220 314 1
220 338 1
220 342 1
220 344 1
220 352 1
220 355 1
220 358 1
220 363 1
220 366 1
220 367 1
220 369 1
220 373 1
220 375 1
220 376 1
220 381 1
220 389 1
220 393 1
220 397 1
220 398 1
220 400 1
220 405 1
220 408 1
220 410 1
220 422 1
220 430 1
220 433 1
220 436 1
220 443 1
220 444 1
220 447 1
220 451 1
220 458 1
220 459 1
220 469 1
220 476 1
220 479 1
220 488 1
220 504 1
220 518 1
220 521 1
220 526 1
220 527 1
220 542 1
220 544 1
220 552 1
220 556 1
220 560 1
220 571 1
220 577 1
220 578 1
220 581 1
220 589 1
220 591 1
221 14 1
221 15 1
221 24 1
221 32 1
221 34 1
221 41 1
221 48 1
221 58 1
221 60 1
221 72 1
221 75 1
221 77 1
221 81 1
221 82 1
221 93 1
221 94 1
221 98 1
221 101 1
221 103 1
221 109 1
221 126 1
221 132 1
221 134 1
221 143 1
221 152 1
221 160 1
221 167 1
221 168 1
221 170 1
221 171 1
221 173 1
221 174 1
221 177 1
221 178 1
221 181 1
221 183 1
221 185 1
221 186 1
221 196 1
221 198 1
221 200 1
221 202 1
221 205 1
221 206 1
221 214 1
221 240 1
221 243 1
221 244 1
221 249 1
221 251 1
221 255 1
221 256 1
221 261 1
221 270 1
221 271 1
221 273 1
221 278 1
221 280 1
221 291 1
221 297 1
221 299 1
221 310 1
221 316 1
221 319 1
221 326 1
221 330 1
221 340 1
221 344 1
221 347 1
221 353 1
221 355 1
221 361 1
221 366 1
221 367 1
221 370 1
221 371 1
221 373 1
221 375 1
221 387 1
221 391 1
221 394 1
221 400 1
221 401 1
221 405 1
221 413 1
221 416 1
221 424 1
221 427 1
221 436 1
221 444 1
221 447 1
221 449 1
221 451 1
221 455 1
221 463 1
221 466 1
221 471 1
221 476 1
221 480 1
221 482 1
221 485 1
221 489 1
221 493 1
221 500 1
221 504 1
221 505 1
221 522 1
221 523 1
221 525 1
221 531 1
221 532 1
221 542 1
221 547 1
221 550 1
221 551 1
221 552 1
221 567 1
221 575 1
221 579 1
221 587 1
221 595 1
221 596 1
221 598 1
221 599 1
221 600 1
222 1 1
222 4 1
222 7 1
222 8 1
222 10 1
222 11 1
222 15 1
222 20 1
222 26 1
222 31 1
222 37 1
222 42 1
222 50 1
222 65 1
222 69 1
222 74 1
222 76 1
222 83 1
222 97 1
222 103 1
222 106 1
222 112 1
222 113 1
222 116 1
222 119 1
222 122 1
222 135 1
222 136 1
222 140 1
222 142 1
222 150 1
222 152 1
222 158 1
222 159 1
222 167 1
222 168 1
222 169 1
222 170 1
222 171 1
222 179 1
222 180 1
222 188 1
222 193 1
222 195 1
222 197 1
222 207 1
222 209 1
222 228 1
222 230 1
222 236 1
222 238 1
222 240 1
222 245 1
222 252 1
222 258 1
222 264 1
222 266 1
222 267 1
222 268 1
222 274 1
222 277 1
222 278 1
222 279 1
222 280 1
222 283 1
222 285 1
222 287 1
222 289 1
222 290 1
222 292 1
222 298 1
222 302 1
222 307 1
222 308 1
222 310 1
222 317 1
222 321 1
222 324 1
222 331 1
222 332 1
222 338 1
222 342 1
222 346 1
222 349 1
222 355 1
222 368 1
222 374 1
222 383 1
222 386 1
222 397 1
222 398 1
222 399 1
222 400 1
222 403 1
222 408 1
222 412 1
222 424 1
222 427 1
222 432 1
222 438 1
222 443 1
222 448 1
222 451 1
222 459 1
222 463 1
222 467 1
222 468 1
222 476 1
222 495 1
222 497 1
222 501 1
222 505 1
222 510 1
222 519 1
222 523 1
222 539 1
222 550 1
222 555 1
222 559 1
222 562 1
222 563 1
222 566 1
222 568 1
222 570 1
222 577 1
222 581 1
222 585 1
222 593 1
222 597 1
223 2 1
223 7 1
223 12 1
223 17 1
223 21 1
223 22 1
223 39 1
223 42 1
223 45 1
223 53 1
223 54 1
223 57 1
223 62 1
223 66 1
223 67 1
223 68 1
223 69 1
223 70 1
223 76 1
223 84 1
223 90 1
223 97 1
223 107 1
223 112 1
223 118 1
223 119 1
223 122 1
223 123 1
223 127 1
223 139 1
223 140 1
223 142 1
223 153 1
223 156 1
223 164 1
223 166 1
223 168 1
223 176 1
223 180 1
223 184 1
223 192 1
223 195 1
223 199 1
223 205 1
223 207 1
223 212 1
223 218 1
223 224 1
223 225 1
223 235 1
223 245 1
223 252 1
223 262 1
223 266 1
223 269 1
223 271 1
223 276 1
223 283 1
223 288 1
223 295 1
223 305 1
223 307 1
223 308 1
223 320 1
223 334 1
223 336 1
223 338 1
223 339 1
223 344 1
223 347 1
223 350 1
223 354 1
223 357 1
223 359 1
223 368 1
223 371 1
223 381 1
223 382 1
223 383 1
223 390 1
223 397 1
223 400 1
223 410 1
223 427 1
223 430 1
223 437 1
223 439 1
223 444 1
223 451 1
223 458 1
223 459 1
223 461 1
223 485 1
223 486 1
223 487 1
223 489 1
223 490 1
223 492 1
223 496 1
223 500 1
223 501 1
223 514 1
223 516 1
223 517 1
223 518 1
223 527 1
223 528 1
223 533 1
223 534 1
223 539 1
223 543 1
223 544 1
223 547 1
223 551 1
223 552 1
223 568 1
223 574 1
223 584 1
223 596 1
224 1 1
224 3 1
224 7 1
224 14 1
224 21 1
224 31 1
224 37 1
224 38 1
224 43 1
224 46 1
224 54 1
224 61 1
224 63 1
224 79 1
224 83 1
224 96 1
224 99 1
224 100 1
224 104 1
224 107 1
224 112 1
224 118 1
224 120 1
224 135 1
224 136 1
224 146 1
224 151 1
224 156 1
224 159 1
224 162 1
224 165 1
224 166 1
224 173 1
224 179 1
224 183 1
224 184 1
224 187 1
224 188 1
224 191 1
224 195 1
224 196 1
224 202 1
224 203 1
224 205 1
224 210 1
224 217 1
224 223 1
224 225 1
224 227 1
224 228 1
224 233 1
224 234 1
224 240 1
224 244 1
224 246 1
224 249 1
224 257 1
224 258 1
224 280 1
224 281 1
224 283 1
224 291 1
224 292 1
224 294 1
224 297 1
224 306 1
224 309 1
224 312 1
224 331 1
224 332 1
224 336 1
224 340 1
224 352 1
224 360 1
224 364 1
224 367 1
224 368 1
224 376 1
224 380 1
224 392 1
224 394 1
224 397 1
224 398 1
224 402 1
224 405 1
224 407 1
224 413 1
224 416 1
224 421 1
224 422 1
224 424 1
224 428 1
224 430 1
224 438 1
224 441 1
224 442 1
224 460 1
224 461 1
224 464 1
224 469 1
224 470 1
224 472 1
224 494 1
224 498 1
224 499 1
224 503 1
224 518 1
224 519 1
224 520 1
224 530 1
224 540 1
224 548 1
224 553 1
224 554 1
224 563 1
224 568 1
224 571 1
224 574 1
224 575 1
224 577 1
224 581 1
224 587 1
224 595 1
224 596 1
224 597 1
225 3 1
225 7 1
225 18 1
225 19 1
225 24 1
225 35 1
225 36 1
225 39 1
225 41 1
225 42 1
225 50 1
225 52 1
225 53 1
225 54 1
225 57 1
225 63 1
225 65 1
225 68 1
225 70 1
225 74 1
225 84 1
225 85 1
225 100 1
225 101 1
225 102 1
225 103 1
225 117 1
225 121 1
225 126 1
225 127 1
225 129 1
225 134 1
225 135 1
225 136 1
225 138 1
225 142 1
225 144 1
225 145 1
225 152 1
225 161 1
225 166 1
225 167 1
225 175 1
225 178 1
225 183 1
225 185 1
225 187 1
225 189 1
225 201 1
225 205 1
225 210 1
225 211 1
225 223 1
225 224 1
225 226 1
225 228 1
225 234 1
225 237 1
225 242 1
225 258 1
225 259 1
225 262 1
225 266 1
225 269 1
225 272 1
225 279 1
225 285 1
225 290 1
225 292 1
225 302 1
225 311 1
225 312 1
225 313 1
225 314 1
225 317 1
225 321 1
225 324 1
225 327 1
225 332 1
225 333 1
225 337 1
225 339 1
225 341 1
225 345 1
225 363 1
225 381 1
225 383 1
225 395 1
225 399 1
225 400 1
225 412 1
225 417 1
225 423 1
225 431 1
225 437 1
225 439 1
225 444 1
225 460 1
225 466 1
225 467 1
225 471 1
225 473 1
225 474 1
225 497 1
225 507 1
225 510 1
225 516 1
225 517 1
225 520 1
225 522 1
225 526 1
225 529 1
225 536 1
225 537 1
225 538 1
225 543 1
225 545 1
225 548 1
225 552 1
225 555 1
225 560 1
225 561 1
225 565 1
225 568 1
225 574 1
225 578 1
225 585 1
225 586 1
225 589 1
225 592 1
225 594 1
225 597 1
226 12 1
226 14 1
226 16 1
226 26 1
226 33 1
226 41 1
226 49 1
226 59 1
226 72 1
226 73 1
226 83 1
226 91 1
226 106 1
226 115 1
226 126 1
226 127 1
226 129 1
226 134 1
226 135 1
226 145 1
226 150 1
226 157 1
226 161 1
226 165 1
226 184 1
226 188 1
226 194 1
226 198 1
226 199 1
226 206 1
226 208 1
226 213 1
226 215 1
226 216 1
226 219 1
226 225 1
226 229 1
226 238 1
226 240 1
226 249 1
226 251 1
226 253 1
226 256 1
226 267 1
226 270 1
226 271 1
226 277 1
226 283 1
226 284 1
226 303 1
226 304 1
226 305 1
226 324 1
226 333 1
226 334 1
226 336 1
226 340 1
226 341 1
226 350 1
226 352 1
226 358 1
226 362 1
226 364 1
226 372 1
226 374 1
226 377 1
226 387 1
226 389 1
226 396 1
226 398 1
226 399 1
226 403 1
226 404 1
226 406 1
226 409 1
226 420 1
226 424 1
226 426 1
226 435 1
226 448 1
226 450 1
226 455 1
226 460 1
226 463 1
226 465 1
226 468 1
226 469 1
226 470 1
226 472 1
226 476 1
226 477 1
226 478 1
226 484 1
226 486 1
226 491 1
226 494 1
226 496 1
226 498 1
226 501 1
226 507 1
226 508 1
226 527 1
226 528 1
226 530 1
226 532 1
226 533 1
226 537 1
226 538 1
226 549 1
226 564 1
226 567 1
226 570 1
226 575 1
226 591 1
226 596 1
226 597 1
226 600 1
227 5 1
227 21 1
227 25 1
227 26 1
227 42 1
227 52 1
227 78 1
227 79 1
227 88 1
227 89 1
227 98 1
227 99 1
227 103 1
227 107 1
227 116 1
227 119 1
227 123 1
227 126 1
227 127 1
227 132 1
227 134 1
227 137 1
227 146 1
227 151 1
227 152 1
227 153 1
227 156 1
227 158 1
227 159 1
227 163 1
227 167 1
227 172 1
227 175 1
227 191 1
227 193 1
227 194 1
227 200 1
227 203 1
227 207 1
227 209 1
227 210 1
227 212 1
227 218 1
227 224 1
227 229 1
227 231 1
227 232 1
227 235 1
227 240 1
227 250 1
227 255 1
227 260 1
227 265 1
227 271 1
227 272 1
227 274 1
227 280 1
227 287 1
227 293 1
227 296 1
227 298 1
227 303 1
227 306 1
227 313 1
227 316 1
227 317 1
227 319 1
227 320 1
227 322 1
227 330 1
227 335 1
227 354 1
227 362 1
227 367 1
227 374 1
227 379 1
227 382 1
227 383 1
227 384 1
227 385 1
227 393 1
227 398 1
227 407 1
227 428 1
227 435 1
227 436 1
227 449 1
227 451 1
227 459 1
227 464 1
227 471 1
227 480 1
227 481 1
227 485 1
227 486 1
227 491 1
227 494 1
227 496 1
227 505 1
227 511 1
227 514 1
227 516 1
227 518 1
227 520 1
227 524 1
227 536 1
227 538 1
227 548 1
227 551 1
227 558 1
227 565 1
227 567 1
227 569 1
227 581 1
227 585 1
227 586 1
227 590 1
227 595 1
227 597 1
228 3 1
228 4 1
228 6 1
228 10 1
228 15 1
228 16 1
228 25 1
228 29 1
228 30 1
228 37 1
228 48 1
228 49 1
228 62 1
228 64 1
228 67 1
228 72 1
228 80 1
228 91 1
228 99 1
228 107 1
228 111 1
228 114 1
228 118 1
228 164 1
228 167 1
228 168 1
228 171 1
228 180 1
228 186 1
228 193 1
228 198 1
228 201 1
228 203 1
228 207 1
228 213 1
228 220 1
228 222 1
228 224 1
228 225 1
228 246 1
228 250 1
228 255 1
228 256 1
228 258 1
228 261 1
228 264 1
228 265 1
228 274 1
228 279 1
228 281 1
228 289 1
228 290 1
228 295 1
228 310 1
228 311 1
228 313 1
228 319 1
228 326 1
228 327 1
228 348 1
228 352 1
228 354 1
228 368 1
228 376 1
228 377 1
228 380 1
228 381 1
228 393 1
228 397 1
228 407 1
228 412 1
228 414 1
228 420 1
228 422 1
228 432 1
228 434 1
228 439 1
228 442 1
228 447 1
228 449 1
228 460 1
228 461 1
228 462 1
228 464 1
228 468 1
228 469 1
228 471 1
228 474 1
228 478 1
228 479 1
228 487 1
228 496 1
228 499 1
228 505 1
228 506 1
228 511 1
228 545 1
228 552 1
228 559 1
228 575 1
228 580 1
228 588 1
228 589 1
228 592 1
228 595 1
229 6 1
229 7 1
229 20 1
229 24 1
229 28 1
229 32 1
229 48 1
229 55 1
229 61 1
229 65 1
229 67 1
229 70 1
229 73 1
229 88 1
229 91 1
229 93 1
229 105 1
229 109 1
229 112 1
229 115 1
229 119 1
229 139 1
229 140 1
229 150 1
229 161 1
229 163 1
229 168 1
229 170 1
229 173 1
229 180 1
229 182 1
229 185 1
229 188 1
229 192 1
229 202 1
229 204 1
229 207 1
229 219 1
229 226 1
229 227 1
229 230 1
229 235 1
229 236 1
229 237 1
229 242 1
229 245 1
229 250 1
229 255 1
229 263 1
229 266 1
229 273 1
229 275 1
229 279 1
229 289 1
229 293 1
229 301 1
229 302 1
229 303 1
229 311 1
229 314 1
229 318 1
229 325 1
229 328 1
229 343 1
229 345 1
229 346 1
229 354 1
229 362 1
229 364 1
229 367 1
229 368 1
229 374 1
229 379 1
229 387 1
229 393 1
229 397 1
229 399 1
229 400 1
229 407 1
229 408 1
229 414 1
229 421 1
229 424 1
229 426 1
229 427 1
229 428 1
229 429 1
229 431 1
229 435 1
229 438 1
229 440 1
229 446 1
229 449 1
229 451 1
229 454 1
229 457 1
229 460 1
229 462 1
229 463 1
229 472 1
229 482 1
229 486 1
229 492 1
229 493 1
229 495 1
229 499 1
229 501 1
229 502 1
229 505 1
229 510 1
229 511 1
229 514 1
229 517 1
229 521 1
229 529 1
229 531 1
229 532 1
229 547 1
229 548 1
229 550 1
229 551 1
229 557 1
229 562 1
229 566 1
229 568 1
229 569 1
229 571 1
229 580 1
229 581 1
229 585 1
229 586 1
229 587 1
229 589 1
229 590 1
229 591 1
229 595 1
229 599 1
230 6 1
230 16 1
230 23 1
230 27 1
230 29 1
230 34 1
230 40 1
230 43 1
230 49 1
230 54 1
230 66 1
230 73 1
230 76 1
230 77 1
230 88 1
230 89 1
230 106 1
230 108 1
230 112 1
230 119 1
230 122 1
230 127 1
230 128 1
230 134 1
230 137 1
230 140 1
230 148 1
230 150 1
230 163 1
230 164 1
230 167 1
230 174 1
230 178 1
230 179 1
230 185 1
230 187 1
230 194 1
230 196 1
230 198 1
230 202 1
230 210 1
230 211 1
230 212 1
230 216 1
230 218 1
230 219 1
230 222 1
230 229 1
230 239 1
230 240 1
230 244 1
230 247 1
230 256 1
230 265 1
230 269 1
230 273 1
230 282 1
230 287 1
230 293 1
230 298 1
230 301 1
230 313 1
230 314 1
230 322 1
230 324 1
230 327 1
230 330 1
230 345 1
230 346 1
230 348 1
230 350 1
230 360 1
230 362 1
230 365 1
230 367 1
230 376 1
230 384 1
230 385 1
230 397 1
230 400 1
230 401 1
230 408 1
230 413 1
230 415 1
230 422 1
230 423 1
230 424 1
230 431 1
230 448 1
230 450 1
230 461 1
230 470 1
230 475 1
230 477 1
230 482 1
230 499 1
230 505 1
230 524 1
230 530 1
230 532 1
230 539 1
230 543 1
230 547 1
230 550 1
230 555 1
230 563 1
230 567 1
230 582 1
230 586 1
230 592 1
230 593 1
230 597 1
231 8 1
231 9 1
231 10 1
231 14 1
231 16 1
231 20 1
231 26 1
231 32 1
231 35 1
231 47 1
231 52 1
231 55 1
231 62 1
231 66 1
231 67 1
231 71 1
231 78 1
231 84 1
231 95 1
231 100 1
231 105 1
231 106 1
231 117 1
231 143 1
231 146 1
231 152 1
231 153 1
231 159 1
231 162 1
231 164 1
231 165 1
231 170 1
231 171 1
231 173 1
231 184 1
231 185 1
231 186 1
231 195 1
231 196 1
231 206 1
231 209 1
231 227 1
231 242 1
231 245 1
231 249 1
231 250 1
231 269 1
231 275 1
231 278 1
231 282 1
231 290 1
231 297 1
231 300 1
231 301 1
231 309 1
231 310 1
231 312 1
231 313 1
231 321 1
231 330 1
231 338 1
231 354 1
231 363 1
231 366 1
231 377 1
231 378 1
231 381 1
231 382 1
231 383 1
231 393 1
231 399 1
231 407 1
231 408 1
231 415 1
231 416 1
231 419 1
231 421 1
231 442 1
231 444 1
231 446 1
231 450 1
231 453 1
231 454 1
231 458 1
231 461 1
231 464 1
231 466 1
231 473 1
231 479 1
231 480 1
231 482 1
231 484 1
231 489 1
231 501 1
231 513 1
231 517 1
231 523 1
231 528 1
231 537 1
231 544 1
231 546 1
231 548 1
231 553 1
231 555 1
231 557 1
231 560 1
231 572 1
231 574 1
231 575 1
231 581 1
231 582 1
232 1 1
232 5 1
232 7 1
232 8 1
232 13 1
232 17 1
232 22 1
232 27 1
232 29 1
232 30 1
232 32 1
232 34 1
232 43 1
232 51 1
232 55 1
232 57 1
232 67 1
232 72 1
232 73 1
232 75 1
232 78 1
232 86 1
232 91 1
232 95 1
232 99 1
232 105 1
232 117 1
232 120 1
232 137 1
232 138 1
232 147 1
232 151 1
232 155 1
232 156 1
232 169 1
232 172 1
232 173 1
232 177 1
232 179 1
232 182 1
232 184 1
232 188 1
232 189 1
232 191 1
232 193 1
232 202 1
232 213 1
232 216 1
232 227 1
232 233 1
232 234 1
232 254 1
232 255 1
232 256 1
232 262 1
232 263 1
232 274 1
232 278 1
232 279 1
232 280 1
232 291 1
232 299 1
232 304 1
232 320 1
232 321 1
232 322 1
232 324 1
232 337 1
232 339 1
232 342 1
232 347 1
232 350 1
232 352 1
232 357 1
232 358 1
232 367 1
232 376 1
232 379 1
232 381 1
232 392 1
232 394 1
232 395 1
232 400 1
232 404 1
232 407 1
232 408 1
232 428 1
232 430 1
232 433 1
232 435 1
232 438 1
232 439 1
232 441 1
232 443 1
232 447 1
232 450 1
232 452 1
232 460 1
232 461 1
232 465 1
232 470 1
232 471 1
232 474 1
232 475 1
232 478 1
232 483 1
232 485 1
232 487 1
232 490 1
232 498 1
232 505 1
232 510 1
232 522 1
232 526 1
232 535 1
232 539 1
232 540 1
232 545 1
232 559 1
232 562 1
232 582 1
232 592 1
232 593 1
232 600 1
233 3 1
233 4 1
233 8 1
233 20 1
233 22 1
233 25 1
233 28 1
233 36 1
233 37 1
233 39 1
233 54 1
233 62 1
233 63 1
233 68 1
233 75 1
233 81 1
233 82 1
233 84 1
233 95 1
233 99 1
233 103 1
233 112 1
233 119 1
233 123 1
233 124 1
233 134 1
233 136 1
233 142 1
233 143 1
233 145 1
233 146 1
233 147 1
233 162 1
233 163 1
233 165 1
233 169 1
233 172 1
233 175 1
233 179 1
233 187 1
233 188 1
233 193 1
233 201 1
233 224 1
233 232 1
233 241 1
233 244 1
233 245 1
233 254 1
233 257 1
233 270 1
233 271 1
233 279 1
233 280 1
233 291 1
233 292 1
233 294 1
233 297 1
233 304 1
233 311 1
233 312 1
233 355 1
233 358 1
233 360 1
233 363 1
233 377 1
233 379 1
233 382 1
233 386 1
233 390 1
233 403 1
233 405 1
233 406 1
233 409 1
233 411 1
233 421 1
233 425 1
233 428 1
233 434 1
233 456 1
233 457 1
233 461 1
233 465 1
233 467 1
233 470 1
233 471 1
233 477 1
233 478 1
233 480 1
233 485 1
233 489 1
233 491 1
233 492 1
233 506 1
233 515 1
233 519 1
233 533 1
233 537 1
233 544 1
233 555 1
233 566 1
233 570 1
233 576 1
233 577 1
233 578 1
233 579 1
233 585 1
233 588 1
234 1 1
234 7 1
234 15 1
234 18 1
234 20 1
234 26 1
234 33 1
234 35 1
234 38 1
234 42 1
234 49 1
234 50 1
234 51 1
234 52 1
234 53 1
234 57 1
234 61 1
234 65 1
234 77 1
234 79 1
234 82 1
234 85 1
234 86 1
234 91 1
234 93 1
234 94 1
234 102 1
234 103 1
234 104 1
234 105 1
234 112 1
234 122 1
234 128 1
234 130 1
234 142 1
234 147 1
234 151 1
234 154 1
234 165 1
234 171 1
234 175 1
234 188 1
234 189 1
234 201 1
234 224 1
234 225 1
234 232 1
234 249 1
234 261 1
234 270 1
234 276 1
234 288 1
234 301 1
234 305 1
234 306 1
234 311 1
234 317 1
234 327 1
234 332 1
234 334 1
234 341 1
234 352 1
234 376 1
234 380 1
234 381 1
234 400 1
234 401 1
234 413 1
234 416 1
234 417 1
234 422 1
234 425 1
234 426 1
234 432 1
234 439 1
234 440 1
234 449 1
234 455 1
234 458 1
234 466 1
234 469 1
234 487 1
234 490 1
234 494 1
234 495 1
234 499 1
234 501 1
234 503 1
234 514 1
234 519 1
234 525 1
234 529 1
234 532 1
234 542 1
234 544 1
234 545 1
234 562 1
234 576 1
234 578 1
234 581 1
234 596 1
235 1 1
235 4 1
235 10 1
235 15 1
235 17 1
235 20 1
235 23 1
235 33 1
235 36 1
235 40 1
235 44 1
235 48 1
235 49 1
235 51 1
235 54 1
235 61 1
235 63 1
235 65 1
235 67 1
235 74 1
235 76 1
235 85 1
235 88 1
235 91 1
235 97 1
235 98 1
235 110 1
235 112 1
235 114 1
235 119 1
235 120 1
235 127 1
235 142 1
235 145 1
235 149 1
235 160 1
235 164 1
235 165 1
235 168 1
235 172 1
235 173 1
235 176 1
235 177 1
235 184 1
235 187 1
235 190 1
235 200 1
235 202 1
235 207 1
235 213 1
235 215 1
235 223 1
235 227 1
235 229 1
235 237 1
235 238 1
235 239 1
235 247 1
235 254 1
235 257 1
235 261 1
235 263 1
235 265 1
235 269 1
235 272 1
235 277 1
235 279 1
235 287 1
235 291 1
235 305 1
235 311 1
235 312 1
235 319 1
235 334 1
235 335 1
235 341 1
235 342 1
235 343 1
235 345 1
235 357 1
235 358 1
235 365 1
235 372 1
235 377 1
235 389 1
235 395 1
235 397 1
235 402 1
235 410 1
235 411 1
235 413 1
235 414 1
235 415 1
235 421 1
235 425 1
235 431 1
235 438 1
235 444 1
235 458 1
235 459 1
235 467 1
235 471 1
235 475 1
235 477 1
235 480 1
235 498 1
235 504 1
235 506 1
235 508 1
235 509 1
235 522 1
235 523 1
235 524 1
235 530 1
235 549 1
235 575 1
235 577 1
235 583 1
235 589 1
235 597 1
236 9 1
236 18 1
236 21 1
236 26 1
236 28 1
236 29 1
236 31 1
236 35 1
236 45 1
236 47 1
236 51 1
236 63 1
236 72 1
236 73 1
236 78 1
236 79 1
236 84 1
236 88 1
236 102 1
236 108 1
236 112 1
236 114 1
236 134 1
236 135 1
236 148 1
236 152 1
236 164 1
236 165 1
236 169 1
236 170 1
236 173 1
236 174 1
236 175 1
236 184 1
236 186 1
236 201 1
236 210 1
236 216 1
236 222 1
236 229 1
236 240 1
236 254 1
236 255 1
236 260 1
236 267 1
236 268 1
236 269 1
236 270 1
236 271 1
236 277 1
236 281 1
236 285 1
236 290 1
236 292 1
236 295 1
236 296 1
236 297 1
236 311 1
236 312 1
236 313 1
236 315 1
236 324 1
236 326 1
236 330 1
236 336 1
236 338 1
236 339 1
236 352 1
236 353 1
236 355 1
236 371 1
236 372 1
236 379 1
236 382 1
236 394 1
236 396 1
236 406 1
236 410 1
236 420 1
236 440 1
236 447 1
236 450 1
236 462 1
236 467 1
236 468 1
236 480 1
236 492 1
236 493 1
236 496 1
236 497 1
236 498 1
236 504 1
236 506 1
236 507 1
236 508 1
236 510 1
236 512 1
236 518 1
236 521 1
236 529 1
236 535 1
236 544 1
236 550 1
236 552 1
236 557 1
236 565 1
236 568 1
236 572 1
236 573 1
236 574 1
236 590 1
236 600 1
237 9 1
237 13 1
237 26 1
237 27 1
237 36 1
237 38 1
237 39 1
237 44 1
237 45 1
237 58 1
237 64 1
237 76 1
237 84 1
237 87 1
237 88 1
237 94 1
237 117 1
237 119 1
237 127 1
237 149 1
237 159 1
237 164 1
237 171 1
237 180 1
237 183 1
237 186 1
237 189 1
237 191 1
237 194 1
237 203 1
237 213 1
237 214 1
237 219 1
237 225 1
237 229 1
237 235 1
237 239 1
237 241 1
237 246 1
237 253 1
237 265 1
237 271 1
237 272 1
237 274 1
237 275 1
237 281 1
237 289 1
237 290 1
237 291 1
237 296 1
237 311 1
237 315 1
237 329 1
237 336 1
237 345 1
237 352 1
237 357 1
237 367 1
237 369 1
237 375 1
237 377 1
237 384 1
237 385 1
237 392 1
237 393 1
237 397 1
237 405 1
237 406 1
237 407 1
237 420 1
237 425 1
237 428 1
237 429 1
237 431 1
237 434 1
237 435 1
237 438 1
237 441 1
237 445 1
237 451 1
237 452 1
237 456 1
237 469 1
237 474 1
237 478 1
237 483 1
237 488 1
237 503 1
237 507 1
237 508 1
237 523 1
237 527 1
237 528 1
237 529 1
237 530 1
237 537 1
237 549 1
237 554 1
237 557 1
237 559 1
237 561 1
237 562 1
237 568 1
237 575 1
237 582 1
237 583 1
237 592 1
237 598 1
237 600 1
238 7 1
238 8 1
238 13 1
238 14 1
238 21 1
238 22 1
238 25 1
238 26 1
238 40 1
238 43 1
238 46 1
238 59 1
238 60 1
238 65 1
238 76 1
238 78 1
238 80 1
238 82 1
238 84 1
238 85 1
238 91 1
238 97 1
238 101 1
238 102 1
238 106 1
238 119 1
238 126 1
238 127 1
238 128 1
238 137 1
238 141 1
238 142 1
238 143 1
238 145 1
238 148 1
238 161 1
238 171 1
238 177 1
238 190 1
238 202 1
238 205 1
238 222 1
238 226 1
238 235 1
238 253 1
238 257 1
238 258 1
238 262 1
238 289 1
238 298 1
238 299 1
238 301 1
238 307 1
238 313 1
238 314 1
238 316 1
238 324 1
238 330 1
238 332 1
238 345 1
238 346 1
238 347 1
238 348 1
238 351 1
238 353 1
238 363 1
238 390 1
238 395 1
238 396 1
238 401 1
238 402 1
238 426 1
238 436 1
238 441 1
238 453 1
238 457 1
238 462 1
238 464 1
238 467 1
238 468 1
238 471 1
238 472 1
238 473 1
238 480 1
238 495 1
238 498 1
238 499 1
238 502 1
238 506 1
238 518 1
238 529 1
238 540 1
238 543 1
238 549 1
238 551 1
238 553 1
238 554 1
238 559 1
238 560 1
238 562 1
238 580 1
238 584 1
238 585 1
238 586 1
238 590 1
238 595 1
238 600 1
239 6 1
239 8 1
239 23 1
239 29 1
239 31 1
239 45 1
239 54 1
239 55 1
239 56 1
239 58 1
239 64 1
239 66 1
239 67 1
239 69 1
239 75 1
239 83 1
239 85 1
239 96 1
239 97 1
239 99 1
239 102 1
239 106 1
239 113 1
239 114 1
239 127 1
239 131 1
239 136 1
239 139 1
239 144 1
239 145 1
239 160 1
239 162 1
239 175 1
239 176 1
239 178 1
239 182 1
239 185 1
239 196 1
239 198 1
239 200 1
239 205 1
239 208 1
239 214 1
239 220 1
239 230 1
239 235 1
239 237 1
239 242 1
239 247 1
239 251 1
239 261 1
239 270 1
239 274 1
239 277 1
239 278 1
239 280 1
239 291 1
239 295 1
239 298 1
239 299 1
239 302 1
239 306 1
239 309 1
239 323 1
239 335 1
239 348 1
239 351 1
239 354 1
239 356 1
239 361 1
239 366 1
239 367 1
239 370 1
239 371 1
239 379 1
239 383 1
239 384 1
239 388 1
239 393 1
239 397 1
239 400 1
239 409 1
239 412 1
239 413 1
239 427 1
239 430 1
239 435 1
239 440 1
239 442 1
239 453 1
239 457 1
239 467 1
239 472 1
239 478 1
239 487 1
239 495 1
239 505 1
239 506 1
239 517 1
239 521 1
239 522 1
239 523 1
239 527 1
239 533 1
239 541 1
239 544 1
239 545 1
239 546 1
239 547 1
239 558 1
239 559 1
239 560 1
239 562 1
239 564 1
239 565 1
239 570 1
239 576 1
239 591 1
239 593 1
239 598 1
240 2 1
240 7 1
240 9 1
240 11 1
240 14 1
240 17 1
240 20 1
240 27 1
240 45 1
240 46 1
240 50 1
240 51 1
240 54 1
240 67 1
240 74 1
240 75 1
240 81 1
240 84 1
240 87 1
240 89 1
240 92 1
240 103 1
240 111 1
240 112 1
240 118 1
240 120 1
240 121 1
240 123 1
240 126 1
240 127 1
240 128 1
240 134 1
240 136 1
240 138 1
240 141 1
240 142 1
240 144 1
240 145 1
240 154 1
240 165 1
240 166 1
240 175 1
240 179 1
240 186 1
240 187 1
240 197 1
240 201 1
240 203 1
240 215 1
240 221 1
240 222 1
240 224 1
240 226 1
240 227 1
240 230 1
240 236 1
240 244 1
240 257 1
240 260 1
240 265 1
240 267 1
240 275 1
240 276 1
240 288 1
240 294 1
240 296 1
240 298 1
240 299 1
240 306 1
240 307 1
240 311 1
240 324 1
240 329 1
240 330 1
240 341 1
240 343 1
240 344 1
240 346 1
240 354 1
240 358 1
240 365 1
240 373 1
240 385 1
240 387 1
240 388 1
240 392 1
240 403 1
240 404 1
240 408 1
240 416 1
240 423 1
240 432 1
240 434 1
240 436 1
240 445 1
240 449 1
240 452 1
240 457 1
240 461 1
240 474 1
240 482 1
240 484 1
240 488 1
240 491 1
240 493 1
240 497 1
240 499 1
240 503 1
240 507 1
240 511 1
240 512 1
240 513 1
240 518 1
240 522 1
240 523 1
240 526 1
240 529 1
240 548 1
240 553 1
240 558 1
240 565 1
240 571 1
240 578 1
240 583 1
240 584 1
240 587 1
240 588 1
240 592 1
240 594 1
240 595 1
240 596 1
240 600 1
241 1 1
241 2 1
241 15 1
241 20 1
241 24 1
241 25 1
241 30 1
241 34 1
241 41 1
241 43 1
241 45 1
241 54 1
241 60 1
241 63 1
241 65 1
241 66 1
241 67 1
241 68 1
241 72 1
241 81 1
241 88 1
241 89 1
241 92 1
241 97 1
241 101 1
241 110 1
241 114 1
241 115 1
241 118 1
241 121 1
241 127 1
241 131 1
241 138 1
241 140 1
241 148 1
241 153 1
241 154 1
241 159 1
241 160 1
241 172 1
241 174 1
241 177 1
241 189 1
241 207 1
241 213 1
241 233 1
241 237 1
241 251 1
241 254 1
241 271 1
241 275 1
241 277 1
241 279 1
241 284 1
241 286 1
241 296 1
241 306 1
241 307 1
241 310 1
241 315 1
241 326 1
241 327 1
241 331 1
241 336 1
241 337 1
241 338 1
241 339 1
241 342 1
241 349 1
241 350 1
241 353 1
241 354 1
241 356 1
241 358 1
241 360 1
241 364 1
241 366 1
241 368 1
241 372 1
241 376 1
241 384 1
241 385 1
241 390 1
241 391 1
241 396 1
241 402 1
241 404 1
241 408 1
241 409 1
241 412 1
241 415 1
241 420 1
241 423 1
241 425 1
241 429 1
241 430 1
241 440 1
241 443 1
241 445 1
241 446 1
241 456 1
241 462 1
241 468 1
241 473 1
241 475 1
241 480 1
241 481 1
241 494 1
241 495 1
241 496 1
241 500 1
241 513 1
241 522 1
241 524 1
241 526 1
241 532 1
241 535 1
241 545 1
241 550 1
241 564 1
241 566 1
241 577 1
241 581 1
241 584 1
241 585 1
241 587 1
241 589 1
241 596 1
241 600 1
242 4 1
242 12 1
242 15 1
242 23 1
242 24 1
242 25 1
242 27 1
242 28 1
242 31 1
242 36 1
242 48 1
242 50 1
242 52 1
242 53 1
242 64 1
242 86 1
242 89 1
242 90 1
242 94 1
242 100 1
242 102 1
242 103 1
242 106 1
242 117 1
242 118 1
242 121 1
242 132 1
242 133 1
242 144 1
242 145 1
242 147 1
242 150 1
242 153 1
242 155 1
242 159 1
242 162 1
242 172 1
242 177 1
242 180 1
242 181 1
242 187 1
242 190 1
242 193 1
242 195 1
242 203 1
242 207 1
242 211 1
242 220 1
242 225 1
242 229 1
242 231 1
242 239 1
242 248 1
242 250 1
242 257 1
242 259 1
242 265 1
242 268 1
242 269 1
242 271 1
242 280 1
242 283 1
242 290 1
242 297 1
242 300 1
242 315 1
242 318 1
242 321 1
242 323 1
242 328 1
242 329 1
242 336 1
242 339 1
242 342 1
242 346 1
242 348 1
242 350 1
242 353 1
242 354 1
242 358 1
242 362 1
242 367 1
242 371 1
242 373 1
242 375 1
242 377 1
242 379 1
242 387 1
242 389 1
242 390 1
242 391 1
242 404 1
242 423 1
242 436 1
242 447 1
242 448 1
242 449 1
242 464 1
242 465 1
242 469 1
242 470 1
242 471 1
242 473 1
242 476 1
242 479 1
242 485 1
242 487 1
242 498 1
242 500 1
242 510 1
242 511 1
242 516 1
242 517 1
242 520 1
242 521 1
242 526 1
242 532 1
242 537 1
242 546 1
242 553 1
242 554 1
242 557 1
242 561 1
242 564 1
242 576 1
242 585 1
242 586 1
242 589 1
242 590 1
242 595 1
242 599 1
242 600 1
243 6 1
243 17 1
243 18 1
243 27 1
243 31 1
243 37 1
243 40 1
243 47 1
243 49 1
243 52 1
243 54 1
243 55 1
243 71 1
243 78 1
243 80 1
243 81 1
243 84 1
243 92 1
243 93 1
243 99 1
243 102 1
243 103 1
243 104 1
243 109 1
243 113 1
243 119 1
243 122 1
243 123 1
243 126 1
243 127 1
243 132 1
243 134 1
243 136 1
243 157 1
243 159 1
243 160 1
243 172 1
243 176 1
243 184 1
243 187 1
243 190 1
243 203 1
243 204 1
243 207 1
243 211 1
243 213 1
243 216 1
243 219 1
243 221 1
243 244 1
243 245 1
243 255 1
243 258 1
243 259 1
243 262 1
243 264 1
243 276 1
243 279 1
243 282 1
243 284 1
243 291 1
243 292 1
243 306 1
243 307 1
243 309 1
243 310 1
243 314 1
243 317 1
243 328 1
243 329 1
243 337 1
243 340 1
243 344 1
243 356 1
243 370 1
243 378 1
243 381 1
243 386 1
243 387 1
243 388 1
243 389 1
243 391 1
243 392 1
243 394 1
243 400 1
243 401 1
243 404 1
243 408 1
243 409 1
243 415 1
243 417 1
243 422 1
243 425 1
243 428 1
243 439 1
243 445 1
243 446 1
243 452 1
243 456 1
243 470 1
243 471 1
243 472 1
243 473 1
243 474 1
243 485 1
243 489 1
243 505 1
243 515 1
243 517 1
243 522 1
243 524 1
243 532 1
243 534 1
243 535 1
243 543 1
243 548 1
243 549 1
243 553 1
243 555 1
243 557 1
243 558 1
243 561 1
243 563 1
243 566 1
243 568 1
243 572 1
243 575 1
243 578 1
243 579 1
243 590 1
243 598 1
244 2 1
244 3 1
244 8 1
244 9 1
244 14 1
244 15 1
244 21 1
244 22 1
244 27 1
244 41 1
244 43 1
244 46 1
244 48 1
244 50 1
244 55 1
244 61 1
244 68 1
244 71 1
244 73 1
244 79 1
244 80 1
244 82 1
244 85 1
244 101 1
244 103 1
244 106 1
244 108 1
244 112 1
244 135 1
244 146 1
244 149 1
244 152 1
244 153 1
244 155 1
244 158 1
244 160 1
244 169 1
244 170 1
244 181 1
244 190 1
244 193 1
244 196 1
244 202 1
244 205 1
244 207 1
244 212 1
244 213 1
244 215 1
244 221 1
244 224 1
244 230 1
244 233 1
244 240 1
244 243 1
244 245 1
244 247 1
244 248 1
244 249 1
244 254 1
244 258 1
244 264 1
244 267 1
244 275 1
244 282 1
244 285 1
244 286 1
244 292 1
244 293 1
244 298 1
244 301 1
244 306 1
244 307 1
244 313 1
244 317 1
244 322 1
244 327 1
244 339 1
244 347 1
244 348 1
244 349 1
244 350 1
244 351 1
244 354 1
244 357 1
244 369 1
244 379 1
244 382 1
244 407 1
244 408 1
244 411 1
244 414 1
244 416 1
244 428 1
244 438 1
244 457 1
244 466 1
244 469 1
244 471 1
244 474 1
244 478 1
244 479 1
244 480 1
244 488 1
244 513 1
244 520 1
244 525 1
244 532 1
244 537 1
244 553 1
244 554 1
244 556 1
244 557 1
244 563 1
244 568 1
244 576 1
244 577 1
244 581 1
244 582 1
244 583 1
244 584 1
244 589 1
244 590 1
244 591 1
244 597 1
245 2 1
245 3 1
245 4 1
245 13 1
245 19 1
245 23 1
245 24 1
245 26 1
245 28 1
245 30 1
245 36 1
245 42 1
245 49 1
245 54 1
245 57 1
245 61 1
245 66 1
245 68 1
245 71 1
245 74 1
245 82 1
245 83 1
245 89 1
245 91 1
245 92 1
245 93 1
245 98 1
245 100 1
245 105 1
245 110 1
245 113 1
245 120 1
245 121 1
245 124 1
245 139 1
245 140 1
245 144 1
245 148 1
245 151 1
245 156 1
245 157 1
245 159 1
245 162 1
245 167 1
245 177 1
245 183 1
245 186 1
245 207 1
245 212 1
245 218 1
245 222 1
245 223 1
245 229 1
245 231 1
245 233 1
245 243 1
245 244 1
245 251 1
245 267 1
245 271 1
245 272 1
245 282 1
245 284 1
245 287 1
245 290 1
245 292 1
245 294 1
245 295 1
245 302 1
245 307 1
245 314 1
245 319 1
245 321 1
245 333 1
245 342 1
245 343 1
245 345 1
245 348 1
245 349 1
245 352 1
245 358 1
245 368 1
245 369 1
245 371 1
245 376 1
245 384 1
245 385 1
245 391 1
245 392 1
245 394 1
245 395 1
245 398 1
245 404 1
245 413 1
245 416 1
245 417 1
245 421 1
245 426 1
245 432 1
245 436 1
245 439 1
245 451 1
245 453 1
245 458 1
245 459 1
245 466 1
245 474 1
245 478 1
245 482 1
245 483 1
245 484 1
245 485 1
245 487 1
245 499 1
245 504 1
245 511 1
245 516 1
245 529 1
245 536 1
245 538 1
245 548 1
245 556 1
245 558 1
245 568 1
245 571 1
245 572 1
245 573 1
245 576 1
245 578 1
245 595 1
246 2 1
246 3 1
246 14 1
246 15 1
246 19 1
246 22 1
246 24 1
246 28 1
246 30 1
246 36 1
246 50 1
246 63 1
246 65 1
246 68 1
246 80 1
246 82 1
246 83 1
246 89 1
246 91 1
246 95 1
246 108 1
246 109 1
246 117 1
246 121 1
246 134 1
246 135 1
246 137 1
246 140 1
246 143 1
246 144 1
246 155 1
246 163 1
246 176 1
246 180 1
246 185 1
246 187 1
246 191 1
246 192 1
246 195 1
246 198 1
246 200 1
246 201 1
246 202 1
246 203 1
246 210 1
246 213 1
246 224 1
246 228 1
246 237 1
246 248 1
246 251 1
246 256 1
246 261 1
246 264 1
246 265 1
246 266 1
246 285 1
246 289 1
246 291 1
246 300 1
246 319 1
246 325 1
246 336 1
246 345 1
246 350 1
246 352 1
246 372 1
246 378 1
246 379 1
246 380 1
246 385 1
246 393 1
246 402 1
246 406 1
246 408 1
246 409 1
246 410 1
246 413 1
246 414 1
246 415 1
246 417 1
246 422 1
246 425 1
246 429 1
246 434 1
246 439 1
246 445 1
246 450 1
246 453 1
246 457 1
246 468 1
246 470 1
246 471 1
246 483 1
246 489 1
246 498 1
246 500 1
246 501 1
246 505 1
246 508 1
246 512 1
246 517 1
246 520 1
246 524 1
246 525 1
246 529 1
246 537 1
246 543 1
246 546 1
246 550 1
246 557 1
246 581 1
246 582 1
246 594 1
247 11 1
247 16 1
247 18 1
247 28 1
247 43 1
247 50 1
247 66 1
247 84 1
247 89 1
247 96 1
247 105 1
247 106 1
247 120 1
247 124 1
247 133 1
247 137 1
247 140 1
247 148 1
247 152 1
247 157 1
247 163 1
247 170 1
247 175 1
247 183 1
247 188 1
247 190 1
247 194 1
247 197 1
247 202 1
247 205 1
247 211 1
247 219 1
247 230 1
247 235 1
247 239 1
247 244 1
247 254 1
247 258 1
247 261 1
247 269 1
247 271 1
247 280 1
247 282 1
247 283 1
247 285 1
247 289 1
247 293 1
247 303 1
247 305 1
247 306 1
247 307 1
247 309 1
247 311 1
247 312 1
247 313 1
247 314 1
247 323 1
247 329 1
247 333 1
247 335 1
247 336 1
247 339 1
247 361 1
247 362 1
247 363 1
247 367 1
247 370 1
247 371 1
247 372 1
247 374 1
247 380 1
247 381 1
247 385 1
247 386 1
247 393 1
247 396 1
247 400 1
247 414 1
247 415 1
247 419 1
247 424 1
247 427 1
247 429 1
247 431 1
247 436 1
247 437 1
247 454 1
247 458 1
247 461 1
247 470 1
247 471 1
247 473 1
247 476 1
247 482 1
247 485 1
247 489 1
247 490 1
247 492 1
247 508 1
247 514 1
247 523 1
247 524 1
247 526 1
247 531 1
247 532 1
247 533 1
247 537 1
247 542 1
247 543 1
247 548 1
247 561 1
247 570 1
247 571 1
247 579 1
247 588 1
247 592 1
247 598 1
248 13 1
248 20 1
248 22 1
248 28 1
248 38 1
248 39 1
248 47 1
248 48 1
248 49 1
248 51 1
248 55 1
248 66 1
248 75 1
248 78 1
248 83 1
248 88 1
248 89 1
248 94 1
248 100 1
248 102 1
248 103 1
248 104 1
248 107 1
248 115 1
248 121 1
248 124 1
248 137 1
248 144 1
248 149 1
248 150 1
248 157 1
248 159 1
248 165 1
248 171 1
248 185 1
248 189 1
248 193 1
248 194 1
248 207 1
248 213 1
248 216 1
248 217 1
248 218 1
248 220 1
248 242 1
248 244 1
248 246 1
248 256 1
248 259 1
248 273 1
248 280 1
248 281 1
248 290 1
248 305 1
248 308 1
248 309 1
248 311 1
248 314 1
248 324 1
248 326 1
248 327 1
248 333 1
248 336 1
248 340 1
248 343 1
248 345 1
248 354 1
248 355 1
248 366 1
248 383 1
248 403 1
248 413 1
248 423 1
248 432 1
248 434 1
248 435 1
248 438 1
248 441 1
248 442 1
248 443 1
248 449 1
248 453 1
248 461 1
248 463 1
248 465 1
248 467 1
248 469 1
248 473 1
248 486 1
248 492 1
248 503 1
248 504 1
248 505 1
248 508 1
248 511 1
248 513 1
248 520 1
248 525 1
248 531 1
248 540 1
248 546 1
248 550 1
248 551 1
248 556 1
248 578 1
248 581 1
248 583 1
248 588 1
248 589 1
248 595 1
248 599 1
249 1 1
249 4 1
249 5 1
249 14 1
249 18 1
249 22 1
249 24 1
249 28 1
249 35 1
249 46 1
249 47 1
249 68 1
249 71 1
249 82 1
249 86 1
249 89 1
249 92 1
249 95 1
249 96 1
249 98 1
249 104 1
249 115 1
249 116 1
249 126 1
249 129 1
249 130 1
249 138 1
249 141 1
249 144 1
249 146 1
249 149 1
249 152 1
249 155 1
249 159 1
249 161 1
249 176 1
249 183 1
249 185 1
249 188 1
249 189 1
249 191 1
249 193 1
249 203 1
249 207 1
249 213 1
249 214 1
249 217 1
249 221 1
249 224 1
249 226 1
249 231 1
249 234 1
249 244 1
249 250 1
249 251 1
249 252 1
249 256 1
249 261 1
249 269 1
249 273 1
249 278 1
249 288 1
249 293 1
249 294 1
249 296 1
249 298 1
249 306 1
249 321 1
249 322 1
249 334 1
249 337 1
249 348 1
249 354 1
249 357 1
249 359 1
249 369 1
249 371 1
249 384 1
249 392 1
249 398 1
249 400 1
249 401 1
249 402 1
249 417 1
249 421 1
249 423 1
249 425 1
249 429 1
249 430 1
249 431 1
249 434 1
249 435 1
249 437 1
249 443 1
249 445 1
249 461 1
249 467 1
249 468 1
249 469 1
249 478 1
249 480 1
249 481 1
249 489 1
249 492 1
249 493 1
249 495 1
249 496 1
249 497 1
249 500 1
249 505 1
249 519 1
249 520 1
249 526 1
249 537 1
249 555 1
249 561 1
249 562 1
249 581 1
249 586 1
249 587 1
249 589 1
249 592 1
249 593 1
249 594 1
249 595 1
249 599 1
250 3 1
250 6 1
250 14 1
250 15 1
250 19 1
250 36 1
250 37 1
250 39 1
250 40 1
250 43 1
250 46 1
250 53 1
250 55 1
250 56 1
250 62 1
250 71 1
250 73 1
250 75 1
250 86 1
250 93 1
250 98 1
250 100 1
250 102 1
250 111 1
250 112 1
250 117 1
250 121 1
250 130 1
250 132 1
250 140 1
250 144 1
250 157 1
250 165 1
250 180 1
250 181 1
250 183 1
250 185 1
250 186 1
250 187 1
250 188 1
250 208 1
250 215 1
250 216 1
250 220 1
250 227 1
250 228 1
250 229 1
250 231 1
250 242 1
250 249 1
250 251 1
250 264 1
250 276 1
250 283 1
250 284 1
250 295 1
250 298 1
250 302 1
250 310 1
250 312 1
250 315 1
250 320 1
250 322 1
250 328 1
250 329 1
250 336 1
250 338 1
250 354 1
250 375 1
250 387 1
250 390 1
250 397 1
250 407 1
250 410 1
250 437 1
250 438 1
250 440 1
250 449 1
250 458 1
250 466 1
250 475 1
250 483 1
250 488 1
250 495 1
250 496 1
250 499 1
250 516 1
250 519 1
250 522 1
250 527 1
250 533 1
250 534 1
250 537 1
250 541 1
250 542 1
250 543 1
250 550 1
250 553 1
250 556 1
250 561 1
250 563 1
250 564 1
250 579 1
250 586 1
250 587 1
251 3 1
251 5 1
251 15 1
251 16 1
251 18 1
251 21 1
251 29 1
251 41 1
251 49 1
251 51 1
251 63 1
251 73 1
251 82 1
251 95 1
251 101 1
251 118 1
251 120 1
251 135 1
251 140 1
251 141 1
251 147 1
251 148 1
251 152 1
251 157 1
251 161 1
251 162 1
251 166 1
251 169 1
251 177 1
251 181 1
251 184 1
251 185 1
251 187 1
251 188 1
251 192 1
251 193 1
251 198 1
251 201 1
251 202 1
251 203 1
251 212 1
251 215 1
251 217 1
251 221 1
251 226 1
251 239 1
251 241 1
251 245 1
251 246 1
251 249 1
251 250 1
251 252 1
251 253 1
251 254 1
251 261 1
251 275 1
251 279 1
251 281 1
251 282 1
251 296 1
251 298 1
251 300 1
251 304 1
251 307 1
251 312 1
251 318 1
251 321 1
251 322 1
251 325 1
251 333 1
251 334 1
251 336 1
251 338 1
251 344 1
251 347 1
251 373 1
251 378 1
251 386 1
251 390 1
251 393 1
251 398 1
251 402 1
251 404 1
251 409 1
251 412 1
251 413 1
251 427 1
251 428 1
251 435 1
251 436 1
251 442 1
251 447 1
251 456 1
251 464 1
251 469 1
251 478 1
251 482 1
251 486 1
251 494 1
251 506 1
251 513 1
251 515 1
251 516 1
251 517 1
251 520 1
251 527 1
251 534 1
251 540 1
251 543 1
251 545 1
251 548 1
251 552 1
251 553 1
251 555 1
251 557 1
251 560 1
251 561 1
251 563 1
251 565 1
251 572 1
251 575 1
251 576 1
251 578 1
251 579 1
251 588 1
251 595 1
252 7 1
252 13 1
252 18 1
252 26 1
252 29 1
252 31 1
252 41 1
252 43 1
252 49 1
252 58 1
252 59 1
252 63 1
252 65 1
252 67 1
252 89 1
252 90 1
252 91 1
252 94 1
252 97 1
252 117 1
252 119 1
252 123 1
252 129 1
252 136 1
252 143 1
252 148 1
252 154 1
252 158 1
252 163 1
252 179 1
252 182 1
252 187 1
252 222 1
252 223 1
252 249 1
252 251 1
252 254 1
252 259 1
252 276 1
252 277 1
252 280 1
252 295 1
252 312 1
252 313 1
252 325 1
252 340 1
252 360 1
252 367 1
252 371 1
252 372 1
252 373 1
252 381 1
252 384 1
252 388 1
252 393 1
252 395 1
252 400 1
252 404 1
252 405 1
252 410 1
252 415 1
252 419 1
252 426 1
252 439 1
252 440 1
252 447 1
252 454 1
252 457 1
252 463 1
252 471 1
252 477 1
252 482 1
252 483 1
252 484 1
252 493 1
252 502 1
252 503 1
252 505 1
252 509 1
252 510 1
252 511 1
252 514 1
252 524 1
252 527 1
252 530 1
252 536 1
252 537 1
252 539 1
252 540 1
252 541 1
252 542 1
252 544 1
252 545 1
252 546 1
252 550 1
252 552 1
252 553 1
252 557 1
252 563 1
252 566 1
252 568 1
252 570 1
252 572 1
252 573 1
252 576 1
252 578 1
252 584 1
252 595 1
253 4 1
253 5 1
253 10 1
253 17 1
253 18 1
253 21 1
253 22 1
253 36 1
253 38 1
253 39 1
253 41 1
253 43 1
253 56 1
253 58 1
253 59 1
253 83 1
253 86 1
253 87 1
253 89 1
253 90 1
253 109 1
253 127 1
253 131 1
253 132 1
253 133 1
253 138 1
253 145 1
253 146 1
253 148 1
253 165 1
253 168 1
253 176 1
253 186 1
253 190 1
253 191 1
253 199 1
253 203 1
253 205 1
253 214 1
253 217 1
253 226 1
253 237 1
253 238 1
253 251 1
253 257 1
253 269 1
253 271 1
253 287 1
253 309 1
253 311 1
253 315 1
253 317 1
253 318 1
253 321 1
253 324 1
253 326 1
253 328 1
253 333 1
253 336 1
253 356 1
253 357 1
253 364 1
253 366 1
253 369 1
253 376 1
253 379 1
253 385 1
253 386 1
253 396 1
253 401 1
253 405 1
253 410 1
253 417 1
253 419 1
253 421 1
253 428 1
253 445 1
253 454 1
253 460 1
253 461 1
253 463 1
253 464 1
253 465 1
253 469 1
253 477 1
253 479 1
253 482 1
253 484 1
253 487 1
253 490 1
253 495 1
253 499 1
253 502 1
253 507 1
253 521 1
253 523 1
253 530 1
253 533 1
253 538 1
253 541 1
253 542 1
253 545 1
253 546 1
253 549 1
253 559 1
253 561 1
253 570 1
253 571 1
253 576 1
253 582 1
253 599 1
254 2 1
254 8 1
254 27 1
254 32 1
254 37 1
254 42 1
254 53 1
254 61 1
254 64 1
254 66 1
254 73 1
254 75 1
254 91 1
254 92 1
254 95 1
254 98 1
254 99 1
254 101 1
254 102 1
254 109 1
254 113 1
254 118 1
254 122 1
254 123 1
254 124 1
254 126 1
254 134 1
254 136 1
254 140 1
254 145 1
254 149 1
254 153 1
254 166 1
254 176 1
254 177 1
254 182 1
254 183 1
254 186 1
254 189 1
254 202 1
254 203 1
254 208 1
254 216 1
254 232 1
254 233 1
254 235 1
254 236 1
254 241 1
254 244 1
254 247 1
254 251 1
254 252 1
254 262 1
254 264 1
254 269 1
254 278 1
254 283 1
254 287 1
254 296 1
254 297 1
254 303 1
254 314 1
254 319 1
254 320 1
254 321 1
254 332 1
254 337 1
254 344 1
254 345 1
254 349 1
254 356 1
254 368 1
254 372 1
254 376 1
254 378 1
254 380 1
254 382 1
254 395 1
254 408 1
254 412 1
254 427 1
254 432 1
254 437 1
254 439 1
254 465 1
254 468 1
254 472 1
254 475 1
254 477 1
254 485 1
254 488 1
254 492 1
254 493 1
254 504 1
254 511 1
254 513 1
254 524 1
254 525 1
254 529 1
254 543 1
254 546 1
254 548 1
254 549 1
254 560 1
254 561 1
254 583 1
254 591 1
254 597 1
254 598 1
254 599 1
255 2 1
255 10 1
255 18 1
255 19 1
255 21 1
255 52 1
255 53 1
255 61 1
255 68 1
255 70 1
255 72 1
255 76 1
255 77 1
255 78 1
255 89 1
255 90 1
255 95 1
255 96 1
255 101 1
255 107 1
255 116 1
255 117 1
255 119 1
255 120 1
255 121 1
255 126 1
255 128 1
255 141 1
255 144 1
255 152 1
255 154 1
255 177 1
255 183 1
255 187 1
255 189 1
255 192 1
255 204 1
255 209 1
255 221 1
255 227 1
255 228 1
255 229 1
255 232 1
255 236 1
255 243 1
255 263 1
255 264 1
255 265 1
255 267 1
255 275 1
255 287 1
255 288 1
255 292 1
255 293 1
255 294 1
255 296 1
255 297 1
255 300 1
255 301 1
255 303 1
255 306 1
255 319 1
255 321 1
255 324 1
255 326 1
255 331 1
255 335 1
255 339 1
255 342 1
255 343 1
255 349 1
255 359 1
255 368 1
255 370 1
255 380 1
255 384 1
255 385 1
255 390 1
255 395 1
255 396 1
255 398 1
255 401 1
255 409 1
255 411 1
255 424 1
255 428 1
255 440 1
255 445 1
255 465 1
255 467 1
255 470 1
255 476 1
255 479 1
255 480 1
255 482 1
255 486 1
255 490 1
255 502 1
255 511 1
255 512 1
255 518 1
255 525 1
255 531 1
255 533 1
255 534 1
255 535 1
255 537 1
255 556 1
255 561 1
255 570 1
255 572 1
255 573 1
255 578 1
255 580 1
255 582 1
255 585 1
255 587 1
255 589 1
255 598 1
256 8 1
256 14 1
256 18 1
256 23 1
256 31 1
256 35 1
256 39 1
256 57 1
256 68 1
256 70 1
256 72 1
256 73 1
256 79 1
256 83 1
256 100 1
256 101 1
256 102 1
256 103 1
256 105 1
256 113 1
256 115 1
256 117 1
256 130 1
256 134 1
256 139 1
256 150 1
256 152 1
256 155 1
256 165 1
256 171 1
256 176 1
256 182 1
256 184 1
256 185 1
256 186 1
256 187 1
256 193 1
256 194 1
256 196 1
256 200 1
256 201 1
256 214 1
256 219 1
256 221 1
256 226 1
256 228 1
256 230 1
256 232 1
256 246 1
256 248 1
256 249 1
256 263 1
256 272 1
256 276 1
256 281 1
256 285 1
256 292 1
256 293 1
256 294 1
256 295 1
256 305 1
256 318 1
256 322 1
256 326 1
256 329 1
256 332 1
256 343 1
256 344 1
256 345 1
256 348 1
256 350 1
256 354 1
256 357 1
256 358 1
256 363 1
256 365 1
256 380 1
256 387 1
256 388 1
256 390 1
256 393 1
256 399 1
256 401 1
256 406 1
256 415 1
256 420 1
256 423 1
256 424 1
256 425 1
256 436 1
256 438 1
256 449 1
256 451 1
256 455 1
256 461 1
256 463 1
256 466 1
256 469 1
256 470 1
256 478 1
256 481 1
256 483 1
256 488 1
256 524 1
256 543 1
256 545 1
256 553 1
256 555 1
256 559 1
256 561 1
256 570 1
256 571 1
256 572 1
256 573 1
256 574 1
256 577 1
256 581 1
256 588 1
256 589 1
257 2 1
257 4 1
257 16 1
257 18 1
257 26 1
257 34 1
257 36 1
257 37 1
257 44 1
257 46 1
257 48 1
257 57 1
257 63 1
257 73 1
257 78 1
257 79 1
257 93 1
257 94 1
257 96 1
257 97 1
257 98 1
257 107 1
257 108 1
257 110 1
257 111 1
257 120 1
257 123 1
257 130 1
257 137 1
257 140 1
257 142 1
257 147 1
257 155 1
257 160 1
257 161 1
257 162 1
257 163 1
257 165 1
257 180 1
257 182 1
257 187 1
257 194 1
257 202 1
257 209 1
257 216 1
257 224 1
257 233 1
257 235 1
257 238 1
257 240 1
257 242 1
257 253 1
257 259 1
257 262 1
257 271 1
257 273 1
257 275 1
257 279 1
257 281 1
257 294 1
257 295 1
257 297 1
257 298 1
257 299 1
257 300 1
257 301 1
257 310 1
257 311 1
257 321 1
257 324 1
257 329 1
257 335 1
257 336 1
257 338 1
257 341 1
257 347 1
257 352 1
257 370 1
257 372 1
257 383 1
257 391 1
257 395 1
257 398 1
257 407 1
257 411 1
257 417 1
257 423 1
257 425 1
257 439 1
257 449 1
257 455 1
257 466 1
257 467 1
257 472 1
257 476 1
257 477 1
257 483 1
257 487 1
257 492 1
257 497 1
257 502 1
257 508 1
257 516 1
257 523 1
257 529 1
257 540 1
257 548 1
257 551 1
257 553 1
257 559 1
257 566 1
257 573 1
257 581 1
257 582 1
257 598 1
258 2 1
258 6 1
258 8 1
258 22 1
258 33 1
258 34 1
258 37 1
258 41 1
258 43 1
258 44 1
258 51 1
258 58 1
258 61 1
258 67 1
258 69 1
258 86 1
258 87 1
258 94 1
258 97 1
258 100 1
258 103 1
258 117 1
258 120 1
258 121 1
258 129 1
258 131 1
258 136 1
258 142 1
258 145 1
258 149 1
258 151 1
258 152 1
258 157 1
258 163 1
258 167 1
258 173 1
258 182 1
258 189 1
258 193 1
258 194 1
258 197 1
258 201 1
258 215 1
258 220 1
258 222 1
258 224 1
258 225 1
258 228 1
258 238 1
258 243 1
258 244 1
258 247 1
258 261 1
258 262 1
258 269 1
258 270 1
258 277 1
258 278 1
258 282 1
258 287 1
258 290 1
258 294 1
258 296 1
258 310 1
258 318 1
258 321 1
258 341 1
258 347 1
258 349 1
258 364 1
258 368 1
258 369 1
258 374 1
258 375 1
258 376 1
258 377 1
258 381 1
258 383 1
258 384 1
258 387 1
258 392 1
258 397 1
258 399 1
258 401 1
258 402 1
258 417 1
258 422 1
258 423 1
258 430 1
258 431 1
258 432 1
258 436 1
258 443 1
258 445 1
258 446 1
258 458 1
258 460 1
258 463 1
258 466 1
258 470 1
258 471 1
258 478 1
258 482 1
258 486 1
258 487 1
258 491 1
258 494 1
258 497 1
258 504 1
258 506 1
258 507 1
258 510 1
258 511 1
258 513 1
258 514 1
258 517 1
258 520 1
258 521 1
258 522 1
258 531 1
258 533 1
258 536 1
258 538 1
258 544 1
258 549 1
258 555 1
258 569 1
258 570 1
258 578 1
258 581 1
258 586 1
258 589 1
259 5 1
259 15 1
259 24 1
259 26 1
259 28 1
259 52 1
259 61 1
259 67 1
259 72 1
259 73 1
259 78 1
259 89 1
259 100 1
259 102 1
259 103 1
259 105 1
259 106 1
259 110 1
259 115 1
259 119 1
259 121 1
259 122 1
259 128 1
259 131 1
259 132 1
259 135 1
259 142 1
259 145 1
259 146 1
259 148 1
259 150 1
259 151 1
259 158 1
259 164 1
259 175 1
259 177 1
259 194 1
259 196 1
259 198 1
259 206 1
259 207 1
259 220 1
259 225 1
259 242 1
259 243 1
259 248 1
259 252 1
259 257 1
259 261 1
259 265 1
259 274 1
259 275 1
259 284 1
259 288 1
259 293 1
259 302 1
259 305 1
259 311 1
259 317 1
259 321 1
259 335 1
259 337 1
259 339 1
259 340 1
259 350 1
259 351 1
259 355 1
259 357 1
259 364 1
259 368 1
259 369 1
259 371 1
259 375 1
259 380 1
259 381 1
259 384 1
259 392 1
259 396 1
259 407 1
259 413 1
259 415 1
259 420 1
259 441 1
259 446 1
259 449 1
259 452 1
259 454 1
259 463 1
259 465 1
259 466 1
259 482 1
259 486 1
259 490 1
259 497 1
259 502 1
259 504 1
259 507 1
259 525 1
259 526 1
259 527 1
259 532 1
259 539 1
259 545 1
259 551 1
259 559 1
259 569 1
259 591 1
259 593 1
259 597 1
260 1 1
260 2 1
260 15 1
260 19 1
260 27 1
260 28 1
260 33 1
260 36 1
260 37 1
260 41 1
260 44 1
260 47 1
260 50 1
260 56 1
260 69 1
260 82 1
260 83 1
260 84 1
260 91 1
260 107 1
260 115 1
260 116 1
260 118 1
260 121 1
260 128 1
260 134 1
260 136 1
260 137 1
260 145 1
260 147 1
260 148 1
260 149 1
260 150 1
260 153 1
260 156 1
260 157 1
260 158 1
260 159 1
260 162 1
260 163 1
260 171 1
260 172 1
260 173 1
260 178 1
260 182 1
260 189 1
260 193 1
260 200 1
260 202 1
260 214 1
260 220 1
260 227 1
260 236 1
260 240 1
260 261 1
260 264 1
260 268 1
260 269 1
260 274 1
260 279 1
260 281 1
260 286 1
260 288 1
260 295 1
260 296 1
260 302 1
260 310 1
260 322 1
260 324 1
260 326 1
260 330 1
260 332 1
260 335 1
260 342 1
260 343 1
260 348 1
260 350 1
260 352 1
260 356 1
260 357 1
260 359 1
260 370 1
260 374 1
260 381 1
260 386 1
260 389 1
260 391 1
260 394 1
260 396 1
260 399 1
260 403 1
260 405 1
260 411 1
260 415 1
260 424 1
260 432 1
260 441 1
260 442 1
260 454 1
260 457 1
260 464 1
260 465 1
260 466 1
260 474 1
260 480 1
260 481 1
260 484 1
260 493 1
260 503 1
260 505 1
260 522 1
260 533 1
260 537 1
260 539 1
260 542 1
260 544 1
260 547 1
260 552 1
260 554 1
260 556 1
260 558 1
260 563 1
260 565 1
260 568 1
260 572 1
260 578 1
260 582 1
260 583 1
260 585 1
260 592 1
260 596 1
260 599 1
261 1 1
261 10 1
261 13 1
261 14 1
261 15 1
261 17 1
261 18 1
261 27 1
261 43 1
261 47 1
261 51 1
261 52 1
261 73 1
261 77 1
261 82 1
261 89 1
261 97 1
261 101 1
261 112 1
261 114 1
261 115 1
261 116 1
261 126 1
261 127 1
261 129 1
261 132 1
261 144 1
261 145 1
261 157 1
261 158 1
261 160 1
261 162 1
261 165 1
261 173 1
261 174 1
261 177 1
261 183 1
261 186 1
261 190 1
261 191 1
261 195 1
261 201 1
261 211 1
261 217 1
261 219 1
261 221 1
261 228 1
261 234 1
261 235 1
261 239 1
261 246 1
261 247 1
261 249 1
261 251 1
261 258 1
261 259 1
261 260 1
261 263 1
261 266 1
261 277 1
261 280 1
261 283 1
261 289 1
261 296 1
261 302 1
261 306 1
261 308 1
261 310 1
261 312 1
261 313 1
261 316 1
261 321 1
261 325 1
261 327 1
261 328 1
261 335 1
261 346 1
261 355 1
261 357 1
261 369 1
261 370 1
261 372 1
261 373 1
261 377 1
261 384 1
261 387 1
261 388 1
261 389 1
261 393 1
261 395 1
261 397 1
261 400 1
261 404 1
261 417 1
261 423 1
261 429 1
261 433 1
261 436 1
261 452 1
261 463 1
261 471 1
261 494 1
261 497 1
261 501 1
261 503 1
261 504 1
261 507 1
261 510 1
261 519 1
261 524 1
261 531 1
261 533 1
261 537 1
261 539 1
261 551 1
261 556 1
261 557 1
261 562 1
261 563 1
261 565 1
261 569 1
261 578 1
261 582 1
261 585 1
261 587 1
261 588 1
261 593 1
261 594 1
261 595 1
262 15 1
262 23 1
262 33 1
262 37 1
262 39 1
262 45 1
262 47 1
262 53 1
262 58 1
262 60 1
262 61 1
262 64 1
262 66 1
262 69 1
262 70 1
262 74 1
262 75 1
262 78 1
262 80 1
262 82 1
262 97 1
262 106 1
262 119 1
262 123 1
262 127 1
262 128 1
262 133 1
262 141 1
262 142 1
262 144 1
262 145 1
262 154 1
262 160 1
262 161 1
262 162 1
262 163 1
262 166 1
262 167 1
262 168 1
262 174 1
262 176 1
262 183 1
262 190 1
262 192 1
262 193 1
262 194 1
262 196 1
262 223 1
262 225 1
262 232 1
262 238 1
262 243 1
262 254 1
262 257 1
262 258 1
262 263 1
262 266 1
262 267 1
262 268 1
262 269 1
262 281 1
262 284 1
262 286 1
262 294 1
262 295 1
262 303 1
262 304 1
262 316 1
262 326 1
262 332 1
262 334 1
262 340 1
262 341 1
262 346 1
262 353 1
262 354 1
262 356 1
262 362 1
262 364 1
262 372 1
262 382 1
262 385 1
262 390 1
262 393 1
262 395 1
262 400 1
262 409 1
262 411 1
262 412 1
262 423 1
262 428 1
262 429 1
262 437 1
262 448 1
262 451 1
262 454 1
262 456 1
262 457 1
262 460 1
262 465 1
262 469 1
262 471 1
262 473 1
262 476 1
262 481 1
262 494 1
262 496 1
262 498 1
262 503 1
262 506 1
262 507 1
262 511 1
262 518 1
262 523 1
262 526 1
262 527 1
262 533 1
262 538 1
262 540 1
262 565 1
262 573 1
262 581 1
262 584 1
262 589 1
262 596 1
262 598 1
263 4 1
263 11 1
263 12 1
263 14 1
263 18 1
263 19 1
263 27 1
263 33 1
263 34 1
263 50 1
263 51 1
263 57 1
263 63 1
263 71 1
263 75 1
263 86 1
263 87 1
263 97 1
263 100 1
263 110 1
263 113 1
263 114 1
263 116 1
263 128 1
263 139 1
263 140 1
263 147 1
263 150 1
263 151 1
263 166 1
263 167 1
263 173 1
263 178 1
263 194 1
263 196 1
263 197 1
263 201 1
263 202 1
263 203 1
263 208 1
263 219 1
263 229 1
263 232 1
263 235 1
263 255 1
263 256 1
263 261 1
263 262 1
263 266 1
263 267 1
263 274 1
263 282 1
263 293 1
263 294 1
263 306 1
263 307 1
263 314 1
263 319 1
263 320 1
263 326 1
263 329 1
263 332 1
263 333 1
263 335 1
263 341 1
263 343 1
263 344 1
263 345 1
263 349 1
263 368 1
263 371 1
263 383 1
263 390 1
263 392 1
263 393 1
263 397 1
263 398 1
263 399 1
263 402 1
263 406 1
263 418 1
263 429 1
263 430 1
263 431 1
263 436 1
263 440 1
263 449 1
263 450 1
263 460 1
263 464 1
263 467 1
263 472 1
263 473 1
263 475 1
263 477 1
263 478 1
263 479 1
263 487 1
263 491 1
263 495 1
263 513 1
263 516 1
263 531 1
263 553 1
263 559 1
263 564 1
263 574 1
263 576 1
263 577 1
263 579 1
263 580 1
263 583 1
263 587 1
263 592 1
263 594 1
263 597 1
263 599 1
264 2 1
264 5 1
264 6 1
264 8 1
264 11 1
264 12 1
264 19 1
264 22 1
264 29 1
264 30 1
264 32 1
264 39 1
264 55 1
264 56 1
264 58 1
264 61 1
264 62 1
264 64 1
264 68 1
264 75 1
264 84 1
264 86 1
264 93 1
264 103 1
264 110 1
264 113 1
264 114 1
264 115 1
264 120 1
264 122 1
264 134 1
264 136 1
264 138 1
264 143 1
264 156 1
264 160 1
264 162 1
264 163 1
264 166 1
264 167 1
264 178 1
264 189 1
264 191 1
264 194 1
264 195 1
264 202 1
264 207 1
264 211 1
264 217 1
264 222 1
264 228 1
264 243 1
264 244 1
264 246 1
264 250 1
264 254 1
264 255 1
264 260 1
264 274 1
264 283 1
264 286 1
264 288 1
264 289 1
264 292 1
264 294 1
264 295 1
264 310 1
264 311 1
264 317 1
264 320 1
264 321 1
264 326 1
264 328 1
264 332 1
264 334 1
264 337 1
264 349 1
264 351 1
264 353 1
264 358 1
264 376 1
264 381 1
264 399 1
264 406 1
264 410 1
264 413 1
264 420 1
264 436 1
264 451 1
264 454 1
264 458 1
264 460 1
264 461 1
264 465 1
264 468 1
264 469 1
264 470 1
264 472 1
264 474 1
264 479 1
264 484 1
264 491 1
264 494 1
264 500 1
264 501 1
264 502 1
264 505 1
264 510 1
264 518 1
264 521 1
264 522 1
264 525 1
264 530 1
264 537 1
264 560 1
264 564 1
264 570 1
264 572 1
264 574 1
264 593 1
264 595 1
264 598 1
265 8 1
265 14 1
265 15 1
265 18 1
265 19 1
265 20 1
265 27 1
265 33 1
265 38 1
265 40 1
265 42 1
265 45 1
265 50 1
265 51 1
265 54 1
265 58 1
265 61 1
265 67 1
265 84 1
265 101 1
265 102 1
265 106 1
265 110 1
265 113 1
265 121 1
265 128 1
265 133 1
265 134 1
265 135 1
265 137 1
265 139 1
265 141 1
265 142 1
265 152 1
265 153 1
265 161 1
265 167 1
265 175 1
265 177 1
265 187 1
265 191 1
265 197 1
265 198 1
265 199 1
265 200 1
265 211 1
265 227 1
265 228 1
265 230 1
265 235 1
265 237 1
265 240 1
265 242 1
265 246 1
265 255 1
265 259 1
265 268 1
265 274 1
265 282 1
265 285 1
265 289 1
265 296 1
265 302 1
265 305 1
265 310 1
265 311 1
265 312 1
265 315 1
265 316 1
265 319 1
265 320 1
265 322 1
265 332 1
265 341 1
265 343 1
265 347 1
265 351 1
265 352 1
265 358 1
265 360 1
265 367 1
265 370 1
265 371 1
265 384 1
265 397 1
265 403 1
265 412 1
265 413 1
265 421 1
265 423 1
265 427 1
265 429 1
265 431 1
265 438 1
265 444 1
265 446 1
265 447 1
265 449 1
265 450 1
265 451 1
265 457 1
265 458 1
265 462 1
265 464 1
265 467 1
265 468 1
265 474 1
265 480 1
265 492 1
265 495 1
265 502 1
265 507 1
265 509 1
265 511 1
265 513 1
265 521 1
265 523 1
265 533 1
265 539 1
265 540 1
265 545 1
265 548 1
265 553 1
265 559 1
265 564 1
265 569 1
265 577 1
265 578 1
265 581 1
265 586 1
265 592 1
265 597 1
266 7 1
266 20 1
266 24 1
266 25 1
266 28 1
266 29 1
266 33 1
266 34 1
266 37 1
266 42 1
266 45 1
266 46 1
266 55 1
266 63 1
266 65 1
266 69 1
266 73 1
266 78 1
266 79 1
266 80 1
266 84 1
266 87 1
266 90 1
266 92 1
266 114 1
266 116 1
266 121 1
266 122 1
266 127 1
266 130 1
266 133 1
266 135 1
266 138 1
266 140 1
266 153 1
266 154 1
266 156 1
266 162 1
266 164 1
266 167 1
266 173 1
266 181 1
266 183 1
266 190 1
266 191 1
266 195 1
266 205 1
266 207 1
266 210 1
266 213 1
266 222 1
266 223 1
266 225 1
266 229 1
266 246 1
266 261 1
266 262 1
266 263 1
266 269 1
266 273 1
266 275 1
266 279 1
266 281 1
266 285 1
266 287 1
266 289 1
266 296 1
266 305 1
266 318 1
266 324 1
266 329 1
266 352 1
266 355 1
266 356 1
266 360 1
266 361 1
266 363 1
266 365 1
266 376 1
266 377 1
266 378 1
266 382 1
266 388 1
266 390 1
266 391 1
266 393 1
266 400 1
266 401 1
266 406 1
266 419 1
266 420 1
266 421 1
266 422 1
266 445 1
266 446 1
266 447 1
266 448 1
266 457 1
266 461 1
266 466 1
266 469 1
266 470 1
266 472 1
266 473 1
266 480 1
266 484 1
266 490 1
266 491 1
266 499 1
266 506 1
266 507 1
266 515 1
266 523 1
266 527 1
266 531 1
266 543 1
266 547 1
266 549 1
266 561 1
266 568 1
266 569 1
266 571 1
266 590 1
266 592 1
267 10 1
267 11 1
267 16 1
267 25 1
267 31 1
267 37 1
267 41 1
267 55 1
267 56 1
267 57 1
267 62 1
267 69 1
267 73 1
267 75 1
267 76 1
267 80 1
267 83 1
267 101 1
267 105 1
267 110 1
267 125 1
267 126 1
267 127 1
267 129 1
267 130 1
267 132 1
267 153 1
267 158 1
267 159 1
267 187 1
267 189 1
267 191 1
267 202 1
267 204 1
267 205 1
267 207 1
267 216 1
267 222 1
267 226 1
267 236 1
267 240 1
267 244 1
267 245 1
267 255 1
267 262 1
267 263 1
267 274 1
267 276 1
267 277 1
267 280 1
267 288 1
267 289 1
267 295 1
267 309 1
267 310 1
267 315 1
267 324 1
267 340 1
267 342 1
267 348 1
267 350 1
267 353 1
267 354 1
267 358 1
267 363 1
267 364 1
267 372 1
267 381 1
267 382 1
267 384 1
267 390 1
267 393 1
267 397 1
267 400 1
267 407 1
267 414 1
267 415 1
267 421 1
267 422 1
267 423 1
267 432 1
267 436 1
267 437 1
267 446 1
267 451 1
267 453 1
267 454 1
267 464 1
267 472 1
267 477 1
267 483 1
267 495 1
267 498 1
267 501 1
267 508 1
267 510 1
267 518 1
267 526 1
267 527 1
267 528 1
267 529 1
267 545 1
267 548 1
267 551 1
267 557 1
267 558 1
267 560 1
267 567 1
267 568 1
267 570 1
267 572 1
267 573 1
267 575 1
267 576 1
267 592 1
267 596 1
267 597 1
267 600 1
268 3 1
268 4 1
268 6 1
268 8 1
268 13 1
268 20 1
268 26 1
268 27 1
268 29 1
268 33 1
268 34 1
268 38 1
268 49 1
268 52 1
268 55 1
268 57 1
268 64 1
268 68 1
268 75 1
268 77 1
268 91 1
268 93 1
268 96 1
268 98 1
268 100 1
268 107 1
268 111 1
268 113 1
268 120 1
268 130 1
268 137 1
268 139 1
268 141 1
268 142 1
268 143 1
268 145 1
268 152 1
268 153 1
268 155 1
268 162 1
268 166 1
268 170 1
268 172 1
268 177 1
268 184 1
268 185 1
268 189 1
268 203 1
268 207 1
268 212 1
268 213 1
268 218 1
268 222 1
268 236 1
268 242 1
268 260 1
268 262 1
268 265 1
268 271 1
268 277 1
268 279 1
268 280 1
268 283 1
268 286 1
268 294 1
268 302 1
268 307 1
268 308 1
268 326 1
268 330 1
268 340 1
268 341 1
268 345 1
268 346 1
268 350 1
268 354 1
268 359 1
268 360 1
268 372 1
268 379 1
268 383 1
268 385 1
268 393 1
268 409 1
268 412 1
268 424 1
268 430 1
268 431 1
268 441 1
268 443 1
268 445 1
268 448 1
268 460 1
268 470 1
268 472 1
268 481 1
268 486 1
268 493 1
268 497 1
268 498 1
268 499 1
268 502 1
268 504 1
268 509 1
268 511 1
268 530 1
268 532 1
268 534 1
268 555 1
268 556 1
268 559 1
268 578 1
268 594 1
268 595 1
269 2 1
269 4 1
269 6 1
269 12 1
269 15 1
269 21 1
269 34 1
269 36 1
269 38 1
269 44 1
269 67 1
269 71 1
269 74 1
269 76 1
269 78 1
269 79 1
269 80 1
269 83 1
269 86 1
269 98 1
269 107 1
269 117 1
269 121 1
269 122 1
269 124 1
269 132 1
269 136 1
269 143 1
269 150 1
269 167 1
269 168 1
269 169 1
269 181 1
269 186 1
269 192 1
269 193 1
269 201 1
269 204 1
269 205 1
269 206 1
269 211 1
269 215 1
269 218 1
269 219 1
269 223 1
269 225 1
269 230 1
269 231 1
269 235 1
269 236 1
269 242 1
269 247 1
269 249 1
269 253 1
269 254 1
269 258 1
269 260 1
269 262 1
269 266 1
269 278 1
269 284 1
269 286 1
269 288 1
269 289 1
269 292 1
269 307 1
269 313 1
269 316 1
269 321 1
269 341 1
269 343 1
269 349 1
269 351 1
269 353 1
269 362 1
269 364 1
269 369 1
269 370 1
269 378 1
269 380 1
269 381 1
269 383 1
269 399 1
269 405 1
269 407 1
269 413 1
269 418 1
269 420 1
269 423 1
269 429 1
269 434 1
269 443 1
269 449 1
269 452 1
269 453 1
269 464 1
269 466 1
269 470 1
269 472 1
269 478 1
269 507 1
269 509 1
269 520 1
269 524 1
269 525 1
269 534 1
269 535 1
269 539 1
269 546 1
269 549 1
269 550 1
269 558 1
269 559 1
269 562 1
269 564 1
269 566 1
269 576 1
269 588 1
269 590 1
269 595 1
270 2 1
270 10 1
270 15 1
270 18 1
270 31 1
270 38 1
270 45 1
270 47 1
270 57 1
270 59 1
270 68 1
270 71 1
270 86 1
270 88 1
270 90 1
270 114 1
270 115 1
270 127 1
270 133 1
270 141 1
270 147 1
270 148 1
270 149 1
270 150 1
270 155 1
270 159 1
270 176 1
270 179 1
270 184 1
270 189 1
270 212 1
270 219 1
270 221 1
270 226 1
270 233 1
270 234 1
270 236 1
270 239 1
270 258 1
270 271 1
270 274 1
270 275 1
270 277 1
270 280 1
270 281 1
270 289 1
270 291 1
270 303 1
270 307 1
270 313 1
270 317 1
270 333 1
270 334 1
270 337 1
270 348 1
270 369 1
270 377 1
270 383 1
270 384 1
270 385 1
270 391 1
270 400 1
270 414 1
270 419 1
270 421 1
270 440 1
270 443 1
270 444 1
270 446 1
270 458 1
270 461 1
270 462 1
270 471 1
270 481 1
270 482 1
270 485 1
270 494 1
270 501 1
270 502 1
270 508 1
270 513 1
270 519 1
270 521 1
270 524 1
270 527 1
270 529 1
270 531 1
270 538 1
270 543 1
270 549 1
270 551 1
270 554 1
270 556 1
270 560 1
270 565 1
270 568 1
270 582 1
270 591 1
270 593 1
271 3 1
271 7 1
271 8 1
271 10 1
271 11 1
271 14 1
271 22 1
271 23 1
271 34 1
271 35 1
271 41 1
271 42 1
271 54 1
271 58 1
271 68 1
271 69 1
271 70 1
271 72 1
271 81 1
271 89 1
271 91 1
271 98 1
271 103 1
271 107 1
271 113 1
271 116 1
271 117 1
271 120 1
271 127 1
271 128 1
271 130 1
271 133 1
271 143 1
271 151 1
271 153 1
271 155 1
271 160 1
271 165 1
271 169 1
271 173 1
271 176 1
271 192 1
271 194 1
271 198 1
271 199 1
271 201 1
271 205 1
271 209 1
271 214 1
271 221 1
271 223 1
271 226 1
271 227 1
271 233 1
271 236 1
271 237 1
271 241 1
271 242 1
271 245 1
271 247 1
271 253 1
271 257 1
271 268 1
271 270 1
271 272 1
271 287 1
271 293 1
271 296 1
271 300 1
271 301 1
271 305 1
271 313 1
271 316 1
271 327 1
271 336 1
271 338 1
271 343 1
271 346 1
271 351 1
271 352 1
271 358 1
271 360 1
271 376 1
271 384 1
271 392 1
271 394 1
271 395 1
271 398 1
271 406 1
271 408 1
271 423 1
271 429 1
271 431 1
271 437 1
271 442 1
271 447 1
271 448 1
271 459 1
271 465 1
271 467 1
271 471 1
271 472 1
271 474 1
271 475 1
271 476 1
271 477 1
271 486 1
271 498 1
271 502 1
271 514 1
271 522 1
271 528 1
271 533 1
271 535 1
271 544 1
271 556 1
271 557 1
271 560 1
271 563 1
271 567 1
271 570 1
271 583 1
271 584 1
271 585 1
271 591 1
271 596 1
271 600 1
272 2 1
272 22 1
272 23 1
272 28 1
272 35 1
272 36 1
272 41 1
272 42 1
272 51 1
272 53 1
272 65 1
272 66 1
272 70 1
272 71 1
272 75 1
272 78 1
272 83 1
272 94 1
272 104 1
272 111 1
272 121 1
272 126 1
272 128 1
272 129 1
272 137 1
272 138 1
272 140 1
272 146 1
272 150 1
272 164 1
272 166 1
272 168 1
272 175 1
272 180 1
272 190 1
272 194 1
272 195 1
272 200 1
272 201 1
272 214 1
272 218 1
272 225 1
272 227 1
272 235 1
272 237 1
272 245 1
272 256 1
272 271 1
272 278 1
272 294 1
272 302 1
272 306 1
272 308 1
272 311 1
272 315 1
272 320 1
272 323 1
272 324 1
272 329 1
272 343 1
272 344 1
272 351 1
272 355 1
272 359 1
272 363 1
272 371 1
272 372 1
272 383 1
272 385 1
272 386 1
272 392 1
272 393 1
272 399 1
272 411 1
272 412 1
272 420 1
272 439 1
272 441 1
272 450 1
272 463 1
272 469 1
272 478 1
272 484 1
272 491 1
272 492 1
272 496 1
272 506 1
272 518 1
272 527 1
272 529 1
272 531 1
272 533 1
272 539 1
272 553 1
272 554 1
272 556 1
272 568 1
272 573 1
272 577 1
272 592 1
273 15 1
273 17 1
273 28 1
273 30 1
273 31 1
273 36 1
273 52 1
273 57 1
273 60 1
273 70 1
273 78 1
273 81 1
273 87 1
273 89 1
273 93 1
273 94 1
273 99 1
273 114 1
273 116 1
273 127 1
273 136 1
273 147 1
273 152 1
273 155 1
273 159 1
273 163 1
273 165 1
273 169 1
273 177 1
273 178 1
273 182 1
273 183 1
273 185 1
273 189 1
273 191 1
273 198 1
273 201 1
273 203 1
273 205 1
273 208 1
273 209 1
273 212 1
273 221 1
273 229 1
273 230 1
273 248 1
273 249 1
273 257 1
273 266 1
273 274 1
273 277 1
273 278 1
273 287 1
273 290 1
273 291 1
273 295 1
273 297 1
273 301 1
273 307 1
273 315 1
273 317 1
273 326 1
273 328 1
273 331 1
273 332 1
273 335 1
273 336 1
273 339 1
273 343 1
273 349 1
273 354 1
273 360 1
273 363 1
273 365 1
273 370 1
273 372 1
273 375 1
273 376 1
273 383 1
273 384 1
273 399 1
273 407 1
273 411 1
273 415 1
273 416 1
273 421 1
273 425 1
273 426 1
273 427 1
273 428 1
273 430 1
273 432 1
273 433 1
273 440 1
273 451 1
273 452 1
273 456 1
273 459 1
273 465 1
273 470 1
273 472 1
273 473 1
273 485 1
273 497 1
273 500 1
273 510 1
273 521 1
273 523 1
273 524 1
273 531 1
273 532 1
273 533 1
273 534 1
273 538 1
273 546 1
273 547 1
273 562 1
273 566 1
273 567 1
273 573 1
273 574 1
273 577 1
273 578 1
273 580 1
273 584 1
273 586 1
273 593 1
273 598 1
274 4 1
274 5 1
274 7 1
274 21 1
274 43 1
274 45 1
274 49 1
274 53 1
274 57 1
274 58 1
274 69 1
274 70 1
274 73 1
274 79 1
274 86 1
274 90 1
274 96 1
274 100 1
274 103 1
274 104 1
274 105 1
274 109 1
274 113 1
274 115 1
274 118 1
274 122 1
274 127 1
274 137 1
274 140 1
274 142 1
274 150 1
274 157 1
274 158 1
274 164 1
274 170 1
274 176 1
274 183 1
274 186 1
274 189 1
274 195 1
274 196 1
274 198 1
274 206 1
274 215 1
274 222 1
274 227 1
274 228 1
274 232 1
274 237 1
274 239 1
274 259 1
274 260 1
274 263 1
274 264 1
274 265 1
274 267 1
274 270 1
274 273 1
274 283 1
274 285 1
274 299 1
274 307 1
274 308 1
274 311 1
274 314 1
274 315 1
274 316 1
274 319 1
274 322 1
274 325 1
274 335 1
274 346 1
274 362 1
274 369 1
274 372 1
274 375 1
274 381 1
274 388 1
274 395 1
274 404 1
274 416 1
274 422 1
274 424 1
274 425 1
274 438 1
274 442 1
274 444 1
274 455 1
274 460 1
274 468 1
274 510 1
274 512 1
274 518 1
274 555 1
274 566 1
274 569 1
274 578 1
274 581 1
274 583 1
274 597 1
275 4 1
275 6 1
275 7 1
275 8 1
275 19 1
275 25 1
275 37 1
275 43 1
275 46 1
275 47 1
275 48 1
275 56 1
275 62 1
275 75 1
275 83 1
275 85 1
275 95 1
275 96 1
275 99 1
275 100 1
275 106 1
275 117 1
275 118 1
275 120 1
275 122 1
275 123 1
275 128 1
275 131 1
275 135 1
275 136 1
275 143 1
275 146 1
275 147 1
275 148 1
275 156 1
275 157 1
275 171 1
275 189 1
275 196 1
275 198 1
275 200 1
275 212 1
275 215 1
275 229 1
275 231 1
275 237 1
275 240 1
275 241 1
275 244 1
275 251 1
275 255 1
275 257 1
275 259 1
275 266 1
275 270 1
275 276 1
275 282 1
275 284 1
275 286 1
275 287 1
275 296 1
275 300 1
275 304 1
275 306 1
275 312 1
275 330 1
275 334 1
275 338 1
275 348 1
275 351 1
275 358 1
275 379 1
275 380 1
275 384 1
275 390 1
275 392 1
275 393 1
275 402 1
275 403 1
275 406 1
275 407 1
275 410 1
275 412 1
275 416 1
275 427 1
275 434 1
275 439 1
275 446 1
275 450 1
275 451 1
275 454 1
275 455 1
275 456 1
275 463 1
275 466 1
275 476 1
275 487 1
275 489 1
275 492 1
275 496 1
275 501 1
275 505 1
275 507 1
275 511 1
275 513 1
275 515 1
275 520 1
275 530 1
275 534 1
275 547 1
275 556 1
275 557 1
275 562 1
275 563 1
275 564 1
275 565 1
275 569 1
275 570 1
275 576 1
275 577 1
275 590 1
275 595 1
275 596 1
275 598 1
275 600 1
276 1 1
276 2 1
276 9 1
276 10 1
276 22 1
276 28 1
276 34 1
276 40 1
276 41 1
276 51 1
276 53 1
276 55 1
276 59 1
276 64 1
276 65 1
276 68 1
276 71 1
276 73 1
276 76 1
276 77 1
276 85 1
276 95 1
276 99 1
276 100 1
276 102 1
276 105 1
276 107 1
276 109 1
276 112 1
276 113 1
276 123 1
276 126 1
276 129 1
276 134 1
276 135 1
276 140 1
276 150 1
276 158 1
276 165 1
276 166 1
276 169 1
276 180 1
276 183 1
276 185 1
276 186 1
276 192 1
276 205 1
276 208 1
276 210 1
276 223 1
276 234 1
276 240 1
276 243 1
276 250 1
276 252 1
276 256 1
276 267 1
276 275 1
276 291 1
276 297 1
276 301 1
276 306 1
276 317 1
276 322 1
276 326 1
276 341 1
276 345 1
276 349 1
276 352 1
276 361 1
276 362 1
276 368 1
276 369 1
276 379 1
276 380 1
276 383 1
276 387 1
276 391 1
276 393 1
276 395 1
276 403 1
276 406 1
276 409 1
276 431 1
276 451 1
276 452 1
276 453 1
276 457 1
276 459 1
276 464 1
276 468 1
276 470 1
276 473 1
276 477 1
276 478 1
276 484 1
276 487 1
276 498 1
276 499 1
276 507 1
276 519 1
276 520 1
276 523 1
276 526 1
276 531 1
276 544 1
276 568 1
276 570 1
276 579 1
276 580 1
276 585 1
276 589 1
276 590 1
276 592 1
277 6 1
277 10 1
277 11 1
277 27 1
277 30 1
277 31 1
277 33 1
277 36 1
277 37 1
277 38 1
277 44 1
277 53 1
277 58 1
277 62 1
277 63 1
277 65 1
277 66 1
277 67 1
277 68 1
277 73 1
277 77 1
277 84 1
277 94 1
277 96 1
277 97 1
277 107 1
277 117 1
277 118 1
277 122 1
277 123 1
277 126 1
277 127 1
277 134 1
277 141 1
277 145 1
277 152 1
277 158 1
277 166 1
277 169 1
277 172 1
277 175 1
277 177 1
277 182 1
277 183 1
277 187 1
277 189 1
277 190 1
277 193 1
277 197 1
277 198 1
277 206 1
277 207 1
277 209 1
277 210 1
277 213 1
277 217 1
277 222 1
277 226 1
277 235 1
277 236 1
277 239 1
277 241 1
277 252 1
277 258 1
277 261 1
277 267 1
277 268 1
277 270 1
277 273 1
277 278 1
277 286 1
277 291 1
277 293 1
277 299 1
277 303 1
277 307 1
277 312 1
277 314 1
277 317 1
277 327 1
277 332 1
277 336 1
277 338 1
277 339 1
277 340 1
277 345 1
277 347 1
277 351 1
277 353 1
277 355 1
277 356 1
277 359 1
277 361 1
277 364 1
277 365 1
277 368 1
277 370 1
277 374 1
277 380 1
277 389 1
277 395 1
277 404 1
277 411 1
277 412 1
277 432 1
277 445 1
277 450 1
277 462 1
277 463 1
277 467 1
277 471 1
277 473 1
277 483 1
277 485 1
277 503 1
277 513 1
277 516 1
277 529 1
277 533 1
277 547 1
277 552 1
277 561 1
277 566 1
277 569 1
277 578 1
277 582 1
277 583 1
277 585 1
277 590 1
277 596 1
277 598 1
277 599 1
278 1 1
278 3 1
278 5 1
278 17 1
278 20 1
278 25 1
278 28 1
278 33 1
278 42 1
278 43 1
278 46 1
278 48 1
278 50 1
278 51 1
278 55 1
278 60 1
278 66 1
278 88 1
278 90 1
278 93 1
278 104 1
278 109 1
278 112 1
278 118 1
278 122 1
278 130 1
278 140 1
278 144 1
278 146 1
278 147 1
278 159 1
278 163 1
278 168 1
278 174 1
278 185 1
278 202 1
278 206 1
278 207 1
278 216 1
278 219 1
278 220 1
278 221 1
278 222 1
278 231 1
278 232 1
278 239 1
278 249 1
278 254 1
278 258 1
278 269 1
278 272 1
278 273 1
278 277 1
278 287 1
278 288 1
278 291 1
278 293 1
278 298 1
278 305 1
278 308 1
278 312 1
278 318 1
278 324 1
278 330 1
278 332 1
278 335 1
278 336 1
278 339 1
278 344 1
278 354 1
278 367 1
278 376 1
278 387 1
278 389 1
278 393 1
278 394 1
278 398 1
278 399 1
278 402 1
278 403 1
278 408 1
278 417 1
278 419 1
278 420 1
278 423 1
278 429 1
278 432 1
278 434 1
278 437 1
278 442 1
278 447 1
278 452 1
278 455 1
278 457 1
278 466 1
278 467 1
278 472 1
278 482 1
278 484 1
278 496 1
278 497 1
278 498 1
278 503 1
278 504 1
278 508 1
278 512 1
278 518 1
278 529 1
278 536 1
278 557 1
278 563 1
278 564 1
278 568 1
278 570 1
278 571 1
278 575 1
278 585 1
278 594 1
278 599 1
279 4 1
279 9 1
279 13 1
279 23 1
279 40 1
279 45 1
279 46 1
279 52 1
279 57 1
279 58 1
279 59 1
279 65 1
279 70 1
279 78 1
279 84 1
279 94 1
279 100 1
279 103 1
279 105 1
279 108 1
279 109 1
279 113 1
279 114 1
279 122 1
279 124 1
279 126 1
279 127 1
279 136 1
279 157 1
279 161 1
279 162 1
279 165 1
279 171 1
279 187 1
279 191 1
279 193 1
279 196 1
279 204 1
279 207 1
279 214 1
279 216 1
279 218 1
279 222 1
279 225 1
279 228 1
279 229 1
279 232 1
279 233 1
279 235 1
279 241 1
279 243 1
279 251 1
279 257 1
279 260 1
279 266 1
279 268 1
279 284 1
279 288 1
279 291 1
279 293 1
279 299 1
279 301 1
279 306 1
279 309 1
279 314 1
279 315 1
279 334 1
279 337 1
279 344 1
279 348 1
279 350 1
279 354 1
279 368 1
279 369 1
279 370 1
279 374 1
279 379 1
279 381 1
279 382 1
279 385 1
279 388 1
279 390 1
279 393 1
279 397 1
279 403 1
279 409 1
279 416 1
279 420 1
279 429 1
279 430 1
279 435 1
279 440 1
279 460 1
279 467 1
279 468 1
279 474 1
279 475 1
279 481 1
279 486 1
279 490 1
279 497 1
279 501 1
279 515 1
279 516 1
279 526 1
279 536 1
279 542 1
279 548 1
279 556 1
279 557 1
279 559 1
279 567 1
279 568 1
279 581 1
279 587 1
279 594 1
280 3 1
280 4 1
280 7 1
280 10 1
280 11 1
280 15 1
280 19 1
280 25 1
280 26 1
280 27 1
280 29 1
280 35 1
280 42 1
280 45 1
280 47 1
280 50 1
280 51 1
280 52 1
280 53 1
280 56 1
280 61 1
280 64 1
280 65 1
280 67 1
280 70 1
280 72 1
280 73 1
280 75 1
280 76 1
280 77 1
280 78 1
280 81 1
280 84 1
280 91 1
280 92 1
280 94 1
280 97 1
280 105 1
280 115 1
280 118 1
280 119 1
280 121 1
280 122 1
280 124 1
280 126 1
280 130 1
280 131 1
280 133 1
280 142 1
280 146 1
280 147 1
280 148 1
280 160 1
280 161 1
280 164 1
280 165 1
280 181 1
280 188 1
280 189 1
280 190 1
280 191 1
280 195 1
280 196 1
280 197 1
280 200 1
280 208 1
280 213 1
280 217 1
280 221 1
280 222 1
280 224 1
280 227 1
280 232 1
280 233 1
280 239 1
280 242 1
280 247 1
280 248 1
280 252 1
280 261 1
280 267 1
280 268 1
280 270 1
280 289 1
280 291 1
280 296 1
280 298 1
280 305 1
280 306 1
280 307 1
280 311 1
280 322 1
280 323 1
280 324 1
280 325 1
280 326 1
280 327 1
280 328 1
280 332 1
280 335 1
280 336 1
280 338 1
280 344 1
280 360 1
280 361 1
280 363 1
280 365 1
280 367 1
280 379 1
280 384 1
280 391 1
280 395 1
280 402 1
280 409 1
280 410 1
280 416 1
280 417 1
280 418 1
280 421 1
280 425 1
280 429 1
280 439 1
280 441 1
280 443 1
280 449 1
280 450 1
280 451 1
280 456 1
280 461 1
280 465 1
280 466 1
280 471 1
280 478 1
280 481 1
280 485 1
280 487 1
280 489 1
280 493 1
280 494 1
280 506 1
280 507 1
280 509 1
280 512 1
280 515 1
280 520 1
280 522 1
280 523 1
280 543 1
280 544 1
280 545 1
280 546 1
280 547 1
280 548 1
280 549 1
280 554 1
280 555 1
280 562 1
280 565 1
280 573 1
280 578 1
280 585 1
281 2 1
281 4 1
281 9 1
281 13 1
281 18 1
281 20 1
281 23 1
281 26 1
281 27 1
281 28 1
281 31 1
281 32 1
281 35 1
281 42 1
281 47 1
281 48 1
281 59 1
281 75 1
281 77 1
281 78 1
281 82 1
281 83 1
281 86 1
281 110 1
281 113 1
281 114 1
281 121 1
281 122 1
281 135 1
281 140 1
281 157 1
281 158 1
281 160 1
281 161 1
281 164 1
281 167 1
281 168 1
281 171 1
281 182 1
281 188 1
281 189 1
281 196 1
281 203 1
281 217 1
281 224 1
281 228 1
281 236 1
281 237 1
281 248 1
281 251 1
281 256 1
281 257 1
281 260 1
281 262 1
281 266 1
281 270 1
281 285 1
281 289 1
281 295 1
281 298 1
281 303 1
281 305 1
281 307 1
281 309 1
281 311 1
281 314 1
281 315 1
281 316 1
281 318 1
281 321 1
281 327 1
281 339 1
281 341 1
281 342 1
281 344 1
281 357 1
281 370 1
281 380 1
281 388 1
281 394 1
281 396 1
281 397 1
281 402 1
281 403 1
281 406 1
281 409 1
281 411 1
281 419 1
281 421 1
281 423 1
281 431 1
281 433 1
281 435 1
281 437 1
281 439 1
281 447 1
281 453 1
281 459 1
281 465 1
281 466 1
281 474 1
281 478 1
281 485 1
281 487 1
281 488 1
281 490 1
281 493 1
281 498 1
281 504 1
281 516 1
281 520 1
281 522 1
281 524 1
281 525 1
281 529 1
281 536 1
281 555 1
281 556 1
281 557 1
281 558 1
281 562 1
281 564 1
281 580 1
281 582 1
282 1 1
282 4 1
282 9 1
282 10 1
282 11 1
282 12 1
282 13 1
282 14 1
282 18 1
282 21 1
282 28 1
282 42 1
282 43 1
282 47 1
282 62 1
282 69 1
282 70 1
282 71 1
282 81 1
282 89 1
282 100 1
282 112 1
282 119 1
282 131 1
282 135 1
282 136 1
282 137 1
282 138 1
282 147 1
282 151 1
282 152 1
282 158 1
282 170 1
282 175 1
282 177 1
282 180 1
282 185 1
282 186 1
282 188 1
282 200 1
282 201 1
282 202 1
282 204 1
282 217 1
282 230 1
282 231 1
282 243 1
282 244 1
282 245 1
282 247 1
282 251 1
282 258 1
282 263 1
282 265 1
282 275 1
282 286 1
282 288 1
282 292 1
282 295 1
282 296 1
282 304 1
282 306 1
282 314 1
282 326 1
282 329 1
282 337 1
282 340 1
282 341 1
282 343 1
282 350 1
282 355 1
282 356 1
282 357 1
282 358 1
282 371 1
282 372 1
282 374 1
282 382 1
282 387 1
282 389 1
282 393 1
282 410 1
282 413 1
282 415 1
282 416 1
282 425 1
282 427 1
282 432 1
282 438 1
282 441 1
282 450 1
282 455 1
282 456 1
282 465 1
282 466 1
282 478 1
282 481 1
282 483 1
282 487 1
282 488 1
282 496 1
282 497 1
282 511 1
282 519 1
282 520 1
282 523 1
282 526 1
282 527 1
282 532 1
282 538 1
282 540 1
282 542 1
282 544 1
282 554 1
282 557 1
282 566 1
282 568 1
282 577 1
282 578 1
282 581 1
282 582 1
282 585 1
282 590 1
282 593 1
282 598 1
283 3 1
283 11 1
283 16 1
283 20 1
283 39 1
283 47 1
283 51 1
283 52 1
283 72 1
283 77 1
283 81 1
283 83 1
283 87 1
283 93 1
283 94 1
283 97 1
283 100 1
283 102 1
283 112 1
283 115 1
283 121 1
283 126 1
283 128 1
283 130 1
283 135 1
283 138 1
283 142 1
283 148 1
283 151 1
283 152 1
283 154 1
283 156 1
283 159 1
283 171 1
283 180 1
283 183 1
283 191 1
283 192 1
283 193 1
283 197 1
283 198 1
283 199 1
283 202 1
283 217 1
283 222 1
283 223 1
283 224 1
283 226 1
283 242 1
283 247 1
283 250 1
283 254 1
283 261 1
283 264 1
283 268 1
283 274 1
283 284 1
283 293 1
283 295 1
283 309 1
283 311 1
283 319 1
283 321 1
283 323 1
283 324 1
283 336 1
283 337 1
283 339 1
283 353 1
283 358 1
283 370 1
283 373 1
283 374 1
283 377 1
283 381 1
283 382 1
283 388 1
283 394 1
283 422 1
283 426 1
283 429 1
283 440 1
283 447 1
283 448 1
283 450 1
283 453 1
283 458 1
283 461 1
283 463 1
283 464 1
283 469 1
283 470 1
283 471 1
283 472 1
283 497 1
283 499 1
283 502 1
283 505 1
283 506 1
283 517 1
283 518 1
283 522 1
283 528 1
283 529 1
283 530 1
283 537 1
283 541 1
283 547 1
283 548 1
283 554 1
283 557 1
283 558 1
283 559 1
283 560 1
283 570 1
283 589 1
283 594 1
283 597 1
284 1 1
284 13 1
284 16 1
284 17 1
284 18 1
284 29 1
284 30 1
284 31 1
284 38 1
284 40 1
284 43 1
284 50 1
284 51 1
284 53 1
284 58 1
284 67 1
284 69 1
284 73 1
284 84 1
284 93 1
284 95 1
284 96 1
284 103 1
284 106 1
284 108 1
284 109 1
284 126 1
284 128 1
284 132 1
284 135 1
284 137 1
284 138 1
284 148 1
284 149 1
284 151 1
284 162 1
284 164 1
284 165 1
284 167 1
284 175 1
284 178 1
284 181 1
284 182 1
284 184 1
284 195 1
284 209 1
284 212 1
284 216 1
284 219 1
284 220 1
284 226 1
284 241 1
284 243 1
284 245 1
284 250 1
284 259 1
284 262 1
284 269 1
284 275 1
284 279 1
284 283 1
284 286 1
284 290 1
284 295 1
284 305 1
284 321 1
284 326 1
284 337 1
284 344 1
284 346 1
284 367 1
284 373 1
284 394 1
284 396 1
284 405 1
284 409 1
284 413 1
284 432 1
284 435 1
284 444 1
284 447 1
284 449 1
284 450 1
284 453 1
284 458 1
284 462 1
284 468 1
284 471 1
284 474 1
284 482 1
284 488 1
284 493 1
284 498 1
284 504 1
284 513 1
284 515 1
284 517 1
284 520 1
284 521 1
284 527 1
284 533 1
284 539 1
284 540 1
284 544 1
284 545 1
284 549 1
284 561 1
284 572 1
284 585 1
284 592 1
284 598 1
285 4 1
285 15 1
285 18 1
285 23 1
285 28 1
285 34 1
285 37 1
285 45 1
285 48 1
285 59 1
285 62 1
285 66 1
285 77 1
285 80 1
285 82 1
285 85 1
285 86 1
285 89 1
285 90 1
285 105 1
285 112 1
285 113 1
285 120 1
285 122 1
285 139 1
285 150 1
285 156 1
285 160 1
285 162 1
285 163 1
285 166 1
285 170 1
285 178 1
285 182 1
285 184 1
285 190 1
285 200 1
285 222 1
285 225 1
285 236 1
285 244 1
285 246 1
285 247 1
285 256 1
285 265 1
285 266 1
285 274 1
285 281 1
285 287 1
285 288 1
285 306 1
285 308 1
285 310 1
285 311 1
285 313 1
285 315 1
285 332 1
285 333 1
285 340 1
285 354 1
285 357 1
285 359 1
285 363 1
285 372 1
285 374 1
285 376 1
285 379 1
285 386 1
285 391 1
285 395 1
285 396 1
285 413 1
285 415 1
285 421 1
285 432 1
285 451 1
285 453 1
285 454 1
285 460 1
285 462 1
285 466 1
285 468 1
285 474 1
285 475 1
285 476 1
285 480 1
285 486 1
285 491 1
285 494 1
285 495 1
285 499 1
285 500 1
285 502 1
285 503 1
285 504 1
285 507 1
285 513 1
285 514 1
285 518 1
285 524 1
285 525 1
285 526 1
285 527 1
285 542 1
285 545 1
285 553 1
285 557 1
285 565 1
285 568 1
285 571 1
285 576 1
285 578 1
285 582 1
285 583 1
285 586 1
285 588 1
285 589 1
285 593 1
286 6 1
286 14 1
286 15 1
286 29 1
286 32 1
286 34 1
286 36 1
286 38 1
286 45 1
286 47 1
286 50 1
286 51 1
286 52 1
286 54 1
286 55 1
286 57 1
286 64 1
286 67 1
286 74 1
286 81 1
286 88 1
286 89 1
286 93 1
286 98 1
286 104 1
286 105 1
286 110 1
286 111 1
286 116 1
286 118 1
286 126 1
286 128 1
286 130 1
286 133 1
286 136 1
286 138 1
286 144 1
286 145 1
286 152 1
286 156 1
286 160 1
286 162 1
286 163 1
286 170 1
286 172 1
286 174 1
286 178 1
286 188 1
286 191 1
286 195 1
286 197 1
286 200 1
286 204 1
286 205 1
286 207 1
286 209 1
286 210 1
286 211 1
286 217 1
286 241 1
286 244 1
286 260 1
286 262 1
286 264 1
286 268 1
286 269 1
286 275 1
286 277 1
286 282 1
286 284 1
286 299 1
286 300 1
286 305 1
286 307 1
286 312 1
286 329 1
286 335 1
286 339 1
286 341 1
286 350 1
286 351 1
286 354 1
286 367 1
286 369 1
286 373 1
286 379 1
286 380 1
286 386 1
286 396 1
286 398 1
286 399 1
286 401 1
286 409 1
286 411 1
286 416 1
286 420 1
286 435 1
286 437 1
286 438 1
286 442 1
286 453 1
286 458 1
286 461 1
286 465 1
286 466 1
286 472 1
286 475 1
286 478 1
286 482 1
286 489 1
286 491 1
286 497 1
286 502 1
286 506 1
286 515 1
286 520 1
286 523 1
286 524 1
286 527 1
286 533 1
286 539 1
286 545 1
286 548 1
286 560 1
286 562 1
286 564 1
286 567 1
286 575 1
286 579 1
286 600 1
287 1 1
287 4 1
287 6 1
287 9 1
287 11 1
287 12 1
287 17 1
287 26 1
287 28 1
287 30 1
287 37 1
287 39 1
287 45 1
287 49 1
287 51 1
287 52 1
287 54 1
287 64 1
287 65 1
287 68 1
287 75 1
287 78 1
287 80 1
287 85 1
287 89 1
287 105 1
287 116 1
287 122 1
287 131 1
287 145 1
287 151 1
287 168 1
287 181 1
287 182 1
287 186 1
287 188 1
287 196 1
287 198 1
287 205 1
287 212 1
287 213 1
287 214 1
287 219 1
287 222 1
287 227 1
287 230 1
287 235 1
287 245 1
287 253 1
287 254 1
287 255 1
287 258 1
287 266 1
287 271 1
287 273 1
287 275 1
287 278 1
287 285 1
287 294 1
287 299 1
287 302 1
287 303 1
287 306 1
287 307 1
287 328 1
287 332 1
287 334 1
287 341 1
287 342 1
287 343 1
287 349 1
287 352 1
287 364 1
287 365 1
287 378 1
287 380 1
287 384 1
287 390 1
287 392 1
287 394 1
287 395 1
287 396 1
287 408 1
287 409 1
287 431 1
287 435 1
287 436 1
287 439 1
287 445 1
287 446 1
287 450 1
287 451 1
287 456 1
287 460 1
287 461 1
287 463 1
287 470 1
287 474 1
287 479 1
287 481 1
287 485 1
287 493 1
287 495 1
287 498 1
287 500 1
287 501 1
287 503 1
287 505 1
287 512 1
287 515 1
287 516 1
287 535 1
287 536 1
287 537 1
287 552 1
287 555 1
287 567 1
287 568 1
287 574 1
287 577 1
287 578 1
287 585 1
287 591 1
288 1 1
288 5 1
288 9 1
288 13 1
288 15 1
288 26 1
288 28 1
288 33 1
288 41 1
288 44 1
288 46 1
288 47 1
288 48 1
288 55 1
288 56 1
288 61 1
288 74 1
288 78 1
288 86 1
288 88 1
288 89 1
288 95 1
288 97 1
288 99 1
288 102 1
288 107 1
288 112 1
288 117 1
288 119 1
288 129 1
288 134 1
288 137 1
288 141 1
288 144 1
288 146 1
288 162 1
288 176 1
288 177 1
288 184 1
288 185 1
288 189 1
288 207 1
288 216 1
288 223 1
288 234 1
288 240 1
288 249 1
288 255 1
288 259 1
288 260 1
288 264 1
288 267 1
288 269 1
288 278 1
288 279 1
288 282 1
288 285 1
288 290 1
288 303 1
288 312 1
288 314 1
288 317 1
288 325 1
288 326 1
288 332 1
288 337 1
288 340 1
288 341 1
288 354 1
288 356 1
288 361 1
288 363 1
288 366 1
288 369 1
288 374 1
288 377 1
288 388 1
288 391 1
288 398 1
288 410 1
288 413 1
288 414 1
288 415 1
288 416 1
288 428 1
288 431 1
288 433 1
288 437 1
288 443 1
288 448 1
288 452 1
288 455 1
288 458 1
288 465 1
288 466 1
288 467 1
288 486 1
288 489 1
288 493 1
288 495 1
288 497 1
288 511 1
288 517 1
288 521 1
288 527 1
288 528 1
288 530 1
288 532 1
288 541 1
288 550 1
288 552 1
288 554 1
288 556 1
288 569 1
288 580 1
288 582 1
288 590 1
288 596 1
288 599 1
289 7 1
289 12 1
289 22 1
289 26 1
289 29 1
289 33 1
289 35 1
289 44 1
289 48 1
289 55 1
289 63 1
289 64 1
289 83 1
289 87 1
289 94 1
289 101 1
289 111 1
289 112 1
289 118 1
289 120 1
289 125 1
289 147 1
289 151 1
289 156 1
289 161 1
289 165 1
289 170 1
289 175 1
289 184 1
289 185 1
289 190 1
289 194 1
289 195 1
289 207 1
289 208 1
289 212 1
289 215 1
289 222 1
289 228 1
289 229 1
289 237 1
289 238 1
289 246 1
289 247 1
289 261 1
289 264 1
289 265 1
289 266 1
289 267 1
289 269 1
289 270 1
289 280 1
289 281 1
289 291 1
289 299 1
289 302 1
289 303 1
289 312 1
289 317 1
289 327 1
289 345 1
289 350 1
289 360 1
289 368 1
289 372 1
289 377 1
289 385 1
289 387 1
289 393 1
289 395 1
289 399 1
289 408 1
289 416 1
289 432 1
289 437 1
289 446 1
289 453 1
289 454 1
289 455 1
289 458 1
289 460 1
289 469 1
289 488 1
289 489 1
289 492 1
289 494 1
289 495 1
289 496 1
289 514 1
289 515 1
289 521 1
289 522 1
289 527 1
289 528 1
289 531 1
289 538 1
289 541 1
289 548 1
289 562 1
289 566 1
289 570 1
289 573 1
289 576 1
289 578 1
289 579 1
289 581 1
289 586 1
289 588 1
289 593 1
289 599 1
289 600 1
290 11 1
290 15 1
290 27 1
290 42 1
290 45 1
290 47 1
290 53 1
290 66 1
290 79 1
290 87 1
290 88 1
290 91 1
290 94 1
290 97 1
290 98 1
290 100 1
290 103 1
290 105 1
290 106 1
290 107 1
290 109 1
290 117 1
290 131 1
290 142 1
290 143 1
290 149 1
290 151 1
290 152 1
290 155 1
290 158 1
290 164 1
290 166 1
290 169 1
290 172 1
290 176 1
290 178 1
290 188 1
290 191 1
290 193 1
290 197 1
290 203 1
290 214 1
290 215 1
290 222 1
290 225 1
290 228 1
290 231 1
290 236 1
290 237 1
290 242 1
290 245 1
290 248 1
290 258 1
290 273 1
290 284 1
290 288 1
290 292 1
290 295 1
290 310 1
290 312 1
290 317 1
290 320 1
290 324 1
290 335 1
290 338 1
290 343 1
290 344 1
290 345 1
290 350 1
290 354 1
290 357 1
290 358 1
290 359 1
290 364 1
290 370 1
290 372 1
290 402 1
290 403 1
290 404 1
290 407 1
290 410 1
290 420 1
290 421 1
290 433 1
290 451 1
290 467 1
290 469 1
290 471 1
290 472 1
290 474 1
290 475 1
290 476 1
290 479 1
290 486 1
290 487 1
290 490 1
290 503 1
290 514 1
290 515 1
290 521 1
290 522 1
290 524 1
290 527 1
290 531 1
290 534 1
290 539 1
290 543 1
290 549 1
290 556 1
290 561 1
290 568 1
290 574 1
290 578 1
290 587 1
290 588 1
290 589 1
290 590 1
290 591 1
290 597 1
290 600 1
291 5 1
291 6 1
291 7 1
291 16 1
291 21 1
291 27 1
291 28 1
291 30 1
291 31 1
291 35 1
291 39 1
291 45 1
291 49 1
291 50 1
291 57 1
291 76 1
291 88 1
291 91 1
291 98 1
291 108 1
291 126 1
291 129 1
291 143 1
291 145 1
291 157 1
291 159 1
291 166 1
291 170 1
291 174 1
291 179 1
291 198 1
291 207 1
291 208 1
291 212 1
291 221 1
291 224 1
291 232 1
291 233 1
291 235 1
291 237 1
291 239 1
291 243 1
291 246 1
291 270 1
291 273 1
291 276 1
291 277 1
291 278 1
291 279 1
291 280 1
291 289 1
291 295 1
291 308 1
291 312 1
291 318 1
291 321 1
291 327 1
291 342 1
291 347 1
291 350 1
291 353 1
291 359 1
291 360 1
291 361 1
291 365 1
291 366 1
291 369 1
291 375 1
291 381 1
291 382 1
291 436 1
291 442 1
291 443 1
291 444 1
291 445 1
291 453 1
291 455 1
291 462 1
291 463 1
291 467 1
291 473 1
291 476 1
291 481 1
291 482 1
291 486 1
291 492 1
291 495 1
291 497 1
291 504 1
291 507 1
291 510 1
291 512 1
291 513 1
291 514 1
291 519 1
291 521 1
291 522 1
291 526 1
291 530 1
291 532 1
291 535 1
291 536 1
291 542 1
291 543 1
291 563 1
291 572 1
291 573 1
291 577 1
291 584 1
291 595 1
292 8 1
292 17 1
292 22 1
292 23 1
292 30 1
292 32 1
292 42 1
292 50 1
292 51 1
292 65 1
292 81 1
292 87 1
292 91 1
292 96 1
292 113 1
292 122 1
292 140 1
292 141 1
292 142 1
292 148 1
292 154 1
292 159 1
292 163 1
292 172 1
292 174 1
292 176 1
292 178 1
292 187 1
292 194 1
292 199 1
292 200 1
292 201 1
292 211 1
292 222 1
292 224 1
292 225 1
292 233 1
292 236 1
292 243 1
292 244 1
292 245 1
292 255 1
292 256 1
292 264 1
292 269 1
292 282 1
292 290 1
292 296 1
292 298 1
292 303 1
292 308 1
292 310 1
292 324 1
292 325 1
292 328 1
292 332 1
292 338 1
292 348 1
292 351 1
292 364 1
292 366 1
292 370 1
292 374 1
292 377 1
292 381 1
292 391 1
292 392 1
292 404 1
292 406 1
292 409 1
292 416 1
292 422 1
292 425 1
292 427 1
292 429 1
292 432 1
292 434 1
292 439 1
292 442 1
292 443 1
292 445 1
292 448 1
292 450 1
292 451 1
292 453 1
292 457 1
292 462 1
292 463 1
292 464 1
292 465 1
292 471 1
292 475 1
292 476 1
292 481 1
292 491 1
292 492 1
292 499 1
292 501 1
292 508 1
292 523 1
292 532 1
292 535 1
292 542 1
292 549 1
292 550 1
292 554 1
292 557 1
292 558 1
292 560 1
292 568 1
292 589 1
292 595 1
293 7 1
293 10 1
293 13 1
293 18 1
293 21 1
293 27 1
293 32 1
293 34 1
293 38 1
293 41 1
293 44 1
293 46 1
293 50 1
293 53 1
293 56 1
293 62 1
293 65 1
293 66 1
293 71 1
293 80 1
293 85 1
293 90 1
293 92 1
293 104 1
293 105 1
293 113 1
293 115 1
293 116 1
293 120 1
293 121 1
293 125 1
293 126 1
293 134 1
293 135 1
293 137 1
293 139 1
293 145 1
293 149 1
293 157 1
293 158 1
293 166 1
293 175 1
293 177 1
293 191 1
293 205 1
293 206 1
293 213 1
293 220 1
293 227 1
293 229 1
293 230 1
293 244 1
293 247 1
293 249 1
293 255 1
293 256 1
293 259 1
293 263 1
293 271 1
293 277 1
293 278 1
293 279 1
293 283 1
293 295 1
293 302 1
293 305 1
293 306 1
293 312 1
293 346 1
293 351 1
293 362 1
293 371 1
293 372 1
293 374 1
293 377 1
293 379 1
293 380 1
293 385 1
293 389 1
293 390 1
293 394 1
293 396 1
293 397 1
293 398 1
293 400 1
293 413 1
293 421 1
293 427 1
293 429 1
293 435 1
293 438 1
293 443 1
293 451 1
293 453 1
293 455 1
293 466 1
293 468 1
293 479 1
293 481 1
293 485 1
293 490 1
293 495 1
293 497 1
293 499 1
293 500 1
293 504 1
293 508 1
293 512 1
293 514 1
293 516 1
293 519 1
293 523 1
293 525 1
293 526 1
293 528 1
293 532 1
293 537 1
293 538 1
293 551 1
293 552 1
293 554 1
293 558 1
293 562 1
293 564 1
293 568 1
293 569 1
293 571 1
293 576 1
293 594 1
293 596 1
293 597 1
294 4 1
294 5 1
294 13 1
294 15 1
294 17 1
294 18 1
294 23 1
294 25 1
294 34 1
294 43 1
294 46 1
294 51 1
294 60 1
294 67 1
294 69 1
294 86 1
294 92 1
294 95 1
294 103 1
294 105 1
294 110 1
294 111 1
294 116 1
294 120 1
294 125 1
294 131 1
294 141 1
294 146 1
294 147 1
294 153 1
294 161 1
294 164 1
294 168 1
294 172 1
294 174 1
294 184 1
294 206 1
294 209 1
294 210 1
294 215 1
294 220 1
294 224 1
294 233 1
294 240 1
294 245 1
294 249 1
294 255 1
294 256 1
294 257 1
294 258 1
294 262 1
294 263 1
294 264 1
294 268 1
294 272 1
294 287 1
294 300 1
294 303 1
294 306 1
294 308 1
294 310 1
294 312 1
294 325 1
294 330 1
294 334 1
294 354 1
294 355 1
294 356 1
294 357 1
294 359 1
294 361 1
294 367 1
294 373 1
294 379 1
294 385 1
294 387 1
294 388 1
294 391 1
294 396 1
294 406 1
294 432 1
294 434 1
294 436 1
294 448 1
294 450 1
294 458 1
294 468 1
294 471 1
294 473 1
294 480 1
294 483 1
294 486 1
294 491 1
294 498 1
294 501 1
294 504 1
294 505 1
294 509 1
294 510 1
294 514 1
294 516 1
294 528 1
294 533 1
294 535 1
294 537 1
294 539 1
294 549 1
294 557 1
294 558 1
294 561 1
294 565 1
294 571 1
294 575 1
294 580 1
294 588 1
294 592 1
294 593 1
294 594 1
295 12 1
295 26 1
295 27 1
295 28 1
295 38 1
295 41 1
295 42 1
295 48 1
295 55 1
295 66 1
295 72 1
295 91 1
295 94 1
295 98 1
295 101 1
295 104 1
295 109 1
295 112 1
295 118 1
295 125 1
295 126 1
295 132 1
295 133 1
295 137 1
295 140 1
295 141 1
295 148 1
295 152 1
295 155 1
295 156 1
295 174 1
295 177 1
295 179 1
295 180 1
295 183 1
295 189 1
295 194 1
295 195 1
295 203 1
295 204 1
295 206 1
295 211 1
295 223 1
295 228 1
295 236 1
295 239 1
295 245 1
295 250 1
295 252 1
295 256 1
295 257 1
295 260 1
295 262 1
295 264 1
295 267 1
295 273 1
295 281 1
295 282 1
295 283 1
295 284 1
295 290 1
295 291 1
295 293 1
295 304 1
295 306 1
295 316 1
295 318 1
295 320 1
295 321 1
295 322 1
295 324 1
295 335 1
295 338 1
295 343 1
295 347 1
295 349 1
295 354 1
295 367 1
295 373 1
295 375 1
295 382 1
295 401 1
295 407 1
295 408 1
295 409 1
295 411 1
295 420 1
295 421 1
295 424 1
295 439 1
295 443 1
295 463 1
295 465 1
295 467 1
295 469 1
295 479 1
295 485 1
295 497 1
295 512 1
295 516 1
295 520 1
295 524 1
295 538 1
295 540 1
295 543 1
295 547 1
295 549 1
295 559 1
295 564 1
295 573 1
295 574 1
295 582 1
295 584 1
295 598 1
295 599 1
296 9 1
296 13 1
296 17 1
296 18 1
296 25 1
296 35 1
296 48 1
296 50 1
296 51 1
296 68 1
296 71 1
296 76 1
296 77 1
296 78 1
296 79 1
296 80 1
296 87 1
296 89 1
296 95 1
296 100 1
296 103 1
296 104 1
296 107 1
296 111 1
296 113 1
296 118 1
296 119 1
296 125 1
296 128 1
296 135 1
296 140 1
296 142 1
296 144 1
296 148 1
296 154 1
296 156 1
296 164 1
296 174 1
296 176 1
296 186 1
296 190 1
296 196 1
296 199 1
296 204 1
296 207 1
296 208 1
296 227 1
296 236 1
296 237 1
296 240 1
296 241 1
296 249 1
296 251 1
296 254 1
296 255 1
296 258 1
296 260 1
296 261 1
296 265 1
296 266 1
296 271 1
296 275 1
296 280 1
296 282 1
296 292 1
296 297 1
296 301 1
296 302 1
296 304 1
296 305 1
296 312 1
296 315 1
296 317 1
296 319 1
296 341 1
296 349 1
296 356 1
296 357 1
296 363 1
296 366 1
296 380 1
296 389 1
296 413 1
296 420 1
296 424 1
296 425 1
296 434 1
296 436 1
296 437 1
296 439 1
296 444 1
296 448 1
296 451 1
296 462 1
296 466 1
296 467 1
296 470 1
296 472 1
296 474 1
296 480 1
296 483 1
296 484 1
296 494 1
296 499 1
296 500 1
296 504 1
296 505 1
296 507 1
296 509 1
296 511 1
296 518 1
296 520 1
296 521 1
296 538 1
296 543 1
296 551 1
296 562 1
296 568 1
296 570 1
296 583 1
296 585 1
296 588 1
296 598 1
297 2 1
297 4 1
297 5 1
297 14 1
297 15 1
297 17 1
297 18 1
297 21 1
297 22 1
297 31 1
297 33 1
297 40 1
297 46 1
297 52 1
297 54 1
297 63 1
297 66 1
297 72 1
297 73 1
297 74 1
297 75 1
297 81 1
297 82 1
297 87 1
297 89 1
297 90 1
297 96 1
297 97 1
297 105 1
297 106 1
297 112 1
297 114 1
297 115 1
297 119 1
297 122 1
297 124 1
297 125 1
297 128 1
297 132 1
297 140 1
297 155 1
297 161 1
297 162 1
297 170 1
297 176 1
297 178 1
297 181 1
297 186 1
297 191 1
297 194 1
297 201 1
297 206 1
297 214 1
297 218 1
297 221 1
297 224 1
297 231 1
297 233 1
297 236 1
297 242 1
297 254 1
297 255 1
297 257 1
297 273 1
297 276 1
297 296 1
297 306 1
297 309 1
297 310 1
297 312 1
297 313 1
297 320 1
297 323 1
297 330 1
297 331 1
297 354 1
297 368 1
297 373 1
297 374 1
297 384 1
297 389 1
297 399 1
297 400 1
297 406 1
297 407 1
297 411 1
297 414 1
297 422 1
297 425 1
297 431 1
297 432 1
297 433 1
297 435 1
297 437 1
297 448 1
297 475 1
297 476 1
297 477 1
297 478 1
297 480 1
297 485 1
297 488 1
297 489 1
297 498 1
297 502 1
297 504 1
297 505 1
297 509 1
297 510 1
297 515 1
297 519 1
297 522 1
297 529 1
297 531 1
297 533 1
297 537 1
297 538 1
297 551 1
297 556 1
297 558 1
297 560 1
297 583 1
297 589 1
297 590 1
297 598 1
297 599 1
297 600 1
298 3 1
298 14 1
298 17 1
298 25 1
298 28 1
298 29 1
298 40 1
298 42 1
298 60 1
298 68 1
298 75 1
298 76 1
298 79 1
298 88 1
298 91 1
298 97 1
298 99 1
298 109 1
298 110 1
298 111 1
298 114 1
298 120 1
298 140 1
298 141 1
298 145 1
298 160 1
298 167 1
298 171 1
298 172 1
298 173 1
298 175 1
298 178 1
298 179 1
298 180 1
298 188 1
298 203 1
298 205 1
298 212 1
298 213 1
298 215 1
298 220 1
298 222 1
298 227 1
298 230 1
298 238 1
298 239 1
298 240 1
298 244 1
298 249 1
298 250 1
298 251 1
298 257 1
298 278 1
298 280 1
298 281 1
298 292 1
298 299 1
298 303 1
298 307 1
298 310 1
298 312 1
298 314 1
298 318 1
298 319 1
298 320 1
298 323 1
298 325 1
298 326 1
298 335 1
298 336 1
298 340 1
298 341 1
298 364 1
298 366 1
298 369 1
298 375 1
298 381 1
298 382 1
298 388 1
298 394 1
298 399 1
298 402 1
298 405 1
298 412 1
298 415 1
298 438 1
298 440 1
298 444 1
298 446 1
298 447 1
298 448 1
298 450 1
298 453 1
298 454 1
298 460 1
298 461 1
298 465 1
298 466 1
298 477 1
298 487 1
298 492 1
298 499 1
298 502 1
298 503 1
298 504 1
298 515 1
298 516 1
298 517 1
298 519 1
298 525 1
298 529 1
298 546 1
298 567 1
298 568 1
298 575 1
298 581 1
298 588 1
298 591 1
298 592 1
299 2 1
299 7 1
299 14 1
299 15 1
299 22 1
299 25 1
299 26 1
299 28 1
299 29 1
299 33 1
299 38 1
299 39 1
299 41 1
299 50 1
299 52 1
299 55 1
299 69 1
299 73 1
299 74 1
299 77 1
299 80 1
299 81 1
299 84 1
299 85 1
299 87 1
299 92 1
299 97 1
299 105 1
299 107 1
299 110 1
299 114 1
299 115 1
299 132 1
299 148 1
299 149 1
299 153 1
299 162 1
299 165 1
299 181 1
299 182 1
299 186 1
299 189 1
299 191 1
299 197 1
299 201 1
299 204 1
299 210 1
299 212 1
299 216 1
299 221 1
299 232 1
299 238 1
299 239 1
299 240 1
299 257 1
299 274 1
299 277 1
299 279 1
299 286 1
299 287 1
299 289 1
299 298 1
299 300 1
299 303 1
299 309 1
299 314 1
299 320 1
299 323 1
299 325 1
299 328 1
299 329 1
299 333 1
299 334 1
299 341 1
299 347 1
299 356 1
299 359 1
299 361 1
299 370 1
299 372 1
299 377 1
299 382 1
299 384 1
299 387 1
299 388 1
299 390 1
299 391 1
299 400 1
299 407 1
299 409 1
299 422 1
299 428 1
299 434 1
299 436 1
299 442 1
299 443 1
299 452 1
299 457 1
299 461 1
299 463 1
299 465 1
299 470 1
299 472 1
299 486 1
299 487 1
299 488 1
299 496 1
299 505 1
299 508 1
299 511 1
299 513 1
299 514 1
299 516 1
299 523 1
299 533 1
299 535 1
299 537 1
299 538 1
299 539 1
299 555 1
299 557 1
299 562 1
299 563 1
299 567 1
299 571 1
299 572 1
299 578 1
299 579 1
299 597 1
299 600 1
300 6 1
300 9 1
300 10 1
300 14 1
300 23 1
300 25 1
300 50 1
300 52 1
300 53 1
300 55 1
300 56 1
300 60 1
300 63 1
300 67 1
300 71 1
300 76 1
300 79 1
300 92 1
300 94 1
300 96 1
300 98 1
300 105 1
300 110 1
300 112 1
300 114 1
300 116 1
300 117 1
300 119 1
300 120 1
300 126 1
300 134 1
300 137 1
300 159 1
300 162 1
300 190 1
300 205 1
300 208 1
300 219 1
300 231 1
300 242 1
300 246 1
300 251 1
300 255 1
300 257 1
300 271 1
300 275 1
300 286 1
300 294 1
300 299 1
300 312 1
300 313 1
300 320 1
300 332 1
300 340 1
300 348 1
300 356 1
300 358 1
300 370 1
300 376 1
300 377 1
300 385 1
300 386 1
300 391 1
300 392 1
300 394 1
300 407 1
300 413 1
300 432 1
300 436 1
300 437 1
300 438 1
300 441 1
300 442 1
300 456 1
300 460 1
300 466 1
300 469 1
300 471 1
300 475 1
300 479 1
300 485 1
300 503 1
300 506 1
300 516 1
300 518 1
300 521 1
300 524 1
300 533 1
300 534 1
300 536 1
300 538 1
300 549 1
300 551 1
300 556 1
300 566 1
300 570 1
300 573 1
300 584 1
300 588 1
301 1 1
301 9 1
301 10 1
301 13 1
301 14 1
301 15 1
301 19 1
301 22 1
301 28 1
301 37 1
301 46 1
301 52 1
301 80 1
301 91 1
301 106 1
301 107 1
301 108 1
301 111 1
301 115 1
301 119 1
301 121 1
301 123 1
301 127 1
301 128 1
301 129 1
301 142 1
301 148 1
301 151 1
301 161 1
301 164 1
301 169 1
301 177 1
301 178 1
301 196 1
301 198 1
301 201 1
301 205 1
301 207 1
301 209 1
301 213 1
301 229 1
301 230 1
301 231 1
301 234 1
301 238 1
301 244 1
301 255 1
301 257 1
301 271 1
301 273 1
301 276 1
301 279 1
301 296 1
301 303 1
301 305 1
301 306 1
301 307 1
301 311 1
301 318 1
301 319 1
301 325 1
301 327 1
301 332 1
301 340 1
301 345 1
301 351 1
301 362 1
301 368 1
301 369 1
301 374 1
301 385 1
301 387 1
301 392 1
301 399 1
301 400 1
301 401 1
301 404 1
301 405 1
301 410 1
301 411 1
301 412 1
301 413 1
301 418 1
301 427 1
301 437 1
301 446 1
301 469 1
301 470 1
301 471 1
301 472 1
301 482 1
301 493 1
301 504 1
301 505 1
301 508 1
301 510 1
301 511 1
301 528 1
301 530 1
301 534 1
301 539 1
301 540 1
301 543 1
301 544 1
301 545 1
301 555 1
301 559 1
301 560 1
301 561 1
301 565 1
301 567 1
301 568 1
301 576 1
301 583 1
301 584 1
301 586 1
301 587 1
301 594 1
301 595 1
301 597 1
301 599 1
302 6 1
302 9 1
302 11 1
302 12 1
302 21 1
302 23 1
302 26 1
302 29 1
302 38 1
302 39 1
302 40 1
302 45 1
302 54 1
302 56 1
302 59 1
302 70 1
302 72 1
302 74 1
302 75 1
302 88 1
302 93 1
302 95 1
302 99 1
302 103 1
302 104 1
302 105 1
302 107 1
302 112 1
302 119 1
302 124 1
302 125 1
302 128 1
302 129 1
302 136 1
302 138 1
302 140 1
302 143 1
302 147 1
302 149 1
302 151 1
302 159 1
302 164 1
302 171 1
302 173 1
302 185 1
302 187 1
302 191 1
302 194 1
302 195 1
302 201 1
302 206 1
302 218 1
302 222 1
302 225 1
302 229 1
302 239 1
302 245 1
302 250 1
302 259 1
302 260 1
302 261 1
302 265 1
302 268 1
302 272 1
302 287 1
302 289 1
302 293 1
302 296 1
302 307 1
302 316 1
302 319 1
302 322 1
302 323 1
302 324 1
302 325 1
302 328 1
302 329 1
302 334 1
302 337 1
302 339 1
302 342 1
302 347 1
302 349 1
302 352 1
302 355 1
302 361 1
302 363 1
302 367 1
302 376 1
302 386 1
302 389 1
302 402 1
302 405 1
302 406 1
302 407 1
302 415 1
302 416 1
302 417 1
302 422 1
302 439 1
302 442 1
302 477 1
302 481 1
302 484 1
302 489 1
302 497 1
302 505 1
302 511 1
302 515 1
302 516 1
302 517 1
302 523 1
302 534 1
302 535 1
302 536 1
302 541 1
302 543 1
302 544 1
302 548 1
302 554 1
302 555 1
302 558 1
302 559 1
302 582 1
302 586 1
302 596 1
302 598 1
303 5 1
303 6 1
303 8 1
303 11 1
303 19 1
303 24 1
303 25 1
303 28 1
303 36 1
303 40 1
303 44 1
303 50 1
303 55 1
303 66 1
303 81 1
303 82 1
303 84 1
303 85 1
303 90 1
303 93 1
303 94 1
303 118 1
303 125 1
303 128 1
303 133 1
303 135 1
303 139 1
303 140 1
303 143 1
303 145 1
303 149 1
303 153 1
303 154 1
303 156 1
303 159 1
303 162 1
303 164 1
303 165 1
303 167 1
303 169 1
303 174 1
303 177 1
303 179 1
303 180 1
303 189 1
303 193 1
303 194 1
303 204 1
303 215 1
303 219 1
303 226 1
303 227 1
303 229 1
303 247 1
303 254 1
303 255 1
303 262 1
303 270 1
303 277 1
303 281 1
303 287 1
303 288 1
303 289 1
303 292 1
303 294 1
303 298 1
303 299 1
303 301 1
303 314 1
303 318 1
303 319 1
303 323 1
303 328 1
303 329 1
303 330 1
303 336 1
303 341 1
303 347 1
303 351 1
303 354 1
303 357 1
303 369 1
303 373 1
303 375 1
303 385 1
303 388 1
303 391 1
303 392 1
303 401 1
303 403 1
303 418 1
303 422 1
303 427 1
303 430 1
303 432 1
303 441 1
303 444 1
303 448 1
303 450 1
303 453 1
303 455 1
303 457 1
303 464 1
303 472 1
303 482 1
303 483 1
303 486 1
303 489 1
303 495 1
303 500 1
303 515 1
303 520 1
303 523 1
303 532 1
303 543 1
303 545 1
303 563 1
303 566 1
303 567 1
303 570 1
303 576 1
303 577 1
303 587 1
303 588 1
303 590 1
303 591 1
303 592 1
304 5 1
304 11 1
304 14 1
304 17 1
304 22 1
304 26 1
304 29 1
304 34 1
304 36 1
304 41 1
304 43 1
304 44 1
304 46 1
304 59 1
304 61 1
304 64 1
304 67 1
304 70 1
304 71 1
304 75 1
304 81 1
304 82 1
304 91 1
304 93 1
304 94 1
304 96 1
304 97 1
304 100 1
304 108 1
304 109 1
304 118 1
304 123 1
304 130 1
304 135 1
304 137 1
304 140 1
304 142 1
304 155 1
304 173 1
304 178 1
304 180 1
304 186 1
304 187 1
304 194 1
304 195 1
304 197 1
304 199 1
304 201 1
304 207 1
304 209 1
304 210 1
304 212 1
304 216 1
304 226 1
304 232 1
304 233 1
304 251 1
304 262 1
304 275 1
304 282 1
304 295 1
304 296 1
304 305 1
304 309 1
304 321 1
304 331 1
304 341 1
304 345 1
304 350 1
304 352 1
304 356 1
304 357 1
304 367 1
304 375 1
304 383 1
304 384 1
304 392 1
304 393 1
304 406 1
304 407 1
304 409 1
304 410 1
304 411 1
304 413 1
304 415 1
304 417 1
304 419 1
304 426 1
304 432 1
304 436 1
304 441 1
304 457 1
304 459 1
304 465 1
304 467 1
304 469 1
304 472 1
304 479 1
304 480 1
304 483 1
304 493 1
304 499 1
304 501 1
304 505 1
304 509 1
304 514 1
304 516 1
304 522 1
304 527 1
304 529 1
304 530 1
304 532 1
304 535 1
304 537 1
304 539 1
304 541 1
304 547 1
304 551 1
304 552 1
304 553 1
304 557 1
304 563 1
304 565 1
304 567 1
304 569 1
304 574 1
304 595 1
304 597 1
304 598 1
305 3 1
305 11 1
305 13 1
305 15 1
305 17 1
305 19 1
305 24 1
305 28 1
305 38 1
305 42 1
305 49 1
305 52 1
305 68 1
305 74 1
305 78 1
305 81 1
305 91 1
305 102 1
305 114 1
305 120 1
305 132 1
305 133 1
305 135 1
305 146 1
305 147 1
305 150 1
305 151 1
305 180 1
305 187 1
305 188 1
305 195 1
305 197 1
305 199 1
305 204 1
305 205 1
305 210 1
305 211 1
305 223 1
305 226 1
305 234 1
305 235 1
305 247 1
305 248 1
305 256 1
305 259 1
305 265 1
305 266 1
305 271 1
305 278 1
305 280 1
305 281 1
305 284 1
305 286 1
305 293 1
305 296 1
305 301 1
305 304 1
305 311 1
305 314 1
305 315 1
305 325 1
305 333 1
305 335 1
305 339 1
305 354 1
305 355 1
305 361 1
305 364 1
305 373 1
305 376 1
305 379 1
305 380 1
305 383 1
305 386 1
305 394 1
305 396 1
305 405 1
305 407 1
305 409 1
305 414 1
305 418 1
305 422 1
305 425 1
305 431 1
305 432 1
305 433 1
305 434 1
305 436 1
305 437 1
305 438 1
305 439 1
305 457 1
305 460 1
305 462 1
305 478 1
305 479 1
305 484 1
305 485 1
305 487 1
305 492 1
305 495 1
305 497 1
305 502 1
305 506 1
305 507 1
305 511 1
305 518 1
305 521 1
305 529 1
305 536 1
305 537 1
305 544 1
305 545 1
305 549 1
305 561 1
305 572 1
305 574 1
305 595 1
305 597 1
305 600 1
306 5 1
306 23 1
306 32 1
306 37 1
306 43 1
306 54 1
306 57 1
306 61 1
306 64 1
306 69 1
306 86 1
306 89 1
306 93 1
306 94 1
306 95 1
306 101 1
306 107 1
306 108 1
306 115 1
306 116 1
306 124 1
306 126 1
306 128 1
306 132 1
306 133 1
306 139 1
306 146 1
306 149 1
306 150 1
306 151 1
306 154 1
306 163 1
306 165 1
306 168 1
306 174 1
306 179 1
306 184 1
306 185 1
306 203 1
306 217 1
306 218 1
306 220 1
306 224 1
306 227 1
306 234 1
306 239 1
306 240 1
306 241 1
306 243 1
306 244 1
306 247 1
306 249 1
306 255 1
306 261 1
306 263 1
306 272 1
306 275 1
306 276 1
306 279 1
306 280 1
306 282 1
306 285 1
306 287 1
306 293 1
306 294 1
306 295 1
306 297 1
306 301 1
306 308 1
306 309 1
306 316 1
306 324 1
306 330 1
306 331 1
306 332 1
306 334 1
306 338 1
306 339 1
306 342 1
306 345 1
306 347 1
306 349 1
306 351 1
306 357 1
306 360 1
306 366 1
306 370 1
306 372 1
306 379 1
306 389 1
306 394 1
306 397 1
306 398 1
306 402 1
306 404 1
306 406 1
306 411 1
306 413 1
306 426 1
306 442 1
306 454 1
306 469 1
306 473 1
306 474 1
306 480 1
306 484 1
306 485 1
306 492 1
306 493 1
306 501 1
306 503 1
306 504 1
306 519 1
306 524 1
306 526 1
306 527 1
306 532 1
306 535 1
306 536 1
306 537 1
306 546 1
306 547 1
306 550 1
306 551 1
306 552 1
306 553 1
306 554 1
306 559 1
306 561 1
306 564 1
306 567 1
306 581 1
306 583 1
306 586 1
306 594 1
307 1 1
307 5 1
307 6 1
307 12 1
307 20 1
307 22 1
307 26 1
307 31 1
307 32 1
307 33 1
307 35 1
307 37 1
307 38 1
307 40 1
307 46 1
307 48 1
307 49 1
307 54 1
307 56 1
307 65 1
307 72 1
307 73 1
307 78 1
307 90 1
307 92 1
307 94 1
307 95 1
307 106 1
307 108 1
307 118 1
307 120 1
307 125 1
307 127 1
307 142 1
307 145 1
307 158 1
307 163 1
307 173 1
307 180 1
307 183 1
307 209 1
307 211 1
307 214 1
307 222 1
307 223 1
307 238 1
307 240 1
307 241 1
307 243 1
307 244 1
307 245 1
307 247 1
307 251 1
307 263 1
307 268 1
307 269 1
307 270 1
307 273 1
307 274 1
307 277 1
307 280 1
307 281 1
307 286 1
307 287 1
307 298 1
307 301 1
307 302 1
307 309 1
307 315 1
307 323 1
307 325 1
307 343 1
307 348 1
307 355 1
307 360 1
307 367 1
307 371 1
307 380 1
307 395 1
307 396 1
307 400 1
307 401 1
307 402 1
307 408 1
307 411 1
307 414 1
307 415 1
307 418 1
307 423 1
307 426 1
307 428 1
307 429 1
307 431 1
307 446 1
307 448 1
307 450 1
307 461 1
307 464 1
307 468 1
307 470 1
307 471 1
307 473 1
307 476 1
307 477 1
307 498 1
307 508 1
307 518 1
307 524 1
307 527 1
307 531 1
307 533 1
307 540 1
307 549 1
307 551 1
307 555 1
307 571 1
307 578 1
307 579 1
307 580 1
307 582 1
307 589 1
307 592 1
308 1 1
308 3 1
308 9 1
308 13 1
308 15 1
308 22 1
308 29 1
308 30 1
308 41 1
308 45 1
308 52 1
308 61 1
308 64 1
308 68 1
308 70 1
308 71 1
308 81 1
308 82 1
308 93 1
308 95 1
308 114 1
308 119 1
308 135 1
308 146 1
308 147 1
308 148 1
308 150 1
308 152 1
308 159 1
308 160 1
308 164 1
308 165 1
308 168 1
308 171 1
308 172 1
308 173 1
308 185 1
308 187 1
308 188 1
308 202 1
308 204 1
308 210 1
308 212 1
308 216 1
308 222 1
308 223 1
308 248 1
308 261 1
308 268 1
308 272 1
308 274 1
308 278 1
308 285 1
308 291 1
308 292 1
308 294 1
308 306 1
308 309 1
308 310 1
308 315 1
308 316 1
308 325 1
308 335 1
308 336 1
308 337 1
308 342 1
308 344 1
308 355 1
308 358 1
308 368 1
308 369 1
308 380 1
308 383 1
308 388 1
308 394 1
308 402 1
308 403 1
308 405 1
308 418 1
308 427 1
308 429 1
308 432 1
308 440 1
308 452 1
308 457 1
308 467 1
308 478 1
308 482 1
308 485 1
308 495 1
308 497 1
308 500 1
308 506 1
308 507 1
308 509 1
308 510 1
308 523 1
308 532 1
308 533 1
308 536 1
308 538 1
308 540 1
308 565 1
308 581 1
308 591 1
308 594 1
308 597 1
308 598 1
309 5 1
309 6 1
309 14 1
309 15 1
309 23 1
309 30 1
309 38 1
309 39 1
309 40 1
309 41 1
309 46 1
309 48 1
309 50 1
309 53 1
309 54 1
309 56 1
309 63 1
309 73 1
309 74 1
309 81 1
309 82 1
309 91 1
309 94 1
309 96 1
309 106 1
309 108 1
309 110 1
309 112 1
309 113 1
309 120 1
309 146 1
309 149 1
309 157 1
309 158 1
309 162 1
309 166 1
309 167 1
309 168 1
309 169 1
309 170 1
309 180 1
309 186 1
309 207 1
309 209 1
309 210 1
309 214 1
309 216 1
309 217 1
309 224 1
309 231 1
309 239 1
309 243 1
309 247 1
309 248 1
309 253 1
309 267 1
309 279 1
309 281 1
309 283 1
309 297 1
309 299 1
309 304 1
309 306 1
309 307 1
309 308 1
309 310 1
309 313 1
309 315 1
309 318 1
309 334 1
309 335 1
309 341 1
309 342 1
309 349 1
309 350 1
309 351 1
309 363 1
309 369 1
309 371 1
309 375 1
309 379 1
309 381 1
309 382 1
309 383 1
309 384 1
309 406 1
309 409 1
309 415 1
309 421 1
309 422 1
309 428 1
309 433 1
309 437 1
309 439 1
309 441 1
309 444 1
309 445 1
309 446 1
309 453 1
309 455 1
309 456 1
309 467 1
309 469 1
309 474 1
309 490 1
309 491 1
309 497 1
309 499 1
309 501 1
309 502 1
309 503 1
309 508 1
309 517 1
309 522 1
309 529 1
309 535 1
309 541 1
309 544 1
309 554 1
309 556 1
309 559 1
309 572 1
309 573 1
309 587 1
309 588 1
309 589 1
309 597 1
310 4 1
310 20 1
310 22 1
310 26 1
310 28 1
310 33 1
310 39 1
310 40 1
310 41 1
310 49 1
310 53 1
310 54 1
310 57 1
310 59 1
310 63 1
310 64 1
310 69 1
310 75 1
310 80 1
310 81 1
310 91 1
310 98 1
310 100 1
310 102 1
310 103 1
310 106 1
310 110 1
310 115 1
310 119 1
310 120 1
310 128 1
310 135 1
310 137 1
310 140 1
310 143 1
310 146 1
310 147 1
310 148 1
310 150 1
310 153 1
310 162 1
310 165 1
310 173 1
310 174 1
310 195 1
310 198 1
310 203 1
310 204 1
310 205 1
310 207 1
310 210 1
310 211 1
310 219 1
310 221 1
310 222 1
310 228 1
310 231 1
310 241 1
310 243 1
310 250 1
310 257 1
310 258 1
310 260 1
310 261 1
310 264 1
310 265 1
310 267 1
310 285 1
310 290 1
310 292 1
310 294 1
310 297 1
310 298 1
310 308 1
310 309 1
310 321 1
310 323 1
310 326 1
310 328 1
310 332 1
310 343 1
310 350 1
310 351 1
310 363 1
310 364 1
310 369 1
310 376 1
310 382 1
310 386 1
310 394 1
310 395 1
310 400 1
310 409 1
310 415 1
310 421 1
310 424 1
310 425 1
310 427 1
310 433 1
310 436 1
310 437 1
310 442 1
310 445 1
310 450 1
310 454 1
310 458 1
310 459 1
310 461 1
310 464 1
310 472 1
310 476 1
310 482 1
310 506 1
310 509 1
310 510 1
310 526 1
310 529 1
310 538 1
310 540 1
310 542 1
310 545 1
310 566 1
310 567 1
310 574 1
310 578 1
310 579 1
310 580 1
310 581 1
310 583 1
310 586 1
310 592 1
311 6 1
311 7 1
311 11 1
311 12 1
311 17 1
311 21 1
311 22 1
311 26 1
311 30 1
311 43 1
311 48 1
311 49 1
311 50 1
311 51 1
311 54 1
311 58 1
311 85 1
311 94 1
311 95 1
311 99 1
311 107 1
311 109 1
311 110 1
311 137 1
311 150 1
311 151 1
311 159 1
311 164 1
311 165 1
311 169 1
311 178 1
311 179 1
311 186 1
311 188 1
311 191 1
311 192 1
311 194 1
311 203 1
311 212 1
311 213 1
311 216 1
311 225 1
311 228 1
311 229 1
311 233 1
311 234 1
311 235 1
311 236 1
311 237 1
311 240 1
311 247 1
311 248 1
311 253 1
311 257 1
311 259 1
311 264 1
311 265 1
311 272 1
311 274 1
311 280 1
311 281 1
311 283 1
311 285 1
311 301 1
311 305 1
311 312 1
311 316 1
311 317 1
311 325 1
311 326 1
311 334 1
311 340 1
311 347 1
311 350 1
311 354 1
311 356 1
311 359 1
311 360 1
311 371 1
311 380 1
311 385 1
311 389 1
311 390 1
311 396 1
311 402 1
311 404 1
311 405 1
311 406 1
311 415 1
311 417 1
311 421 1
311 431 1
311 435 1
311 437 1
311 450 1
311 455 1
311 461 1
311 462 1
311 463 1
311 464 1
311 479 1
311 484 1
311 490 1
311 496 1
311 504 1
311 507 1
311 509 1
311 511 1
311 513 1
311 516 1
311 532 1
311 537 1
311 544 1
311 556 1
311 564 1
311 569 1
311 584 1
311 589 1
312 4 1
312 9 1
312 14 1
312 16 1
312 25 1
312 27 1
312 30 1
312 31 1
312 32 1
312 33 1
312 35 1
312 45 1
312 53 1
312 60 1
312 64 1
312 65 1
312 67 1
312 77 1
312 79 1
312 92 1
312 97 1
312 99 1
312 101 1
312 104 1
312 106 1
312 118 1
312 122 1
312 123 1
312 129 1
312 140 1
312 141 1
312 144 1
312 149 1
312 155 1
312 161 1
312 170 1
312 173 1
312 178 1
312 186 1
312 214 1
312 224 1
312 225 1
312 231 1
312 233 1
312 235 1
312 236 1
312 247 1
312 250 1
312 251 1
312 252 1
312 261 1
312 265 1
312 275 1
312 277 1
312 278 1
312 286 1
312 288 1
312 289 1
312 290 1
312 291 1
312 293 1
312 294 1
312 296 1
312 297 1
312 298 1
312 300 1
312 311 1
312 334 1
312 335 1
312 339 1
312 342 1
312 344 1
312 348 1
312 352 1
312 359 1
312 367 1
312 368 1
312 374 1
312 376 1
312 378 1
312 384 1
312 392 1
312 397 1
312 401 1
312 405 1
312 406 1
312 410 1
312 412 1
312 419 1
312 421 1
312 427 1
312 429 1
312 433 1
312 443 1
312 455 1
312 465 1
312 466 1
312 474 1
312 481 1
312 503 1
312 509 1
312 516 1
312 520 1
312 521 1
312 523 1
312 538 1
312 556 1
312 560 1
312 563 1
312 566 1
312 570 1
312 572 1
312 584 1
313 6 1
313 17 1
313 25 1
313 44 1
313 51 1
313 58 1
313 60 1
313 61 1
313 63 1
313 67 1
313 69 1
313 70 1
313 72 1
313 76 1
313 78 1
313 83 1
313 87 1
313 88 1
313 90 1
313 94 1
313 98 1
313 111 1
313 116 1
313 128 1
313 132 1
313 135 1
313 138 1
313 140 1
313 141 1
313 142 1
313 147 1
313 149 1
313 151 1
313 159 1
313 170 1
313 173 1
313 175 1
313 181 1
313 188 1
313 198 1
313 206 1
313 214 1
313 215 1
313 225 1
313 227 1
313 228 1
313 230 1
313 231 1
313 236 1
313 238 1
313 244 1
313 247 1
313 252 1
313 261 1
313 269 1
313 270 1
313 271 1
313 285 1
313 297 1
313 300 1
313 309 1
313 315 1
313 321 1
313 326 1
313 331 1
313 333 1
313 338 1
313 352 1
313 358 1
313 361 1
313 363 1
313 365 1
313 367 1
313 370 1
313 371 1
313 375 1
313 378 1
313 387 1
313 393 1
313 400 1
313 407 1
313 410 1
313 412 1
313 417 1
313 421 1
313 427 1
313 439 1
313 444 1
313 445 1
313 448 1
313 453 1
313 465 1
313 470 1
313 471 1
313 481 1
313 482 1
313 483 1
313 486 1
313 497 1
313 498 1
313 509 1
313 513 1
313 514 1
313 521 1
313 522 1
313 524 1
313 530 1
313 532 1
313 534 1
313 535 1
313 536 1
313 539 1
313 551 1
313 554 1
313 555 1
313 561 1
313 566 1
313 571 1
313 580 1
313 588 1
313 592 1
314 10 1
314 14 1
314 17 1
314 31 1
314 36 1
314 37 1
314 43 1
314 46 1
314 49 1
314 52 1
314 53 1
314 62 1
314 64 1
314 65 1
314 66 1
314 69 1
314 78 1
314 82 1
314 84 1
314 88 1
314 91 1
314 94 1
314 97 1
314 98 1
314 101 1
314 103 1
314 104 1
314 125 1
314 128 1
314 145 1
314 148 1
314 150 1
314 158 1
314 160 1
314 161 1
314 162 1
314 163 1
314 164 1
314 168 1
314 169 1
314 173 1
314 178 1
314 184 1
314 187 1
314 211 1
314 212 1
314 220 1
314 225 1
314 229 1
314 230 1
314 238 1
314 243 1
314 245 1
314 247 1
314 248 1
314 254 1
314 263 1
314 274 1
314 277 1
314 279 1
314 281 1
314 282 1
314 288 1
314 298 1
314 299 1
314 303 1
314 305 1
314 318 1
314 321 1
314 322 1
314 323 1
314 325 1
314 327 1
314 328 1
314 332 1
314 333 1
314 334 1
314 336 1
314 338 1
314 346 1
314 351 1
314 358 1
314 367 1
314 368 1
314 370 1
314 375 1
314 378 1
314 387 1
314 391 1
314 395 1
314 401 1
314 405 1
314 414 1
314 415 1
314 420 1
314 425 1
314 428 1
314 430 1
314 440 1
314 445 1
314 449 1
314 451 1
314 452 1
314 457 1
314 467 1
314 476 1
314 478 1
314 480 1
314 481 1
314 484 1
314 485 1
314 487 1
314 493 1
314 501 1
314 503 1
314 505 1
314 506 1
314 510 1
314 515 1
314 517 1
314 521 1
314 525 1
314 532 1
314 542 1
314 543 1
314 544 1
314 545 1
314 550 1
314 553 1
314 555 1
314 560 1
314 561 1
314 564 1
314 566 1
314 568 1
314 579 1
314 580 1
314 584 1
314 598 1
315 2 1
315 9 1
315 18 1
315 20 1
315 27 1
315 30 1
315 31 1
315 33 1
315 35 1
315 37 1
315 39 1
315 42 1
315 43 1
315 67 1
315 75 1
315 93 1
315 95 1
315 97 1
315 98 1
315 103 1
315 110 1
315 113 1
315 127 1
315 134 1
315 138 1
315 144 1
315 146 1
315 149 1
315 157 1
315 164 1
315 165 1
315 166 1
315 168 1
315 173 1
315 193 1
315 194 1
315 202 1
315 204 1
315 211 1
315 214 1
315 219 1
315 236 1
315 237 1
315 241 1
315 242 1
315 250 1
315 253 1
315 265 1
315 267 1
315 272 1
315 273 1
315 274 1
315 279 1
315 281 1
315 285 1
315 296 1
315 305 1
315 307 1
315 308 1
315 309 1
315 313 1
315 316 1
315 331 1
315 334 1
315 335 1
315 342 1
315 343 1
315 344 1
315 357 1
315 363 1
315 364 1
315 368 1
315 369 1
315 378 1
315 379 1
315 380 1
315 388 1
315 397 1
315 402 1
315 407 1
315 412 1
315 414 1
315 417 1
315 419 1
315 424 1
315 428 1
315 430 1
315 432 1
315 436 1
315 439 1
315 444 1
315 448 1
315 454 1
315 475 1
315 487 1
315 489 1
315 490 1
315 506 1
315 515 1
315 523 1
315 530 1
315 533 1
315 549 1
315 553 1
315 566 1
315 568 1
315 575 1
315 583 1
315 584 1
315 588 1
315 589 1
315 591 1
316 4 1
316 8 1
316 11 1
316 14 1
316 18 1
316 19 1
316 20 1
316 24 1
316 25 1
316 29 1
316 39 1
316 47 1
316 62 1
316 65 1
316 86 1
316 97 1
316 98 1
316 100 1
316 112 1
316 114 1
316 115 1
316 119 1
316 120 1
316 122 1
316 128 1
316 129 1
316 135 1
316 137 1
316 138 1
316 139 1
316 140 1
316 142 1
316 146 1
316 147 1
316 149 1
316 154 1
316 161 1
316 162 1
316 168 1
316 169 1
316 175 1
316 184 1
316 185 1
316 187 1
316 188 1
316 197 1
316 213 1
316 217 1
316 221 1
316 227 1
316 238 1
316 261 1
316 262 1
316 265 1
316 269 1
316 271 1
316 274 1
316 281 1
316 295 1
316 302 1
316 306 1
316 308 1
316 311 1
316 315 1
316 326 1
316 346 1
316 358 1
316 370 1
316 374 1
316 378 1
316 383 1
316 386 1
316 399 1
316 400 1
316 401 1
316 416 1
316 421 1
316 425 1
316 427 1
316 438 1
316 439 1
316 442 1
316 446 1
316 451 1
316 454 1
316 456 1
316 458 1
316 466 1
316 467 1
316 471 1
316 472 1
316 476 1
316 483 1
316 492 1
316 500 1
316 503 1
316 508 1
316 514 1
316 526 1
316 531 1
316 536 1
316 539 1
316 541 1
316 542 1
316 546 1
316 549 1
316 551 1
316 552 1
316 558 1
316 560 1
316 566 1
316 570 1
316 580 1
316 583 1
316 589 1
316 591 1
316 596 1
317 2 1
317 7 1
317 9 1
317 15 1
317 17 1
317 20 1
317 23 1
317 26 1
317 27 1
317 30 1
317 36 1
317 40 1
317 50 1
317 53 1
317 57 1
317 63 1
317 71 1
317 83 1
317 88 1
317 94 1
317 101 1
317 107 1
317 108 1
317 117 1
317 124 1
317 129 1
317 130 1
317 142 1
317 146 1
317 154 1
317 156 1
317 161 1
317 165 1
317 166 1
317 167 1
317 169 1
317 170 1
317 191 1
317 200 1
317 205 1
317 206 1
317 213 1
317 222 1
317 225 1
317 227 1
317 234 1
317 243 1
317 244 1
317 253 1
317 259 1
317 264 1
317 270 1
317 273 1
317 276 1
317 277 1
317 288 1
317 289 1
317 290 1
317 296 1
317 311 1
317 323 1
317 327 1
317 328 1
317 334 1
317 341 1
317 356 1
317 359 1
317 362 1
317 364 1
317 371 1
317 383 1
317 389 1
317 390 1
317 391 1
317 394 1
317 401 1
317 404 1
317 406 1
317 411 1
317 412 1
317 414 1
317 416 1
317 417 1
317 423 1
317 430 1
317 432 1
317 444 1
317 466 1
317 472 1
317 486 1
317 490 1
317 493 1
317 496 1
317 501 1
317 504 1
317 505 1
317 507 1
317 515 1
317 525 1
317 531 1
317 549 1
317 550 1
317 551 1
317 559 1
317 560 1
317 563 1
317 566 1
317 567 1
317 573 1
317 598 1
317 599 1
317 600 1
318 1 1
318 7 1
318 8 1
318 9 1
318 11 1
318 14 1
318 18 1
318 19 1
318 26 1
318 38 1
318 39 1
318 45 1
318 52 1
318 58 1
318 59 1
318 65 1
318 70 1
318 72 1
318 74 1
318 78 1
318 79 1
318 81 1
318 83 1
318 88 1
318 95 1
318 101 1
318 103 1
318 104 1
318 105 1
318 112 1
318 123 1
318 125 1
318 136 1
318 137 1
318 139 1
318 140 1
318 143 1
318 145 1
318 146 1
318 147 1
318 148 1
318 149 1
318 150 1
318 156 1
318 157 1
318 158 1
318 173 1
318 177 1
318 184 1
318 188 1
318 193 1
318 229 1
318 242 1
318 251 1
318 253 1
318 256 1
318 258 1
318 266 1
318 278 1
318 281 1
318 291 1
318 295 1
318 298 1
318 301 1
318 303 1
318 309 1
318 314 1
318 319 1
318 322 1
318 325 1
318 332 1
318 344 1
318 351 1
318 355 1
318 358 1
318 368 1
318 386 1
318 391 1
318 396 1
318 397 1
318 398 1
318 406 1
318 411 1
318 423 1
318 425 1
318 428 1
318 432 1
318 433 1
318 434 1
318 442 1
318 448 1
318 458 1
318 467 1
318 468 1
318 470 1
318 486 1
318 492 1
318 494 1
318 495 1
318 498 1
318 503 1
318 511 1
318 519 1
318 521 1
318 524 1
318 530 1
318 536 1
318 544 1
318 554 1
318 565 1
318 567 1
318 571 1
318 579 1
318 583 1
318 587 1
318 588 1
318 591 1
318 592 1
318 594 1
318 595 1
319 4 1
319 8 1
319 9 1
319 23 1
319 28 1
319 30 1
319 38 1
319 41 1
319 47 1
319 58 1
319 61 1
319 62 1
319 63 1
319 65 1
319 76 1
319 77 1
319 91 1
319 96 1
319 101 1
319 106 1
319 115 1
319 118 1
319 124 1
319 126 1
319 127 1
319 128 1
319 130 1
319 131 1
319 132 1
319 138 1
319 149 1
319 150 1
319 155 1
319 156 1
319 164 1
319 165 1
319 168 1
319 170 1
319 172 1
319 174 1
319 179 1
319 183 1
319 185 1
319 188 1
319 217 1
319 221 1
319 227 1
319 228 1
319 235 1
319 245 1
319 246 1
319 254 1
319 255 1
319 263 1
319 265 1
319 274 1
319 283 1
319 296 1
319 298 1
319 301 1
319 302 1
319 303 1
319 318 1
319 330 1
319 333 1
319 334 1
319 344 1
319 348 1
319 349 1
319 352 1
319 354 1
319 357 1
319 360 1
319 372 1
319 373 1
319 381 1
319 383 1
319 402 1
319 403 1
319 406 1
319 412 1
319 419 1
319 421 1
319 433 1
319 445 1
319 456 1
319 457 1
319 459 1
319 464 1
319 465 1
319 467 1
319 468 1
319 471 1
319 476 1
319 484 1
319 486 1
319 487 1
319 488 1
319 491 1
319 493 1
319 495 1
319 496 1
319 501 1
319 513 1
319 517 1
319 519 1
319 522 1
319 527 1
319 531 1
319 539 1
319 540 1
319 542 1
319 545 1
319 569 1
319 571 1
319 573 1
319 575 1
319 577 1
319 582 1
319 587 1
319 588 1
319 589 1
319 597 1
319 600 1
320 1 1
320 11 1
320 27 1
320 28 1
320 31 1
320 37 1
320 38 1
320 39 1
320 51 1
320 59 1
320 64 1
320 68 1
320 75 1
320 83 1
320 90 1
320 95 1
320 106 1
320 112 1
320 114 1
320 116 1
320 139 1
320 140 1
320 146 1
320 151 1
320 156 1
320 157 1
320 162 1
320 172 1
320 179 1
320 184 1
320 190 1
320 201 1
320 206 1
320 207 1
320 208 1
320 212 1
320 223 1
320 227 1
320 232 1
320 250 1
320 254 1
320 263 1
320 264 1
320 265 1
320 272 1
320 290 1
320 295 1
320 297 1
320 298 1
320 299 1
320 300 1
320 322 1
320 332 1
320 333 1
320 334 1
320 336 1
320 339 1
320 340 1
320 342 1
320 344 1
320 346 1
320 351 1
320 358 1
320 360 1
320 365 1
320 373 1
320 379 1
320 381 1
320 389 1
320 398 1
320 402 1
320 405 1
320 406 1
320 409 1
320 421 1
320 426 1
320 445 1
320 453 1
320 461 1
320 462 1
320 473 1
320 475 1
320 482 1
320 488 1
320 496 1
320 498 1
320 502 1
320 504 1
320 506 1
320 511 1
320 513 1
320 520 1
320 522 1
320 527 1
320 530 1
320 533 1
320 543 1
320 547 1
320 551 1
320 556 1
320 558 1
320 559 1
320 560 1
320 562 1
320 564 1
320 565 1
320 568 1
320 569 1
320 570 1
320 574 1
320 577 1
320 579 1
320 589 1
321 3 1
321 5 1
321 10 1
321 26 1
321 28 1
321 29 1
321 34 1
321 36 1
321 37 1
321 42 1
321 43 1
321 46 1
321 49 1
321 51 1
321 53 1
321 55 1
321 58 1
321 62 1
321 64 1
321 74 1
321 78 1
321 83 1
321 84 1
321 85 1
321 93 1
321 98 1
321 99 1
321 101 1
321 104 1
321 114 1
321 119 1
321 125 1
321 131 1
321 141 1
321 158 1
321 159 1
321 160 1
321 163 1
321 174 1
321 176 1
321 180 1
321 191 1
321 197 1
321 198 1
321 204 1
321 206 1
321 207 1
321 210 1
321 212 1
321 222 1
321 225 1
321 231 1
321 232 1
321 242 1
321 245 1
321 249 1
321 251 1
321 253 1
321 254 1
321 255 1
321 257 1
321 258 1
321 259 1
321 261 1
321 264 1
321 269 1
321 281 1
321 283 1
321 284 1
321 291 1
321 295 1
321 304 1
321 310 1
321 313 1
321 314 1
321 326 1
321 331 1
321 342 1
321 346 1
321 349 1
321 351 1
321 355 1
321 356 1
321 357 1
321 361 1
321 365 1
321 368 1
321 373 1
321 375 1
321 379 1
321 382 1
321 394 1
321 397 1
321 398 1
321 405 1
321 423 1
321 425 1
321 438 1
321 452 1
321 456 1
321 464 1
321 465 1
321 469 1
321 474 1
321 476 1
321 482 1
321 486 1
321 487 1
321 489 1
321 490 1
321 501 1
321 508 1
321 516 1
321 527 1
321 528 1
321 533 1
321 534 1
321 535 1
321 549 1
321 555 1
321 556 1
321 558 1
321 561 1
321 563 1
321 566 1
321 572 1
321 576 1
321 586 1
322 3 1
322 8 1
322 9 1
322 11 1
322 13 1
322 15 1
322 17 1
322 31 1
322 42 1
322 43 1
322 51 1
322 53 1
322 56 1
322 58 1
322 59 1
322 61 1
322 70 1
322 71 1
322 73 1
322 74 1
322 83 1
322 88 1
322 89 1
322 98 1
322 115 1
322 127 1
322 132 1
322 133 1
322 143 1
322 144 1
322 146 1
322 147 1
322 150 1
322 151 1
322 153 1
322 159 1
322 160 1
322 161 1
322 173 1
322 182 1
322 184 1
322 188 1
322 196 1
322 200 1
322 201 1
322 207 1
322 227 1
322 230 1
322 232 1
322 244 1
322 249 1
322 250 1
322 251 1
322 256 1
322 260 1
322 265 1
322 274 1
322 276 1
322 280 1
322 295 1
322 302 1
322 314 1
322 318 1
322 320 1
322 329 1
322 330 1
322 336 1
322 343 1
322 354 1
322 360 1
322 365 1
322 371 1
322 389 1
322 390 1
322 391 1
322 399 1
322 402 1
322 405 1
322 410 1
322 422 1
322 438 1
322 439 1
322 448 1
322 460 1
322 470 1
322 473 1
322 475 1
322 478 1
322 492 1
322 505 1
322 508 1
322 512 1
322 526 1
322 531 1
322 534 1
322 539 1
322 540 1
322 541 1
322 543 1
322 546 1
322 547 1
322 550 1
322 551 1
322 557 1
322 560 1
322 562 1
322 563 1
322 573 1
322 581 1
322 585 1
322 591 1
323 3 1
323 7 1
323 9 1
323 13 1
323 15 1
323 17 1
323 20 1
323 21 1
323 25 1
323 31 1
323 40 1
323 44 1
323 48 1
323 50 1
323 52 1
323 56 1
323 70 1
323 83 1
323 91 1
323 92 1
323 101 1
323 102 1
323 115 1
323 116 1
323 121 1
323 126 1
323 128 1
323 132 1
323 137 1
323 153 1
323 167 1
323 169 1
323 176 1
323 178 1
323 185 1
323 189 1
323 192 1
323 195 1
323 198 1
323 203 1
323 205 1
323 206 1
323 208 1
323 212 1
323 215 1
323 218 1
323 219 1
323 239 1
323 242 1
323 247 1
323 272 1
323 280 1
323 283 1
323 297 1
323 298 1
323 299 1
323 302 1
323 303 1
323 307 1
323 310 1
323 314 1
323 317 1
323 324 1
323 325 1
323 326 1
323 329 1
323 335 1
323 348 1
323 349 1
323 351 1
323 354 1
323 355 1
323 356 1
323 368 1
323 369 1
323 370 1
323 371 1
323 377 1
323 379 1
323 384 1
323 385 1
323 393 1
323 405 1
323 411 1
323 416 1
323 425 1
323 432 1
323 457 1
323 458 1
323 461 1
323 462 1
323 476 1
323 480 1
323 488 1
323 489 1
323 491 1
323 496 1
323 509 1
323 514 1
323 518 1
323 535 1
323 536 1
323 540 1
323 545 1
323 547 1
323 556 1
323 558 1
323 562 1
323 564 1
323 572 1
323 576 1
323 580 1
323 582 1
323 583 1
323 589 1
323 590 1
323 596 1
324 1 1
324 2 1
324 4 1
324 7 1
324 11 1
324 14 1
324 26 1
324 30 1
324 35 1
324 39 1
324 43 1
324 47 1
324 48 1
324 50 1
324 61 1
324 66 1
324 73 1
324 77 1
324 81 1
324 83 1
324 84 1
324 87 1
324 92 1
324 94 1
324 95 1
324 101 1
324 106 1
324 113 1
324 118 1
324 121 1
324 122 1
324 124 1
324 137 1
324 138 1
324 140 1
324 149 1
324 158 1
324 164 1
324 166 1
324 167 1
324 170 1
324 172 1
324 179 1
324 184 1
324 197 1
324 208 1
324 213 1
324 217 1
324 222 1
324 225 1
324 226 1
324 230 1
324 232 1
324 236 1
324 238 1
324 240 1
324 248 1
324 253 1
324 255 1
324 257 1
324 260 1
324 266 1
324 267 1
324 272 1
324 278 1
324 280 1
324 283 1
324 290 1
324 292 1
324 295 1
324 302 1
324 306 1
324 323 1
324 326 1
324 328 1
324 333 1
324 342 1
324 356 1
324 367 1
324 374 1
324 375 1
324 376 1
324 377 1
324 378 1
324 379 1
324 380 1
324 385 1
324 396 1
324 404 1
324 413 1
324 423 1
324 430 1
324 435 1
324 438 1
324 439 1
324 445 1
324 446 1
324 447 1
324 448 1
324 449 1
324 468 1
324 477 1
324 482 1
324 486 1
324 489 1
324 493 1
324 496 1
324 500 1
324 504 1
324 512 1
324 514 1
324 518 1
324 519 1
324 521 1
324 522 1
324 524 1
324 543 1
324 546 1
324 547 1
324 553 1
324 560 1
324 563 1
324 565 1
324 569 1
324 573 1
324 585 1
324 592 1
324 598 1
324 600 1
325 7 1
325 23 1
325 24 1
325 28 1
325 39 1
325 40 1
325 42 1
325 44 1
325 46 1
325 51 1
325 55 1
325 64 1
325 65 1
325 66 1
325 80 1
325 81 1
325 82 1
325 87 1
325 95 1
325 97 1
325 102 1
325 103 1
325 105 1
325 111 1
325 112 1
325 134 1
325 154 1
325 155 1
325 156 1
325 160 1
325 167 1
325 175 1
325 178 1
325 180 1
325 184 1
325 190 1
325 196 1
325 199 1
325 206 1
325 207 1
325 209 1
325 211 1
325 212 1
325 215 1
325 216 1
325 229 1
325 246 1
325 251 1
325 252 1
325 261 1
325 274 1
325 280 1
325 288 1
325 292 1
325 294 1
325 298 1
325 299 1
325 301 1
325 302 1
325 305 1
325 307 1
325 308 1
325 311 1
325 314 1
325 318 1
325 323 1
325 330 1
325 332 1
325 342 1
325 344 1
325 348 1
325 353 1
325 368 1
325 369 1
325 373 1
325 381 1
325 387 1
325 391 1
325 394 1
325 397 1
325 403 1
325 407 1
325 412 1
325 414 1
325 415 1
325 418 1
325 419 1
325 421 1
325 437 1
325 439 1
325 440 1
325 441 1
325 442 1
325 444 1
325 448 1
325 453 1
325 455 1
325 461 1
325 462 1
325 479 1
325 481 1
325 486 1
325 502 1
325 507 1
325 510 1
325 511 1
325 514 1
325 518 1
325 532 1
325 546 1
325 547 1
325 548 1
325 549 1
325 554 1
325 555 1
325 558 1
325 570 1
325 577 1
325 578 1
325 580 1
325 582 1
325 594 1
326 3 1
326 5 1
326 10 1
326 12 1
326 17 1
326 19 1
326 25 1
326 31 1
326 49 1
326 52 1
326 63 1
326 64 1
326 67 1
326 68 1
326 71 1
326 73 1
326 75 1
326 76 1
326 86 1
326 94 1
326 101 1
326 103 1
326 108 1
326 109 1
326 112 1
326 115 1
326 129 1
326 130 1
326 136 1
326 142 1
326 144 1
326 151 1
326 152 1
326 154 1
326 156 1
326 157 1
326 170 1
326 175 1
326 176 1
326 183 1
326 188 1
326 192 1
326 207 1
326 208 1
326 214 1
326 218 1
326 221 1
326 228 1
326 236 1
326 241 1
326 248 1
326 253 1
326 255 1
326 256 1
326 260 1
326 262 1
326 263 1
326 264 1
326 268 1
326 273 1
326 276 1
326 280 1
326 282 1
326 284 1
326 288 1
326 298 1
326 310 1
326 311 1
326 313 1
326 316 1
326 321 1
326 323 1
326 324 1
326 342 1
326 345 1
326 346 1
326 352 1
326 355 1
326 356 1
326 368 1
326 373 1
326 375 1
326 376 1
326 379 1
326 404 1
326 406 1
326 407 1
326 412 1
326 414 1
326 419 1
326 423 1
326 428 1
326 429 1
326 435 1
326 438 1
326 440 1
326 442 1
326 453 1
326 455 1
326 461 1
326 462 1
326 470 1
326 477 1
326 481 1
326 483 1
326 484 1
326 486 1
326 488 1
326 491 1
326 517 1
326 524 1
326 526 1
326 530 1
326 540 1
326 541 1
326 543 1
326 544 1
326 551 1
326 554 1
326 577 1
326 591 1
327 2 1
327 3 1
327 4 1
327 13 1
327 15 1
327 18 1
327 23 1
327 24 1
327 26 1
327 32 1
327 33 1
327 36 1
327 39 1
327 48 1
327 51 1
327 53 1
327 55 1
327 59 1
327 64 1
327 66 1
327 68 1
327 71 1
327 72 1
327 87 1
327 90 1
327 100 1
327 101 1
327 106 1
327 110 1
327 115 1
327 122 1
327 124 1
327 125 1
327 130 1
327 134 1
327 144 1
327 147 1
327 148 1
327 150 1
327 153 1
327 165 1
327 174 1
327 178 1
327 184 1
327 191 1
327 196 1
327 205 1
327 211 1
327 215 1
327 225 1
327 228 1
327 230 1
327 234 1
327 241 1
327 244 1
327 248 1
327 261 1
327 271 1
327 277 1
327 280 1
327 281 1
327 289 1
327 291 1
327 301 1
327 314 1
327 317 1
327 329 1
327 330 1
327 331 1
327 332 1
327 341 1
327 346 1
327 353 1
327 355 1
327 361 1
327 366 1
327 372 1
327 373 1
327 380 1
327 387 1
327 395 1
327 399 1
327 429 1
327 430 1
327 439 1
327 467 1
327 469 1
327 471 1
327 478 1
327 480 1
327 485 1
327 488 1
327 489 1
327 495 1
327 499 1
327 506 1
327 510 1
327 511 1
327 516 1
327 517 1
327 522 1
327 524 1
327 527 1
327 530 1
327 533 1
327 542 1
327 544 1
327 545 1
327 556 1
327 558 1
327 563 1
327 564 1
327 565 1
327 568 1
327 576 1
327 578 1
327 581 1
327 582 1
327 585 1
327 587 1
327 598 1
328 3 1
328 5 1
328 17 1
328 22 1
328 28 1
328 33 1
328 39 1
328 41 1
328 49 1
328 50 1
328 54 1
328 61 1
328 63 1
328 65 1
328 70 1
328 73 1
328 76 1
328 80 1
328 85 1
328 105 1
328 106 1
328 113 1
328 114 1
328 121 1
328 127 1
328 131 1
328 134 1
328 137 1
328 151 1
328 152 1
328 154 1
328 159 1
328 160 1
328 165 1
328 169 1
328 173 1
328 174 1
328 178 1
328 188 1
328 193 1
328 194 1
328 197 1
328 200 1
328 211 1
328 213 1
328 214 1
328 215 1
328 216 1
328 229 1
328 242 1
328 243 1
328 250 1
328 253 1
328 261 1
328 264 1
328 273 1
328 280 1
328 287 1
328 292 1
328 299 1
328 302 1
328 303 1
328 310 1
328 314 1
328 317 1
328 324 1
328 330 1
328 331 1
328 338 1
328 340 1
328 349 1
328 350 1
328 353 1
328 367 1
328 368 1
328 370 1
328 378 1
328 398 1
328 399 1
328 403 1
328 409 1
328 414 1
328 418 1
328 429 1
328 443 1
328 451 1
328 452 1
328 453 1
328 454 1
328 465 1
328 470 1
328 472 1
328 481 1
328 482 1
328 483 1
328 489 1
328 499 1
328 503 1
328 505 1
328 507 1
328 515 1
328 526 1
328 527 1
328 528 1
328 531 1
328 535 1
328 537 1
328 539 1
328 540 1
328 546 1
328 550 1
328 551 1
328 553 1
328 554 1
328 555 1
328 566 1
328 570 1
328 576 1
328 578 1
328 580 1
328 581 1
328 590 1
328 592 1
329 5 1
329 7 1
329 10 1
329 11 1
329 16 1
329 18 1
329 21 1
329 24 1
329 26 1
329 27 1
329 31 1
329 34 1
329 40 1
329 46 1
329 47 1
329 49 1
329 53 1
329 54 1
329 55 1
329 56 1
329 62 1
329 63 1
329 66 1
329 74 1
329 76 1
329 89 1
329 93 1
329 101 1
329 106 1
329 108 1
329 115 1
329 120 1
329 121 1
329 123 1
329 125 1
329 132 1
329 138 1
329 154 1
329 158 1
329 160 1
329 167 1
329 170 1
329 173 1
329 174 1
329 200 1
329 202 1
329 214 1
329 215 1
329 216 1
329 219 1
329 237 1
329 240 1
329 242 1
329 243 1
329 247 1
329 250 1
329 256 1
329 257 1
329 263 1
329 266 1
329 272 1
329 282 1
329 286 1
329 299 1
329 302 1
329 303 1
329 322 1
329 323 1
329 327 1
329 332 1
329 334 1
329 335 1
329 338 1
329 342 1
329 345 1
329 347 1
329 356 1
329 367 1
329 370 1
329 373 1
329 374 1
329 380 1
329 381 1
329 387 1
329 390 1
329 400 1
329 410 1
329 417 1
329 421 1
329 431 1
329 440 1
329 446 1
329 452 1
329 454 1
329 455 1
329 458 1
329 459 1
329 463 1
329 465 1
329 467 1
329 479 1
329 482 1
329 485 1
329 495 1
329 497 1
329 504 1
329 518 1
329 524 1
329 525 1
329 533 1
329 537 1
329 540 1
329 544 1
329 545 1
329 553 1
329 556 1
329 557 1
329 570 1
329 575 1
329 576 1
329 578 1
329 579 1
329 587 1
329 588 1
329 593 1
329 595 1
329 598 1
330 4 1
330 5 1
330 7 1
330 17 1
330 23 1
330 27 1
330 35 1
330 37 1
330 42 1
330 49 1
330 53 1
330 60 1
330 62 1
330 72 1
330 73 1
330 75 1
330 77 1
330 79 1
330 81 1
330 88 1
330 92 1
330 96 1
330 98 1
330 105 1
330 111 1
330 125 1
330 128 1
330 145 1
330 149 1
330 157 1
330 170 1
330 173 1
330 179 1
330 196 1
330 208 1
330 211 1
330 215 1
330 221 1
330 227 1
330 230 1
330 231 1
330 236 1
330 238 1
330 240 1
330 260 1
330 268 1
330 275 1
330 278 1
330 294 1
330 297 1
330 303 1
330 306 1
330 319 1
330 322 1
330 325 1
330 327 1
330 328 1
330 344 1
330 355 1
330 359 1
330 363 1
330 372 1
330 373 1
330 380 1
330 384 1
330 392 1
330 408 1
330 412 1
330 422 1
330 424 1
330 430 1
330 436 1
330 446 1
330 450 1
330 452 1
330 453 1
330 479 1
330 481 1
330 482 1
330 485 1
330 490 1
330 494 1
330 497 1
330 500 1
330 504 1
330 506 1
330 515 1
330 517 1
330 518 1
330 519 1
330 522 1
330 534 1
330 539 1
330 542 1
330 547 1
330 551 1
330 558 1
330 560 1
330 563 1
330 564 1
330 565 1
330 571 1
330 574 1
330 575 1
330 582 1
330 588 1
330 593 1
330 596 1
331 2 1
331 4 1
331 6 1
331 10 1
331 11 1
331 19 1
331 26 1
331 49 1
331 51 1
331 56 1
331 65 1
331 66 1
331 72 1
331 74 1
331 77 1
331 85 1
331 93 1
331 109 1
331 111 1
331 120 1
331 127 1
331 130 1
331 133 1
331 135 1
331 137 1
331 140 1
331 141 1
331 142 1
331 144 1
331 149 1
331 151 1
331 152 1
331 156 1
331 165 1
331 166 1
331 170 1
331 175 1
331 184 1
331 185 1
331 187 1
331 193 1
331 200 1
331 202 1
331 203 1
331 204 1
331 210 1
331 222 1
331 224 1
331 241 1
331 255 1
331 273 1
331 297 1
331 304 1
331 306 1
331 313 1
331 315 1
331 321 1
331 327 1
331 328 1
331 337 1
331 339 1
331 343 1
331 350 1
331 369 1
331 377 1
331 379 1
331 382 1
331 387 1
331 391 1
331 395 1
331 397 1
331 399 1
331 404 1
331 413 1
331 417 1
331 423 1
331 425 1
331 432 1
331 433 1
331 438 1
331 444 1
331 445 1
331 449 1
331 454 1
331 456 1
331 460 1
331 461 1
331 467 1
331 472 1
331 477 1
331 479 1
331 480 1
331 482 1
331 484 1
331 490 1
331 493 1
331 494 1
331 502 1
331 511 1
331 514 1
331 518 1
331 519 1
331 521 1
331 523 1
331 534 1
331 536 1
331 547 1
331 553 1
331 556 1
331 564 1
331 567 1
331 573 1
331 574 1
331 584 1
331 587 1
332 11 1
332 25 1
332 40 1
332 50 1
332 56 1
332 58 1
332 67 1
332 70 1
332 74 1
332 79 1
332 85 1
332 86 1
332 93 1
332 96 1
332 103 1
332 104 1
332 109 1
332 112 1
332 115 1
332 119 1
332 122 1
332 130 1
332 132 1
332 137 1
332 139 1
332 142 1
332 144 1
332 147 1
332 150 1
332 154 1
332 161 1
332 168 1
332 170 1
332 171 1
332 175 1
332 188 1
332 196 1
332 197 1
332 206 1
332 215 1
332 222 1
332 224 1
332 225 1
332 234 1
332 238 1
332 254 1
332 256 1
332 260 1
332 262 1
332 263 1
332 264 1
332 265 1
332 273 1
332 277 1
332 278 1
332 280 1
332 285 1
332 287 1
332 288 1
332 292 1
332 300 1
332 301 1
332 306 1
332 310 1
332 314 1
332 318 1
332 320 1
332 325 1
332 327 1
332 329 1
332 334 1
332 336 1
332 337 1
332 340 1
332 359 1
332 370 1
332 371 1
332 385 1
332 388 1
332 389 1
332 390 1
332 393 1
332 395 1
332 397 1
332 405 1
332 416 1
332 419 1
332 435 1
332 441 1
332 444 1
332 446 1
332 447 1
332 449 1
332 469 1
332 475 1
332 477 1
332 489 1
332 499 1
332 501 1
332 503 1
332 506 1
332 514 1
332 522 1
332 525 1
332 527 1
332 536 1
332 537 1
332 546 1
332 555 1
332 556 1
332 568 1
332 575 1
332 579 1
332 582 1
332 588 1
332 591 1
332 592 1
333 4 1
333 7 1
333 12 1
333 14 1
333 19 1
333 22 1
333 25 1
333 27 1
333 32 1
333 34 1
333 37 1
333 39 1
333 43 1
333 53 1
333 56 1
333 58 1
333 60 1
333 63 1
333 66 1
333 92 1
333 107 1
333 111 1
333 112 1
333 115 1
333 130 1
333 136 1
333 140 1
333 142 1
333 148 1
333 149 1
333 152 1
333 160 1
333 163 1
333 164 1
333 166 1
333 172 1
333 188 1
333 190 1
333 207 1
333 210 1
333 211 1
333 225 1
333 226 1
333 245 1
333 247 1
333 248 1
333 251 1
333 253 1
333 263 1
333 270 1
333 285 1
333 299 1
333 305 1
333 313 1
333 314 1
333 319 1
333 320 1
333 324 1
333 336 1
333 340 1
333 346 1
333 348 1
333 349 1
333 350 1
333 356 1
333 361 1
333 362 1
333 363 1
333 368 1
333 369 1
333 376 1
333 378 1
333 384 1
333 385 1
333 387 1
333 393 1
333 401 1
333 402 1
333 403 1
333 413 1
333 414 1
333 422 1
333 431 1
333 433 1
333 454 1
333 456 1
333 457 1
333 470 1
333 472 1
333 474 1
333 478 1
333 490 1
333 493 1
333 496 1
333 507 1
333 520 1
333 522 1
333 531 1
333 536 1
333 538 1
333 554 1
333 558 1
333 559 1
333 566 1
333 568 1
333 579 1
333 594 1
333 595 1
333 597 1
333 599 1
334 1 1
334 3 1
334 9 1
334 11 1
334 51 1
334 56 1
334 61 1
334 71 1
334 73 1
334 78 1
334 84 1
334 88 1
334 93 1
334 94 1
334 98 1
334 107 1
334 113 1
334 115 1
334 116 1
334 123 1
334 124 1
334 136 1
334 141 1
334 145 1
334 161 1
334 168 1
334 170 1
334 175 1
334 179 1
334 180 1
334 182 1
334 183 1
334 190 1
334 192 1
334 197 1
334 198 1
334 200 1
334 207 1
334 213 1
334 215 1
334 216 1
334 217 1
334 223 1
334 226 1
334 234 1
334 235 1
334 249 1
334 251 1
334 262 1
334 264 1
334 270 1
334 275 1
334 279 1
334 287 1
334 294 1
334 299 1
334 302 1
334 306 1
334 309 1
334 311 1
334 312 1
334 314 1
334 315 1
334 317 1
334 319 1
334 320 1
334 329 1
334 332 1
334 337 1
334 341 1
334 342 1
334 345 1
334 346 1
334 350 1
334 361 1
334 362 1
334 369 1
334 372 1
334 373 1
334 374 1
334 376 1
334 377 1
334 379 1
334 381 1
334 386 1
334 399 1
334 404 1
334 411 1
334 413 1
334 422 1
334 423 1
334 428 1
334 429 1
334 432 1
334 435 1
334 437 1
334 439 1
334 448 1
334 454 1
334 455 1
334 456 1
334 460 1
334 463 1
334 465 1
334 467 1
334 470 1
334 487 1
334 490 1
334 494 1
334 501 1
334 502 1
334 525 1
334 534 1
334 541 1
334 542 1
334 548 1
334 551 1
334 556 1
334 558 1
334 562 1
334 573 1
334 576 1
334 578 1
334 582 1
334 584 1
334 592 1
334 595 1
334 597 1
335 14 1
335 18 1
335 19 1
335 22 1
335 33 1
335 40 1
335 42 1
335 43 1
335 44 1
335 48 1
335 56 1
335 63 1
335 67 1
335 74 1
335 75 1
335 77 1
335 81 1
335 90 1
335 92 1
335 93 1
335 100 1
335 107 1
335 109 1
335 113 1
335 114 1
335 115 1
335 123 1
335 125 1
335 127 1
335 139 1
335 140 1
335 151 1
335 152 1
335 154 1
335 155 1
335 156 1
335 161 1
335 168 1
335 172 1
335 184 1
335 192 1
335 195 1
335 204 1
335 210 1
335 215 1
335 218 1
335 227 1
335 235 1
335 239 1
335 247 1
335 255 1
335 257 1
335 259 1
335 260 1
335 261 1
335 263 1
335 273 1
335 274 1
335 278 1
335 280 1
335 286 1
335 290 1
335 295 1
335 298 1
335 305 1
335 308 1
335 309 1
335 312 1
335 315 1
335 323 1
335 329 1
335 337 1
335 340 1
335 355 1
335 356 1
335 360 1
335 365 1
335 369 1
335 371 1
335 373 1
335 375 1
335 376 1
335 382 1
335 386 1
335 402 1
335 405 1
335 406 1
335 407 1
335 415 1
335 426 1
335 431 1
335 439 1
335 440 1
335 444 1
335 454 1
335 460 1
335 472 1
335 476 1
335 480 1
335 481 1
335 484 1
335 486 1
335 489 1
335 493 1
335 510 1
335 513 1
335 514 1
335 522 1
335 526 1
335 530 1
335 531 1
335 532 1
335 538 1
335 542 1
335 549 1
335 550 1
335 564 1
335 570 1
335 577 1
336 2 1
336 12 1
336 27 1
336 29 1
336 30 1
336 35 1
336 42 1
336 47 1
336 50 1
336 54 1
336 56 1
336 58 1
336 61 1
336 64 1
336 68 1
336 71 1
336 88 1
336 94 1
336 97 1
336 103 1
336 109 1
336 113 1
336 115 1
336 117 1
336 131 1
336 134 1
336 135 1
336 144 1
336 148 1
336 150 1
336 158 1
336 159 1
336 160 1
336 166 1
336 179 1
336 183 1
336 186 1
336 192 1
336 194 1
336 195 1
336 200 1
336 202 1
336 214 1
336 223 1
336 224 1
336 226 1
336 236 1
336 237 1
336 241 1
336 242 1
336 246 1
336 247 1
336 248 1
336 250 1
336 251 1
336 253 1
336 257 1
336 271 1
336 273 1
336 277 1
336 278 1
336 280 1
336 283 1
336 298 1
336 303 1
336 308 1
336 314 1
336 320 1
336 322 1
336 332 1
336 333 1
336 339 1
336 342 1
336 343 1
336 354 1
336 355 1
336 361 1
336 364 1
336 366 1
336 371 1
336 374 1
336 379 1
336 381 1
336 386 1
336 391 1
336 393 1
336 403 1
336 407 1
336 408 1
336 411 1
336 413 1
336 416 1
336 417 1
336 424 1
336 425 1
336 430 1
336 444 1
336 453 1
336 466 1
336 467 1
336 473 1
336 482 1
336 490 1
336 497 1
336 500 1
336 507 1
336 508 1
336 513 1
336 517 1
336 525 1
336 533 1
336 539 1
336 542 1
336 547 1
336 553 1
336 559 1
336 562 1
336 569 1
336 572 1
336 580 1
336 582 1
336 588 1
336 590 1
336 592 1
337 1 1
337 10 1
337 12 1
337 14 1
337 15 1
337 19 1
337 20 1
337 24 1
337 44 1
337 47 1
337 52 1
337 53 1
337 54 1
337 56 1
337 57 1
337 64 1
337 72 1
337 74 1
337 77 1
337 79 1
337 80 1
337 96 1
337 100 1
337 101 1
337 102 1
337 103 1
337 106 1
337 110 1
337 118 1
337 119 1
337 120 1
337 132 1
337 133 1
337 138 1
337 145 1
337 155 1
337 160 1
337 162 1
337 168 1
337 170 1
337 180 1
337 182 1
337 185 1
337 198 1
337 206 1
337 216 1
337 225 1
337 232 1
337 241 1
337 243 1
337 249 1
337 254 1
337 259 1
337 264 1
337 270 1
337 279 1
337 282 1
337 283 1
337 284 1
337 288 1
337 302 1
337 308 1
337 331 1
337 332 1
337 334 1
337 335 1
337 341 1
337 352 1
337 354 1
337 355 1
337 363 1
337 381 1
337 383 1
337 390 1
337 398 1
337 410 1
337 411 1
337 412 1
337 419 1
337 423 1
337 432 1
337 436 1
337 438 1
337 441 1
337 447 1
337 448 1
337 461 1
337 464 1
337 467 1
337 473 1
337 485 1
337 495 1
337 497 1
337 500 1
337 503 1
337 504 1
337 507 1
337 508 1
337 509 1
337 518 1
337 528 1
337 530 1
337 531 1
337 532 1
337 543 1
337 544 1
337 550 1
337 553 1
337 554 1
337 569 1
337 573 1
337 574 1
337 575 1
337 578 1
337 579 1
337 581 1
337 584 1
337 592 1
337 594 1
337 598 1
337 599 1
338 4 1
338 16 1
338 24 1
338 26 1
338 35 1
338 42 1
338 44 1
338 45 1
338 48 1
338 57 1
338 58 1
338 60 1
338 65 1
338 67 1
338 75 1
338 77 1
338 82 1
338 84 1
338 85 1
338 90 1
338 93 1
338 94 1
338 97 1
338 99 1
338 101 1
338 103 1
338 108 1
338 114 1
338 117 1
338 118 1
338 125 1
338 130 1
338 135 1
338 139 1
338 144 1
338 149 1
338 150 1
338 158 1
338 163 1
338 169 1
338 171 1
338 187 1
338 189 1
338 193 1
338 196 1
338 198 1
338 202 1
338 204 1
338 214 1
338 216 1
338 220 1
338 222 1
338 223 1
338 231 1
338 236 1
338 241 1
338 250 1
338 251 1
338 257 1
338 271 1
338 275 1
338 277 1
338 280 1
338 290 1
338 292 1
338 295 1
338 306 1
338 313 1
338 314 1
338 328 1
338 329 1
338 339 1
338 347 1
338 354 1
338 366 1
338 368 1
338 369 1
338 370 1
338 373 1
338 374 1
338 377 1
338 381 1
338 388 1
338 389 1
338 393 1
338 394 1
338 406 1
338 408 1
338 409 1
338 410 1
338 417 1
338 424 1
338 425 1
338 430 1
338 453 1
338 455 1
338 459 1
338 461 1
338 463 1
338 472 1
338 475 1
338 480 1
338 489 1
338 490 1
338 492 1
338 500 1
338 507 1
338 510 1
338 518 1
338 522 1
338 525 1
338 536 1
338 542 1
338 544 1
338 546 1
338 549 1
338 566 1
338 568 1
338 573 1
338 579 1
338 580 1
338 585 1
338 586 1
338 587 1
338 597 1
339 2 1
339 3 1
339 6 1
339 9 1
339 15 1
339 16 1
339 18 1
339 21 1
339 29 1
339 34 1
339 35 1
339 44 1
339 49 1
339 61 1
339 65 1
339 66 1
339 70 1
339 82 1
339 83 1
339 84 1
339 93 1
339 95 1
339 100 1
339 108 1
339 109 1
339 113 1
339 117 1
339 118 1
339 121 1
339 123 1
339 134 1
339 135 1
339 139 1
339 143 1
339 146 1
339 153 1
339 157 1
339 158 1
339 163 1
339 164 1
339 168 1
339 171 1
339 183 1
339 186 1
339 196 1
339 198 1
339 203 1
339 216 1
339 223 1
339 225 1
339 232 1
339 236 1
339 241 1
339 242 1
339 244 1
339 247 1
339 255 1
339 259 1
339 273 1
339 277 1
339 278 1
339 281 1
339 283 1
339 286 1
339 302 1
339 305 1
339 306 1
339 312 1
339 320 1
339 331 1
339 336 1
339 338 1
339 340 1
339 350 1
339 351 1
339 355 1
339 358 1
339 364 1
339 372 1
339 374 1
339 398 1
339 405 1
339 408 1
339 418 1
339 428 1
339 445 1
339 446 1
339 448 1
339 463 1
339 464 1
339 468 1
339 470 1
339 478 1
339 485 1
339 490 1
339 496 1
339 499 1
339 500 1
339 504 1
339 512 1
339 518 1
339 522 1
339 525 1
339 543 1
339 555 1
339 556 1
339 558 1
339 565 1
339 573 1
339 583 1
339 594 1
339 599 1
340 28 1
340 31 1
340 34 1
340 39 1
340 45 1
340 49 1
340 57 1
340 71 1
340 76 1
340 77 1
340 81 1
340 83 1
340 115 1
340 119 1
340 121 1
340 123 1
340 126 1
340 135 1
340 137 1
340 140 1
340 150 1
340 152 1
340 153 1
340 163 1
340 175 1
340 176 1
340 177 1
340 178 1
340 180 1
340 181 1
340 182 1
340 187 1
340 190 1
340 191 1
340 202 1
340 205 1
340 206 1
340 207 1
340 221 1
340 224 1
340 226 1
340 243 1
340 248 1
340 252 1
340 259 1
340 262 1
340 267 1
340 268 1
340 277 1
340 282 1
340 285 1
340 288 1
340 298 1
340 300 1
340 301 1
340 311 1
340 320 1
340 328 1
340 332 1
340 333 1
340 335 1
340 339 1
340 343 1
340 347 1
340 350 1
340 359 1
340 381 1
340 385 1
340 390 1
340 395 1
340 401 1
340 407 1
340 416 1
340 436 1
340 437 1
340 443 1
340 448 1
340 451 1
340 458 1
340 460 1
340 463 1
340 468 1
340 469 1
340 470 1
340 474 1
340 477 1
340 479 1
340 483 1
340 486 1
340 498 1
340 511 1
340 522 1
340 531 1
340 544 1
340 562 1
340 576 1
340 581 1
340 586 1
340 589 1
341 6 1
341 8 1
341 18 1
341 31 1
341 35 1
341 39 1
341 43 1
341 47 1
341 54 1
341 57 1
341 61 1
341 64 1
341 66 1
341 78 1
341 85 1
341 90 1
341 95 1
341 97 1
341 99 1
341 107 1
341 108 1
341 119 1
341 121 1
341 139 1
341 147 1
341 151 1
341 159 1
341 160 1
341 171 1
341 174 1
341 176 1
341 177 1
341 179 1
341 187 1
341 188 1
341 189 1
341 190 1
341 193 1
341 197 1
341 208 1
341 211 1
341 213 1
341 214 1
341 215 1
341 225 1
341 226 1
341 234 1
341 235 1
341 240 1
341 257 1
341 258 1
341 262 1
341 263 1
341 265 1
341 268 1
341 269 1
341 276 1
341 281 1
341 282 1
341 286 1
341 287 1
341 288 1
341 296 1
341 298 1
341 299 1
341 303 1
341 304 1
341 309 1
341 317 1
341 327 1
341 334 1
341 337 1
341 342 1
341 347 1
341 349 1
341 353 1
341 354 1
341 356 1
341 363 1
341 365 1
341 368 1
341 370 1
341 382 1
341 385 1
341 386 1
341 404 1
341 409 1
341 411 1
341 417 1
341 419 1
341 421 1
341 423 1
341 424 1
341 426 1
341 428 1
341 430 1
341 433 1
341 434 1
341 437 1
341 439 1
341 441 1
341 453 1
341 454 1
341 458 1
341 467 1
341 468 1
341 470 1
341 474 1
341 483 1
341 492 1
341 495 1
341 500 1
341 501 1
341 502 1
341 512 1
341 513 1
341 520 1
341 527 1
341 530 1
341 533 1
341 536 1
341 540 1
341 558 1
341 564 1
341 582 1
341 587 1
341 589 1
341 593 1
342 8 1
342 12 1
342 22 1
342 32 1
342 34 1
342 39 1
342 45 1
342 51 1
342 53 1
342 58 1
342 60 1
342 65 1
342 67 1
342 76 1
342 77 1
342 83 1
342 84 1
342 87 1
342 88 1
342 93 1
342 99 1
342 104 1
342 106 1
342 115 1
342 120 1
342 126 1
342 128 1
342 131 1
342 134 1
342 138 1
342 139 1
342 141 1
342 146 1
342 149 1
342 162 1
342 166 1
342 167 1
342 168 1
342 171 1
342 175 1
342 176 1
342 188 1
342 202 1
342 214 1
342 216 1
342 217 1
342 220 1
342 222 1
342 232 1
342 235 1
342 241 1
342 242 1
342 245 1
342 255 1
342 260 1
342 267 1
342 281 1
342 287 1
342 291 1
342 302 1
342 306 1
342 308 1
342 309 1
342 312 1
342 315 1
342 320 1
342 321 1
342 324 1
342 325 1
342 326 1
342 329 1
342 334 1
342 336 1
342 341 1
342 344 1
342 345 1
342 350 1
342 358 1
342 361 1
342 364 1
342 378 1
342 379 1
342 384 1
342 386 1
342 387 1
342 388 1
342 394 1
342 410 1
342 413 1
342 416 1
342 425 1
342 427 1
342 431 1
342 433 1
342 451 1
342 453 1
342 458 1
342 470 1
342 471 1
342 475 1
342 477 1
342 483 1
342 484 1
342 486 1
342 490 1
342 491 1
342 498 1
342 499 1
342 501 1
342 502 1
342 508 1
342 511 1
342 513 1
342 534 1
342 543 1
342 548 1
342 549 1
342 550 1
342 551 1
342 554 1
342 559 1
342 573 1
342 576 1
342 583 1
342 587 1
342 589 1
342 594 1
342 596 1
343 19 1
343 23 1
343 30 1
343 34 1
343 40 1
343 46 1
343 54 1
343 55 1
343 56 1
343 57 1
343 59 1
343 60 1
343 63 1
343 64 1
343 69 1
343 70 1
343 73 1
343 84 1
343 88 1
343 90 1
343 93 1
343 98 1
343 102 1
343 103 1
343 104 1
343 117 1
343 119 1
343 120 1
343 128 1
343 131 1
343 132 1
343 133 1
343 134 1
343 137 1
343 142 1
343 146 1
343 147 1
343 156 1
343 161 1
343 162 1
343 164 1
343 166 1
343 170 1
343 178 1
343 182 1
343 192 1
343 195 1
343 199 1
343 202 1
343 203 1
343 210 1
343 211 1
343 229 1
343 235 1
343 240 1
343 245 1
343 248 1
343 255 1
343 256 1
343 260 1
343 263 1
343 265 1
343 269 1
343 271 1
343 272 1
343 273 1
343 282 1
343 287 1
343 290 1
343 295 1
343 307 1
343 310 1
343 315 1
343 322 1
343 331 1
343 336 1
343 340 1
343 352 1
343 354 1
343 364 1
343 367 1
343 379 1
343 387 1
343 395 1
343 400 1
343 405 1
343 409 1
343 412 1
343 427 1
343 429 1
343 436 1
343 442 1
343 456 1
343 458 1
343 462 1
343 471 1
343 479 1
343 480 1
343 484 1
343 489 1
343 502 1
343 506 1
343 512 1
343 513 1
343 518 1
343 527 1
343 546 1
343 547 1
343 553 1
343 559 1
343 562 1
343 565 1
343 578 1
343 580 1
343 582 1
343 583 1
343 584 1
344 7 1
344 15 1
344 23 1
344 24 1
344 47 1
344 53 1
344 60 1
344 61 1
344 64 1
344 71 1
344 72 1
344 74 1
344 82 1
344 85 1
344 89 1
344 93 1
344 95 1
344 96 1
344 97 1
344 98 1
344 104 1
344 107 1
344 121 1
344 123 1
344 125 1
344 128 1
344 130 1
344 132 1
344 138 1
344 140 1
344 161 1
344 168 1
344 171 1
344 189 1
344 192 1
344 194 1
344 196 1
344 211 1
344 217 1
344 220 1
344 221 1
344 223 1
344 240 1
344 243 1
344 251 1
344 254 1
344 256 1
344 263 1
344 272 1
344 278 1
344 279 1
344 280 1
344 281 1
344 284 1
344 290 1
344 308 1
344 312 1
344 315 1
344 318 1
344 319 1
344 320 1
344 325 1
344 330 1
344 342 1
344 346 1
344 348 1
344 352 1
344 367 1
344 368 1
344 377 1
344 378 1
344 391 1
344 397 1
344 405 1
344 407 1
344 408 1
344 416 1
344 424 1
344 427 1
344 430 1
344 445 1
344 446 1
344 450 1
344 458 1
344 461 1
344 469 1
344 470 1
344 479 1
344 480 1
344 482 1
344 487 1
344 494 1
344 495 1
344 505 1
344 508 1
344 531 1
344 532 1
344 536 1
344 538 1
344 548 1
344 551 1
344 553 1
344 556 1
344 559 1
344 561 1
344 566 1
344 571 1
344 580 1
344 586 1
344 587 1
345 3 1
345 9 1
345 13 1
345 18 1
345 30 1
345 41 1
345 49 1
345 53 1
345 55 1
345 57 1
345 60 1
345 63 1
345 65 1
345 67 1
345 74 1
345 79 1
345 83 1
345 91 1
345 99 1
345 106 1
345 113 1
345 118 1
345 127 1
345 138 1
345 141 1
345 144 1
345 146 1
345 159 1
345 160 1
345 167 1
345 170 1
345 172 1
345 177 1
345 178 1
345 180 1
345 184 1
345 185 1
345 186 1
345 195 1
345 197 1
345 199 1
345 203 1
345 219 1
345 225 1
345 229 1
345 230 1
345 235 1
345 237 1
345 238 1
345 245 1
345 246 1
345 248 1
345 254 1
345 256 1
345 263 1
345 268 1
345 276 1
345 277 1
345 289 1
345 290 1
345 301 1
345 304 1
345 306 1
345 326 1
345 329 1
345 334 1
345 342 1
345 346 1
345 347 1
345 350 1
345 362 1
345 369 1
345 372 1
345 375 1
345 378 1
345 379 1
345 390 1
345 391 1
345 395 1
345 400 1
345 403 1
345 423 1
345 431 1
345 435 1
345 441 1
345 448 1
345 460 1
345 463 1
345 464 1
345 467 1
345 469 1
345 476 1
345 477 1
345 479 1
345 490 1
345 492 1
345 493 1
345 498 1
345 501 1
345 502 1
345 506 1
345 509 1
345 512 1
345 527 1
345 532 1
345 536 1
345 543 1
345 545 1
345 546 1
345 548 1
345 551 1
345 552 1
345 553 1
345 554 1
345 558 1
345 562 1
345 564 1
345 576 1
345 577 1
345 583 1
345 586 1
345 587 1
346 8 1
346 26 1
346 27 1
346 30 1
346 32 1
346 35 1
346 43 1
346 44 1
346 48 1
346 50 1
346 51 1
346 52 1
346 68 1
346 70 1
346 73 1
346 83 1
346 94 1
346 98 1
346 100 1
346 110 1
346 111 1
346 113 1
346 114 1
346 116 1
346 124 1
346 131 1
346 133 1
346 139 1
346 147 1
346 150 1
346 154 1
346 155 1
346 163 1
346 164 1
346 165 1
346 167 1
346 170 1
346 172 1
346 174 1
346 175 1
346 177 1
346 179 1
346 180 1
346 190 1
346 192 1
346 193 1
346 194 1
346 197 1
346 198 1
346 201 1
346 203 1
346 206 1
346 207 1
346 210 1
346 211 1
346 213 1
346 217 1
346 222 1
346 229 1
346 230 1
346 238 1
346 240 1
346 242 1
346 261 1
346 262 1
346 268 1
346 271 1
346 274 1
346 284 1
346 293 1
346 314 1
346 316 1
346 320 1
346 321 1
346 326 1
346 327 1
346 333 1
346 334 1
346 344 1
346 345 1
346 347 1
346 355 1
346 356 1
346 361 1
346 367 1
346 371 1
346 374 1
346 375 1
346 383 1
346 386 1
346 391 1
346 393 1
346 394 1
346 397 1
346 400 1
346 415 1
346 419 1
346 420 1
346 422 1
346 425 1
346 429 1
346 434 1
346 436 1
346 437 1
346 439 1
346 443 1
346 447 1
346 449 1
346 451 1
346 463 1
346 465 1
346 472 1
346 487 1
346 489 1
346 503 1
346 504 1
346 505 1
346 512 1
346 517 1
346 519 1
346 527 1
346 528 1
346 531 1
346 544 1
346 553 1
346 567 1
346 570 1
346 573 1
346 589 1
347 1 1
347 12 1
347 16 1
347 20 1
347 22 1
347 30 1
347 39 1
347 42 1
347 57 1
347 73 1
347 79 1
347 86 1
347 88 1
347 90 1
347 93 1
347 94 1
347 96 1
347 105 1
347 109 1
347 110 1
347 112 1
347 114 1
347 125 1
347 128 1
347 129 1
347 130 1
347 141 1
347 142 1
347 154 1
347 155 1
347 160 1
347 161 1
347 170 1
347 171 1
347 173 1
347 178 1
347 183 1
347 185 1
347 192 1
347 200 1
347 203 1
347 215 1
347 221 1
347 223 1
347 232 1
347 238 1
347 244 1
347 251 1
347 257 1
347 258 1
347 265 1
347 277 1
347 291 1
347 295 1
347 299 1
347 302 1
347 303 1
347 306 1
347 311 1
347 329 1
347 338 1
347 340 1
347 341 1
347 345 1
347 346 1
347 349 1
347 351 1
347 355 1
347 361 1
347 364 1
347 367 1
347 374 1
347 381 1
347 382 1
347 385 1
347 390 1
347 395 1
347 396 1
347 398 1
347 401 1
347 403 1
347 414 1
347 420 1
347 429 1
347 430 1
347 435 1
347 437 1
347 447 1
347 448 1
347 449 1
347 453 1
347 465 1
347 466 1
347 471 1
347 475 1
347 476 1
347 477 1
347 479 1
347 489 1
347 492 1
347 496 1
347 497 1
347 498 1
347 499 1
347 501 1
347 502 1
347 520 1
347 522 1
347 529 1
347 542 1
347 556 1
347 561 1
347 564 1
347 565 1
347 568 1
347 570 1
347 573 1
347 584 1
347 586 1
347 591 1
348 7 1
348 9 1
348 11 1
348 26 1
348 27 1
348 28 1
348 31 1
348 33 1
348 38 1
348 47 1
348 48 1
348 56 1
348 61 1
348 63 1
348 77 1
348 86 1
348 89 1
348 91 1
348 103 1
348 104 1
348 107 1
348 109 1
348 128 1
348 133 1
348 139 1
348 140 1
348 144 1
348 146 1
348 155 1
348 157 1
348 158 1
348 165 1
348 167 1
348 171 1
348 172 1
348 173 1
348 178 1
348 179 1
348 180 1
348 184 1
348 191 1
348 198 1
348 200 1
348 201 1
348 202 1
348 204 1
348 208 1
348 216 1
348 228 1
348 230 1
348 238 1
348 239 1
348 242 1
348 244 1
348 245 1
348 249 1
348 256 1
348 260 1
348 267 1
348 270 1
348 275 1
348 279 1
348 292 1
348 300 1
348 307 1
348 312 1
348 319 1
348 323 1
348 325 1
348 333 1
348 344 1
348 355 1
348 357 1
348 373 1
348 375 1
348 383 1
348 407 1
348 425 1
348 427 1
348 430 1
348 442 1
348 443 1
348 447 1
348 450 1
348 452 1
348 462 1
348 463 1
348 479 1
348 484 1
348 487 1
348 488 1
348 495 1
348 496 1
348 504 1
348 517 1
348 520 1
348 522 1
348 523 1
348 524 1
348 527 1
348 529 1
348 536 1
348 538 1
348 540 1
348 544 1
348 547 1
348 562 1
348 565 1
348 567 1
348 576 1
348 582 1
348 589 1
348 593 1
348 596 1
349 1 1
349 4 1
349 7 1
349 8 1
349 10 1
349 20 1
349 25 1
349 26 1
349 27 1
349 34 1
349 42 1
349 46 1
349 66 1
349 70 1
349 78 1
349 82 1
349 86 1
349 94 1
349 97 1
349 107 1
349 110 1
349 114 1
349 121 1
349 122 1
349 126 1
349 127 1
349 130 1
349 132 1
349 135 1
349 141 1
349 153 1
349 156 1
349 157 1
349 158 1
349 166 1
349 172 1
349 173 1
349 176 1
349 185 1
349 186 1
349 192 1
349 197 1
349 198 1
349 202 1
349 203 1
349 204 1
349 205 1
349 211 1
349 213 1
349 222 1
349 241 1
349 244 1
349 245 1
349 254 1
349 255 1
349 258 1
349 263 1
349 264 1
349 269 1
349 273 1
349 276 1
349 287 1
349 295 1
349 296 1
349 302 1
349 306 1
349 309 1
349 319 1
349 321 1
349 323 1
349 328 1
349 333 1
349 341 1
349 347 1
349 357 1
349 365 1
349 382 1
349 385 1
349 389 1
349 404 1
349 406 1
349 408 1
349 409 1
349 420 1
349 426 1
349 428 1
349 438 1
349 445 1
349 457 1
349 458 1
349 476 1
349 478 1
349 482 1
349 483 1
349 485 1
349 486 1
349 491 1
349 494 1
349 498 1
349 499 1
349 512 1
349 514 1
349 515 1
349 518 1
349 525 1
349 532 1
349 536 1
349 538 1
349 554 1
349 555 1
349 564 1
349 568 1
349 573 1
349 585 1
349 599 1
350 2 1
350 6 1
350 7 1
350 9 1
350 13 1
350 16 1
350 24 1
350 27 1
350 36 1
350 44 1
350 46 1
350 49 1
350 56 1
350 61 1
350 64 1
350 68 1
350 69 1
350 74 1
350 75 1
350 86 1
350 89 1
350 93 1
350 104 1
350 107 1
350 110 1
350 115 1
350 118 1
350 120 1
350 128 1
350 129 1
350 132 1
350 148 1
350 149 1
350 158 1
350 160 1
350 161 1
350 164 1
350 165 1
350 185 1
350 187 1
350 194 1
350 198 1
350 201 1
350 202 1
350 208 1
350 214 1
350 216 1
350 223 1
350 226 1
350 230 1
350 232 1
350 241 1
350 242 1
350 244 1
350 246 1
350 256 1
350 259 1
350 260 1
350 267 1
350 268 1
350 279 1
350 282 1
350 286 1
350 289 1
350 290 1
350 291 1
350 304 1
350 309 1
350 310 1
350 311 1
350 328 1
350 331 1
350 333 1
350 334 1
350 339 1
350 340 1
350 342 1
350 345 1
350 356 1
350 371 1
350 385 1
350 394 1
350 400 1
350 406 1
350 407 1
350 410 1
350 411 1
350 417 1
350 431 1
350 433 1
350 435 1
350 438 1
350 441 1
350 445 1
350 447 1
350 453 1
350 455 1
350 457 1
350 458 1
350 467 1
350 470 1
350 471 1
350 475 1
350 480 1
350 482 1
350 486 1
350 494 1
350 495 1
350 497 1
350 507 1
350 509 1
350 516 1
350 529 1
350 533 1
350 537 1
350 539 1
350 541 1
350 545 1
350 548 1
350 551 1
350 559 1
350 560 1
350 566 1
350 569 1
350 573 1
350 574 1
350 578 1
350 582 1
350 585 1
350 588 1
350 600 1
351 3 1
351 24 1
351 26 1
351 27 1
351 31 1
351 33 1
351 39 1
351 40 1
351 43 1
351 47 1
351 53 1
351 55 1
351 58 1
351 61 1
351 63 1
351 86 1
351 88 1
351 89 1
351 90 1
351 93 1
351 107 1
351 110 1
351 112 1
351 127 1
351 129 1
351 130 1
351 137 1
351 149 1
351 153 1
351 162 1
351 164 1
351 167 1
351 173 1
351 181 1
351 182 1
351 188 1
351 190 1
351 195 1
351 196 1
351 206 1
351 209 1
351 210 1
351 238 1
351 239 1
351 244 1
351 259 1
351 264 1
351 265 1
351 269 1
351 271 1
351 272 1
351 275 1
351 277 1
351 286 1
351 292 1
351 293 1
351 301 1
351 303 1
351 306 1
351 309 1
351 310 1
351 314 1
351 318 1
351 320 1
351 321 1
351 323 1
351 339 1
351 347 1
351 355 1
351 357 1
351 361 1
351 365 1
351 367 1
351 368 1
351 370 1
351 376 1
351 377 1
351 380 1
351 385 1
351 386 1
351 391 1
351 393 1
351 395 1
351 400 1
351 403 1
351 409 1
351 420 1
351 429 1
351 441 1
351 443 1
351 445 1
351 446 1
351 448 1
351 450 1
351 456 1
351 464 1
351 465 1
351 473 1
351 480 1
351 482 1
351 487 1
351 488 1
351 494 1
351 495 1
351 498 1
351 502 1
351 507 1
351 515 1
351 517 1
351 522 1
351 531 1
351 545 1
351 546 1
351 551 1
351 557 1
351 559 1
351 563 1
351 564 1
351 573 1
351 577 1
351 579 1
351 580 1
351 587 1
351 591 1
351 592 1
351 594 1
352 6 1
352 11 1
352 13 1
352 18 1
352 19 1
352 28 1
352 35 1
352 37 1
352 48 1
352 55 1
352 69 1
352 72 1
352 73 1
352 77 1
352 86 1
352 102 1
352 104 1
352 107 1
352 110 1
352 117 1
352 120 1
352 128 1
352 129 1
352 149 1
352 150 1
352 158 1
352 165 1
352 171 1
352 175 1
352 176 1
352 183 1
352 186 1
352 191 1
352 199 1
352 200 1
352 210 1
352 212 1
352 220 1
352 224 1
352 226 1
352 228 1
352 232 1
352 234 1
352 236 1
352 237 1
352 245 1
352 246 1
352 257 1
352 260 1
352 265 1
352 266 1
352 271 1
352 276 1
352 287 1
352 302 1
352 304 1
352 312 1
352 313 1
352 319 1
352 326 1
352 337 1
352 343 1
352 344 1
352 355 1
352 356 1
352 363 1
352 383 1
352 384 1
352 385 1
352 388 1
352 390 1
352 395 1
352 407 1
352 410 1
352 422 1
352 432 1
352 434 1
352 437 1
352 447 1
352 450 1
352 451 1
352 453 1
352 459 1
352 461 1
352 480 1
352 489 1
352 496 1
352 503 1
352 505 1
352 507 1
352 525 1
352 531 1
352 532 1
352 539 1
352 540 1
352 543 1
352 555 1
352 560 1
352 563 1
352 569 1
352 570 1
352 578 1
352 579 1
352 586 1
352 590 1
352 592 1
353 4 1
353 6 1
353 9 1
353 13 1
353 30 1
353 32 1
353 42 1
353 52 1
353 53 1
353 55 1
353 57 1
353 58 1
353 63 1
353 71 1
353 77 1
353 82 1
353 90 1
353 92 1
353 93 1
353 96 1
353 100 1
353 101 1
353 104 1
353 106 1
353 114 1
353 116 1
353 117 1
353 118 1
353 127 1
353 138 1
353 139 1
353 145 1
353 147 1
353 149 1
353 164 1
353 167 1
353 169 1
353 176 1
353 178 1
353 179 1
353 187 1
353 192 1
353 193 1
353 211 1
353 219 1
353 221 1
353 236 1
353 238 1
353 241 1
353 242 1
353 262 1
353 264 1
353 267 1
353 269 1
353 277 1
353 283 1
353 291 1
353 325 1
353 327 1
353 328 1
353 341 1
353 354 1
353 355 1
353 356 1
353 361 1
353 363 1
353 374 1
353 375 1
353 376 1
353 377 1
353 381 1
353 386 1
353 392 1
353 406 1
353 408 1
353 409 1
353 414 1
353 415 1
353 416 1
353 422 1
353 426 1
353 429 1
353 431 1
353 442 1
353 447 1
353 451 1
353 455 1
353 458 1
353 459 1
353 461 1
353 471 1
353 475 1
353 476 1
353 478 1
353 479 1
353 492 1
353 494 1
353 495 1
353 505 1
353 510 1
353 516 1
353 520 1
353 532 1
353 537 1
353 539 1
353 540 1
353 541 1
353 544 1
353 547 1
353 552 1
353 562 1
353 564 1
353 567 1
353 572 1
353 575 1
353 583 1
353 588 1
353 594 1
353 596 1
354 1 1
354 8 1
354 12 1
354 17 1
354 21 1
354 27 1
354 29 1
354 32 1
354 34 1
354 58 1
354 62 1
354 67 1
354 72 1
354 73 1
354 76 1
354 87 1
354 88 1
354 97 1
354 98 1
354 107 1
354 110 1
354 112 1
354 127 1
354 130 1
354 146 1
354 157 1
354 159 1
354 160 1
354 161 1
354 170 1
354 171 1
354 178 1
354 179 1
354 181 1
354 182 1
354 193 1
354 194 1
354 200 1
354 205 1
354 211 1
354 213 1
354 223 1
354 227 1
354 228 1
354 229 1
354 231 1
354 239 1
354 240 1
354 241 1
354 242 1
354 244 1
354 248 1
354 249 1
354 250 1
354 256 1
354 262 1
354 267 1
354 268 1
354 273 1
354 278 1
354 279 1
354 285 1
354 286 1
354 288 1
354 290 1
354 294 1
354 295 1
354 297 1
354 303 1
354 305 1
354 311 1
354 319 1
354 322 1
354 323 1
354 336 1
354 337 1
354 338 1
354 341 1
354 343 1
354 353 1
354 355 1
354 358 1
354 361 1
354 362 1
354 368 1
354 371 1
354 377 1
354 383 1
354 385 1
354 387 1
354 388 1
354 395 1
354 396 1
354 398 1
354 399 1
354 401 1
354 407 1
354 409 1
354 412 1
354 417 1
354 418 1
354 419 1
354 423 1
354 434 1
354 440 1
354 441 1
354 442 1
354 447 1
354 452 1
354 453 1
354 455 1
354 459 1
354 465 1
354 472 1
354 476 1
354 484 1
354 486 1
354 488 1
354 493 1
354 496 1
354 500 1
354 503 1
354 507 1
354 534 1
354 535 1
354 537 1
354 542 1
354 555 1
354 560 1
354 563 1
354 579 1
354 588 1
354 592 1
355 3 1
355 4 1
355 17 1
355 18 1
355 37 1
355 39 1
355 43 1
355 49 1
355 50 1
355 70 1
355 72 1
355 73 1
355 76 1
355 77 1
355 88 1
355 90 1
355 97 1
355 106 1
355 107 1
355 108 1
355 112 1
355 118 1
355 129 1
355 147 1
355 157 1
355 162 1
355 167 1
355 174 1
355 175 1
355 176 1
355 183 1
355 189 1
355 190 1
355 206 1
355 212 1
355 214 1
355 217 1
355 220 1
355 221 1
355 222 1
355 233 1
355 236 1
355 248 1
355 259 1
355 261 1
355 266 1
355 272 1
355 277 1
355 282 1
355 294 1
355 302 1
355 305 1
355 307 1
355 308 1
355 318 1
355 321 1
355 323 1
355 326 1
355 327 1
355 330 1
355 335 1
355 336 1
355 337 1
355 339 1
355 346 1
355 347 1
355 348 1
355 351 1
355 352 1
355 353 1
355 354 1
355 363 1
355 364 1
355 366 1
355 368 1
355 373 1
355 374 1
355 388 1
355 404 1
355 405 1
355 410 1
355 427 1
355 429 1
355 435 1
355 439 1
355 449 1
355 455 1
355 460 1
355 461 1
355 464 1
355 465 1
355 466 1
355 467 1
355 480 1
355 489 1
355 490 1
355 503 1
355 516 1
355 519 1
355 525 1
355 526 1
355 528 1
355 530 1
355 531 1
355 537 1
355 538 1
355 557 1
355 565 1
355 577 1
355 582 1
355 585 1
355 598 1
356 4 1
356 14 1
356 19 1
356 26 1
356 37 1
356 47 1
356 55 1
356 62 1
356 70 1
356 80 1
356 92 1
356 97 1
356 102 1
356 103 1
356 104 1
356 105 1
356 106 1
356 123 1
356 124 1
356 130 1
356 133 1
356 134 1
356 137 1
356 143 1
356 146 1
356 147 1
356 152 1
356 154 1
356 179 1
356 187 1
356 190 1
356 197 1
356 207 1
356 217 1
356 218 1
356 219 1
356 239 1
356 241 1
356 243 1
356 253 1
356 254 1
356 260 1
356 262 1
356 266 1
356 277 1
356 282 1
356 288 1
356 294 1
356 296 1
356 299 1
356 300 1
356 304 1
356 311 1
356 317 1
356 321 1
356 323 1
356 324 1
356 326 1
356 329 1
356 333 1
356 335 1
356 341 1
356 346 1
356 350 1
356 352 1
356 353 1
356 358 1
356 363 1
356 364 1
356 365 1
356 366 1
356 373 1
356 374 1
356 378 1
356 379 1
356 383 1
356 384 1
356 390 1
356 396 1
356 402 1
356 406 1
356 413 1
356 418 1
356 425 1
356 441 1
356 449 1
356 450 1
356 452 1
356 455 1
356 467 1
356 477 1
356 478 1
356 479 1
356 480 1
356 488 1
356 502 1
356 503 1
356 514 1
356 517 1
356 519 1
356 532 1
356 534 1
356 538 1
356 541 1
356 544 1
356 545 1
356 546 1
356 552 1
356 553 1
356 554 1
356 561 1
356 565 1
356 569 1
356 570 1
356 573 1
356 577 1
356 578 1
356 593 1
357 9 1
357 12 1
357 13 1
357 33 1
357 34 1
357 35 1
357 47 1
357 48 1
357 50 1
357 56 1
357 73 1
357 83 1
357 87 1
357 103 1
357 106 1
357 113 1
357 122 1
357 129 1
357 133 1
357 136 1
357 141 1
357 157 1
357 168 1
357 178 1
357 186 1
357 193 1
357 197 1
357 199 1
357 203 1
357 208 1
357 218 1
357 223 1
357 232 1
357 235 1
357 237 1
357 244 1
357 249 1
357 253 1
357 256 1
357 259 1
357 260 1
357 261 1
357 281 1
357 282 1
357 285 1
357 290 1
357 294 1
357 296 1
357 303 1
357 304 1
357 306 1
357 315 1
357 319 1
357 321 1
357 348 1
357 349 1
357 351 1
357 360 1
357 361 1
357 366 1
357 370 1
357 372 1
357 376 1
357 378 1
357 381 1
357 388 1
357 396 1
357 397 1
357 402 1
357 409 1
357 412 1
357 436 1
357 441 1
357 442 1
357 447 1
357 450 1
357 453 1
357 458 1
357 460 1
357 463 1
357 464 1
357 466 1
357 474 1
357 489 1
357 490 1
357 498 1
357 500 1
357 518 1
357 520 1
357 525 1
357 531 1
357 532 1
357 541 1
357 548 1
357 559 1
357 564 1
357 568 1
357 570 1
357 573 1
357 578 1
357 580 1
357 581 1
357 584 1
357 585 1
357 591 1
357 595 1
358 3 1
358 9 1
358 21 1
358 24 1
358 34 1
358 45 1
358 48 1
358 50 1
358 53 1
358 58 1
358 61 1
358 63 1
358 64 1
358 66 1
358 68 1
358 71 1
358 73 1
358 76 1
358 90 1
358 91 1
358 95 1
358 98 1
358 100 1
358 102 1
358 105 1
358 106 1
358 114 1
358 120 1
358 125 1
358 138 1
358 144 1
358 148 1
358 153 1
358 161 1
358 168 1
358 172 1
358 173 1
358 184 1
358 185 1
358 193 1
358 195 1
358 196 1
358 204 1
358 213 1
358 216 1
358 218 1
358 220 1
358 226 1
358 232 1
358 233 1
358 235 1
358 240 1
358 241 1
358 242 1
358 245 1
358 256 1
358 264 1
358 265 1
358 267 1
358 271 1
358 275 1
358 282 1
358 283 1
358 290 1
358 300 1
358 308 1
358 313 1
358 314 1
358 316 1
358 318 1
358 320 1
358 339 1
358 342 1
358 354 1
358 356 1
358 360 1
358 361 1
358 373 1
358 376 1
358 379 1
358 381 1
358 385 1
358 388 1
358 393 1
358 396 1
358 397 1
358 411 1
358 415 1
358 421 1
358 428 1
358 439 1
358 441 1
358 446 1
358 448 1
358 452 1
358 453 1
358 459 1
358 460 1
358 461 1
358 474 1
358 476 1
358 477 1
358 488 1
358 495 1
358 502 1
358 505 1
358 515 1
358 516 1
358 518 1
358 526 1
358 536 1
358 537 1
358 539 1
358 546 1
358 547 1
358 551 1
358 559 1
358 566 1
358 569 1
358 581 1
358 583 1
358 587 1
358 589 1
358 594 1
358 596 1
358 597 1
358 598 1
359 3 1
359 6 1
359 9 1
359 11 1
359 12 1
359 17 1
359 26 1
359 31 1
359 37 1
359 38 1
359 49 1
359 53 1
359 57 1
359 60 1
359 61 1
359 63 1
359 68 1
359 78 1
359 82 1
359 97 1
359 112 1
359 114 1
359 131 1
359 133 1
359 134 1
359 135 1
359 149 1
359 156 1
359 158 1
359 160 1
359 173 1
359 174 1
359 176 1
359 178 1
359 180 1
359 187 1
359 192 1
359 197 1
359 203 1
359 212 1
359 214 1
359 217 1
359 219 1
359 223 1
359 249 1
359 255 1
359 260 1
359 268 1
359 272 1
359 277 1
359 285 1
359 290 1
359 291 1
359 294 1
359 299 1
359 311 1
359 312 1
359 317 1
359 330 1
359 332 1
359 340 1
359 363 1
359 366 1
359 367 1
359 368 1
359 369 1
359 377 1
359 380 1
359 384 1
359 388 1
359 396 1
359 398 1
359 401 1
359 402 1
359 407 1
359 408 1
359 409 1
359 422 1
359 428 1
359 431 1
359 433 1
359 437 1
359 444 1
359 452 1
359 454 1
359 455 1
359 456 1
359 463 1
359 468 1
359 469 1
359 475 1
359 478 1
359 483 1
359 487 1
359 488 1
359 493 1
359 500 1
359 504 1
359 506 1
359 511 1
359 517 1
359 523 1
359 534 1
359 541 1
359 555 1
359 576 1
359 583 1
359 586 1
359 589 1
359 594 1
360 1 1
360 2 1
360 5 1
360 9 1
360 10 1
360 12 1
360 13 1
360 19 1
360 21 1
360 23 1
360 33 1
360 56 1
360 58 1
360 59 1
360 67 1
360 70 1
360 72 1
360 77 1
360 94 1
360 96 1
360 97 1
360 99 1
360 105 1
360 107 1
360 109 1
360 110 1
360 114 1
360 118 1
360 119 1
360 127 1
360 135 1
360 142 1
360 146 1
360 147 1
360 150 1
360 154 1
360 157 1
360 158 1
360 170 1
360 180 1
360 182 1
360 184 1
360 193 1
360 194 1
360 201 1
360 211 1
360 212 1
360 224 1
360 230 1
360 233 1
360 241 1
360 252 1
360 265 1
360 266 1
360 268 1
360 271 1
360 273 1
360 280 1
360 289 1
360 291 1
360 306 1
360 307 1
360 311 1
360 319 1
360 320 1
360 322 1
360 335 1
360 357 1
360 358 1
360 361 1
360 369 1
360 376 1
360 380 1
360 386 1
360 388 1
360 399 1
360 401 1
360 407 1
360 409 1
360 414 1
360 426 1
360 430 1
360 435 1
360 436 1
360 442 1
360 443 1
360 447 1
360 449 1
360 450 1
360 465 1
360 472 1
360 475 1
360 476 1
360 478 1
360 479 1
360 484 1
360 493 1
360 495 1
360 497 1
360 500 1
360 509 1
360 510 1
360 516 1
360 526 1
360 533 1
360 535 1
360 539 1
360 541 1
360 543 1
360 557 1
360 565 1
360 577 1
360 578 1
360 585 1
360 594 1
360 595 1
360 600 1
361 2 1
361 10 1
361 16 1
361 17 1
361 26 1
361 35 1
361 38 1
361 43 1
361 56 1
361 59 1
361 60 1
361 68 1
361 70 1
361 72 1
361 77 1
361 81 1
361 82 1
361 101 1
361 102 1
361 106 1
361 113 1
361 119 1
361 124 1
361 126 1
361 127 1
361 132 1
361 135 1
361 137 1
361 138 1
361 144 1
361 146 1
361 150 1
361 157 1
361 158 1
361 160 1
361 162 1
361 165 1
361 168 1
361 169 1
361 175 1
361 181 1
361 188 1
361 189 1
361 194 1
361 196 1
361 197 1
361 198 1
361 199 1
361 202 1
361 206 1
361 210 1
361 216 1
361 219 1
361 221 1
361 239 1
361 247 1
361 266 1
361 276 1
361 277 1
361 280 1
361 288 1
361 291 1
361 294 1
361 299 1
361 302 1
361 305 1
361 313 1
361 321 1
361 327 1
361 333 1
361 334 1
361 336 1
361 342 1
361 346 1
361 347 1
361 351 1
361 353 1
361 354 1
361 357 1
361 358 1
361 360 1
361 367 1
361 371 1
361 375 1
361 378 1
361 385 1
361 389 1
361 390 1
361 395 1
361 396 1
361 403 1
361 412 1
361 418 1
361 419 1
361 420 1
361 423 1
361 425 1
361 431 1
361 432 1
361 441 1
361 443 1
361 448 1
361 452 1
361 454 1
361 461 1
361 464 1
361 467 1
361 473 1
361 474 1
361 480 1
361 481 1
361 483 1
361 485 1
361 488 1
361 490 1
361 503 1
361 509 1
361 517 1
361 518 1
361 520 1
361 522 1
361 538 1
361 544 1
361 550 1
361 556 1
361 557 1
361 559 1
361 561 1
361 564 1
361 576 1
361 580 1
361 584 1
361 589 1
361 590 1
361 596 1
362 6 1
362 9 1
362 12 1
362 18 1
362 21 1
362 24 1
362 25 1
362 39 1
362 40 1
362 44 1
362 52 1
362 55 1
362 59 1
362 64 1
362 67 1
362 69 1
362 71 1
362 72 1
362 76 1
362 82 1
362 84 1
362 90 1
362 96 1
362 99 1
362 113 1
362 124 1
362 135 1
362 141 1
362 153 1
362 165 1
362 173 1
362 182 1
362 186 1
362 187 1
362 196 1
362 200 1
362 208 1
362 210 1
362 216 1
362 218 1
362 226 1
362 227 1
362 229 1
362 230 1
362 242 1
362 247 1
362 262 1
362 269 1
362 274 1
362 276 1
362 293 1
362 301 1
362 317 1
362 333 1
362 334 1
362 345 1
362 354 1
362 363 1
362 370 1
362 371 1
362 373 1
362 375 1
362 376 1
362 381 1
362 384 1
362 389 1
362 394 1
362 396 1
362 402 1
362 404 1
362 418 1
362 419 1
362 430 1
362 433 1
362 435 1
362 441 1
362 446 1
362 448 1
362 456 1
362 461 1
362 469 1
362 484 1
362 486 1
362 488 1
362 491 1
362 493 1
362 499 1
362 501 1
362 506 1
362 516 1
362 520 1
362 532 1
362 544 1
362 555 1
362 556 1
362 565 1
362 567 1
362 575 1
362 585 1
362 586 1
362 588 1
362 592 1
363 1 1
363 6 1
363 16 1
363 21 1
363 22 1
363 23 1
363 24 1
363 34 1
363 39 1
363 57 1
363 69 1
363 88 1
363 94 1
363 95 1
363 98 1
363 101 1
363 104 1
363 106 1
363 113 1
363 114 1
363 130 1
363 138 1
363 140 1
363 146 1
363 149 1
363 152 1
363 156 1
363 161 1
363 165 1
363 170 1
363 175 1
363 179 1
363 182 1
363 185 1
363 190 1
363 198 1
363 205 1
363 211 1
363 212 1
363 214 1
363 217 1
363 220 1
363 225 1
363 231 1
363 233 1
363 238 1
363 247 1
363 256 1
363 266 1
363 267 1
363 272 1
363 273 1
363 280 1
363 285 1
363 288 1
363 296 1
363 302 1
363 309 1
363 310 1
363 313 1
363 315 1
363 330 1
363 333 1
363 337 1
363 341 1
363 352 1
363 353 1
363 355 1
363 356 1
363 359 1
363 362 1
363 366 1
363 369 1
363 370 1
363 373 1
363 377 1
363 390 1
363 392 1
363 393 1
363 394 1
363 397 1
363 402 1
363 405 1
363 407 1
363 420 1
363 423 1
363 424 1
363 429 1
363 436 1
363 441 1
363 446 1
363 449 1
363 457 1
363 465 1
363 471 1
363 484 1
363 488 1
363 491 1
363 492 1
363 506 1
363 513 1
363 514 1
363 518 1
363 552 1
363 556 1
363 557 1
363 564 1
363 566 1
363 568 1
363 572 1
363 580 1
363 582 1
363 585 1
363 589 1
363 594 1
363 596 1
363 598 1
363 600 1
364 11 1
364 14 1
364 15 1
364 30 1
364 37 1
364 38 1
364 40 1
364 50 1
364 51 1
364 52 1
364 53 1
364 54 1
364 55 1
364 64 1
364 65 1
364 68 1
364 69 1
364 71 1
364 75 1
364 80 1
364 81 1
364 86 1
364 87 1
364 88 1
364 89 1
364 92 1
364 94 1
364 99 1
364 100 1
364 106 1
364 112 1
364 114 1
364 123 1
364 124 1
364 126 1
364 128 1
364 130 1
364 136 1
364 137 1
364 147 1
364 152 1
364 154 1
364 163 1
364 164 1
364 168 1
364 176 1
364 183 1
364 184 1
364 191 1
364 204 1
364 210 1
364 211 1
364 212 1
364 214 1
364 224 1
364 226 1
364 229 1
364 241 1
364 253 1
364 258 1
364 259 1
364 262 1
364 267 1
364 269 1
364 277 1
364 287 1
364 290 1
364 292 1
364 298 1
364 305 1
364 310 1
364 315 1
364 317 1
364 336 1
364 339 1
364 342 1
364 343 1
364 347 1
364 355 1
364 356 1
364 365 1
364 366 1
364 367 1
364 369 1
364 390 1
364 398 1
364 410 1
364 413 1
364 419 1
364 426 1
364 429 1
364 432 1
364 436 1
364 439 1
364 440 1
364 443 1
364 445 1
364 450 1
364 456 1
364 457 1
364 468 1
364 478 1
364 491 1
364 494 1
364 495 1
364 499 1
364 500 1
364 501 1
364 508 1
364 512 1
364 520 1
364 529 1
364 531 1
364 534 1
364 537 1
364 549 1
364 553 1
364 556 1
364 560 1
364 561 1
364 562 1
364 564 1
364 587 1
364 596 1
364 599 1
365 1 1
365 4 1
365 5 1
365 11 1
365 12 1
365 17 1
365 29 1
365 40 1
365 46 1
365 70 1
365 77 1
365 79 1
365 80 1
365 93 1
365 96 1
365 100 1
365 104 1
365 107 1
365 108 1
365 109 1
365 110 1
365 120 1
365 121 1
365 122 1
365 131 1
365 133 1
365 135 1
365 136 1
365 139 1
365 142 1
365 144 1
365 145 1
365 148 1
365 153 1
365 156 1
365 159 1
365 164 1
365 169 1
365 187 1
365 191 1
365 193 1
365 194 1
365 198 1
365 200 1
365 201 1
365 210 1
365 215 1
365 217 1
365 230 1
365 235 1
365 240 1
365 256 1
365 266 1
365 273 1
365 277 1
365 280 1
365 287 1
365 291 1
365 313 1
365 320 1
365 321 1
365 322 1
365 335 1
365 341 1
365 349 1
365 351 1
365 356 1
365 364 1
365 367 1
365 368 1
365 375 1
365 379 1
365 382 1
365 396 1
365 403 1
365 404 1
365 415 1
365 417 1
365 419 1
365 425 1
365 427 1
365 433 1
365 434 1
365 442 1
365 445 1
365 461 1
365 468 1
365 477 1
365 479 1
365 486 1
365 489 1
365 491 1
365 492 1
365 496 1
365 502 1
365 506 1
365 511 1
365 515 1
365 516 1
365 523 1
365 530 1
365 545 1
365 551 1
365 557 1
365 561 1
365 569 1
365 571 1
365 576 1
365 579 1
365 585 1
365 586 1
365 595 1
365 598 1
366 1 1
366 3 1
366 4 1
366 6 1
366 8 1
366 14 1
366 18 1
366 19 1
366 26 1
366 32 1
366 33 1
366 46 1
366 49 1
366 54 1
366 61 1
366 62 1
366 63 1
366 69 1
366 82 1
366 83 1
366 84 1
366 85 1
366 87 1
366 88 1
366 93 1
366 99 1
366 103 1
366 104 1
366 112 1
366 113 1
366 114 1
366 118 1
366 122 1
366 123 1
366 132 1
366 136 1
366 137 1
366 140 1
366 141 1
366 148 1
366 151 1
366 152 1
366 157 1
366 160 1
366 163 1
366 173 1
366 175 1
366 179 1
366 180 1
366 181 1
366 183 1
366 186 1
366 189 1
366 194 1
366 197 1
366 205 1
366 211 1
366 212 1
366 213 1
366 217 1
366 218 1
366 219 1
366 220 1
366 221 1
366 231 1
366 239 1
366 241 1
366 248 1
366 253 1
366 288 1
366 291 1
366 292 1
366 296 1
366 298 1
366 306 1
366 327 1
366 336 1
366 338 1
366 355 1
366 356 1
366 357 1
366 359 1
366 363 1
366 364 1
366 367 1
366 368 1
366 371 1
366 377 1
366 378 1
366 379 1
366 382 1
366 383 1
366 385 1
366 393 1
366 400 1
366 402 1
366 404 1
366 407 1
366 410 1
366 418 1
366 420 1
366 423 1
366 443 1
366 446 1
366 472 1
366 473 1
366 489 1
366 490 1
366 510 1
366 517 1
366 518 1
366 527 1
366 543 1
366 550 1
366 551 1
366 553 1
366 558 1
366 559 1
366 560 1
366 563 1
366 564 1
366 566 1
366 569 1
366 572 1
366 573 1
366 574 1
366 581 1
366 584 1
366 588 1
366 590 1
366 591 1
366 598 1
367 1 1
367 4 1
367 8 1
367 17 1
367 20 1
367 21 1
367 22 1
367 26 1
367 45 1
367 47 1
367 48 1
367 51 1
367 66 1
367 69 1
367 71 1
367 77 1
367 78 1
367 83 1
367 84 1
367 95 1
367 98 1
367 103 1
367 106 1
367 109 1
367 115 1
367 123 1
367 125 1
367 128 1
367 131 1
367 133 1
367 135 1
367 138 1
367 142 1
367 145 1
367 146 1
367 153 1
367 158 1
367 165 1
367 166 1
367 168 1
367 169 1
367 183 1
367 185 1
367 188 1
367 194 1
367 195 1
367 196 1
367 198 1
367 202 1
367 204 1
367 205 1
367 209 1
367 212 1
367 219 1
367 220 1
367 221 1
367 224 1
367 227 1
367 229 1
367 230 1
367 232 1
367 237 1
367 239 1
367 242 1
367 247 1
367 252 1
367 265 1
367 278 1
367 280 1
367 284 1
367 286 1
367 294 1
367 295 1
367 302 1
367 304 1
367 307 1
367 312 1
367 313 1
367 314 1
367 324 1
367 328 1
367 329 1
367 343 1
367 344 1
367 346 1
367 347 1
367 351 1
367 359 1
367 361 1
367 364 1
367 365 1
367 366 1
367 370 1
367 371 1
367 375 1
367 376 1
367 377 1
367 378 1
367 384 1
367 395 1
367 403 1
367 404 1
367 407 1
367 409 1
367 410 1
367 417 1
367 420 1
367 431 1
367 432 1
367 441 1
367 442 1
367 450 1
367 451 1
367 452 1
367 461 1
367 469 1
367 477 1
367 495 1
367 499 1
367 501 1
367 511 1
367 515 1
367 519 1
367 525 1
367 528 1
367 542 1
367 546 1
367 547 1
367 559 1
367 560 1
367 564 1
367 582 1
367 583 1
367 586 1
367 587 1
367 597 1
368 5 1
368 14 1
368 15 1
368 20 1
368 22 1
368 25 1
368 26 1
368 45 1
368 46 1
368 50 1
368 56 1
368 58 1
368 61 1
368 69 1
368 70 1
368 71 1
368 73 1
368 74 1
368 76 1
368 78 1
368 85 1
368 89 1
368 90 1
368 100 1
368 105 1
368 106 1
368 126 1
368 127 1
368 133 1
368 146 1
368 157 1
368 164 1
368 171 1
368 176 1
368 177 1
368 181 1
368 192 1
368 203 1
368 204 1
368 208 1
368 211 1
368 222 1
368 223 1
368 224 1
368 228 1
368 229 1
368 241 1
368 245 1
368 254 1
368 255 1
368 258 1
368 259 1
368 263 1
368 276 1
368 277 1
368 279 1
368 289 1
368 297 1
368 301 1
368 308 1
368 312 1
368 314 1
368 315 1
368 318 1
368 321 1
368 323 1
368 325 1
368 326 1
368 328 1
368 333 1
368 338 1
368 341 1
368 344 1
368 351 1
368 354 1
368 355 1
368 359 1
368 365 1
368 366 1
368 370 1
368 374 1
368 375 1
368 379 1
368 384 1
368 386 1
368 394 1
368 395 1
368 400 1
368 401 1
368 410 1
368 413 1
368 415 1
368 417 1
368 421 1
368 423 1
368 424 1
368 429 1
368 430 1
368 432 1
368 443 1
368 444 1
368 445 1
368 450 1
368 454 1
368 457 1
368 459 1
368 467 1
368 470 1
368 473 1
368 486 1
368 491 1
368 496 1
368 497 1
368 498 1
368 503 1
368 505 1
368 512 1
368 519 1
368 527 1
368 531 1
368 537 1
368 548 1
368 556 1
368 558 1
368 562 1
368 564 1
368 565 1
368 571 1
368 573 1
368 577 1
368 581 1
368 587 1
368 593 1
368 594 1
368 595 1
369 2 1
369 4 1
369 7 1
369 9 1
369 15 1
369 17 1
369 18 1
369 20 1
369 22 1
369 23 1
369 30 1
369 33 1
369 35 1
369 38 1
369 42 1
369 49 1
369 58 1
369 59 1
369 63 1
369 87 1
369 89 1
369 99 1
369 103 1
369 108 1
369 109 1
369 110 1
369 121 1
369 123 1
369 133 1
369 137 1
369 143 1
369 144 1
369 147 1
369 169 1
369 176 1
369 178 1
369 184 1
369 196 1
369 197 1
369 210 1
369 216 1
369 220 1
369 237 1
369 244 1
369 245 1
369 249 1
369 253 1
369 258 1
369 259 1
369 261 1
369 269 1
369 270 1
369 274 1
369 276 1
369 279 1
369 286 1
369 288 1
369 291 1
369 298 1
369 301 1
369 303 1
369 308 1
369 309 1
369 310 1
369 315 1
369 323 1
369 325 1
369 331 1
369 333 1
369 334 1
369 335 1
369 338 1
369 345 1
369 359 1
369 360 1
369 363 1
369 364 1
369 373 1
369 376 1
369 386 1
369 387 1
369 388 1
369 390 1
369 410 1
369 415 1
369 420 1
369 425 1
369 426 1
369 428 1
369 440 1
369 446 1
369 450 1
369 458 1
369 462 1
369 465 1
369 467 1
369 468 1
369 470 1
369 472 1
369 476 1
369 489 1
369 491 1
369 495 1
369 496 1
369 503 1
369 504 1
369 505 1
369 507 1
369 511 1
369 514 1
369 518 1
369 525 1
369 531 1
369 544 1
369 550 1
369 561 1
369 573 1
369 585 1
369 589 1
370 2 1
370 6 1
370 9 1
370 24 1
370 32 1
370 36 1
370 37 1
370 39 1
370 45 1
370 46 1
370 53 1
370 57 1
370 58 1
370 67 1
370 70 1
370 73 1
370 76 1
370 80 1
370 81 1
370 92 1
370 94 1
370 101 1
370 106 1
370 107 1
370 110 1
370 119 1
370 120 1
370 123 1
370 128 1
370 129 1
370 130 1
370 135 1
370 142 1
370 146 1
370 147 1
370 156 1
370 157 1
370 161 1
370 166 1
370 167 1
370 172 1
370 173 1
370 174 1
370 191 1
370 192 1
370 193 1
370 210 1
370 211 1
370 214 1
370 221 1
370 239 1
370 243 1
370 247 1
370 255 1
370 257 1
370 260 1
370 261 1
370 265 1
370 269 1
370 273 1
370 277 1
370 279 1
370 281 1
370 283 1
370 290 1
370 292 1
370 299 1
370 300 1
370 306 1
370 313 1
370 314 1
370 316 1
370 323 1
370 328 1
370 329 1
370 332 1
370 338 1
370 341 1
370 351 1
370 357 1
370 362 1
370 363 1
370 367 1
370 368 1
370 382 1
370 388 1
370 392 1
370 393 1
370 394 1
370 397 1
370 400 1
370 405 1
370 408 1
370 411 1
370 412 1
370 414 1
370 415 1
370 416 1
370 424 1
370 429 1
370 434 1
370 438 1
370 446 1
370 451 1
370 457 1
370 460 1
370 461 1
370 465 1
370 468 1
370 482 1
370 483 1
370 484 1
370 487 1
370 488 1
370 492 1
370 495 1
370 511 1
370 515 1
370 531 1
370 533 1
370 539 1
370 543 1
370 545 1
370 549 1
370 556 1
370 563 1
370 567 1
370 577 1
370 580 1
370 581 1
370 583 1
370 585 1
370 587 1
370 597 1
371 2 1
371 4 1
371 9 1
371 15 1
371 20 1
371 22 1
371 24 1
371 28 1
371 43 1
371 44 1
371 46 1
371 55 1
371 64 1
371 74 1
371 75 1
371 82 1
371 84 1
371 86 1
371 98 1
371 104 1
371 110 1
371 111 1
371 112 1
371 115 1
371 116 1
371 122 1
371 123 1
371 124 1
371 128 1
371 133 1
371 134 1
371 136 1
371 142 1
371 159 1
371 166 1
371 174 1
371 179 1
371 187 1
371 209 1
371 217 1
371 221 1
371 223 1
371 236 1
371 239 1
371 242 1
371 245 1
371 247 1
371 249 1
371 252 1
371 259 1
371 263 1
371 265 1
371 272 1
371 282 1
371 293 1
371 307 1
371 309 1
371 311 1
371 313 1
371 317 1
371 322 1
371 323 1
371 332 1
371 335 1
371 336 1
371 346 1
371 350 1
371 354 1
371 361 1
371 362 1
371 366 1
371 367 1
371 378 1
371 385 1
371 389 1
371 393 1
371 408 1
371 413 1
371 416 1
371 417 1
371 419 1
371 426 1
371 427 1
371 438 1
371 444 1
371 446 1
371 449 1
371 457 1
371 458 1
371 459 1
371 470 1
371 472 1
371 484 1
371 485 1
371 493 1
371 495 1
371 496 1
371 502 1
371 504 1
371 507 1
371 512 1
371 516 1
371 518 1
371 519 1
371 520 1
371 525 1
371 528 1
371 532 1
371 538 1
371 540 1
371 544 1
371 545 1
371 546 1
371 559 1
371 564 1
371 571 1
371 573 1
371 577 1
371 579 1
371 581 1
371 589 1
371 598 1
372 2 1
372 8 1
372 10 1
372 15 1
372 22 1
372 33 1
372 36 1
372 42 1
372 49 1
372 57 1
372 62 1
372 64 1
372 76 1
372 79 1
372 85 1
372 86 1
372 87 1
372 88 1
372 94 1
372 95 1
372 96 1
372 120 1
372 125 1
372 130 1
372 131 1
372 132 1
372 142 1
372 150 1
372 151 1
372 152 1
372 154 1
372 170 1
372 173 1
372 176 1
372 183 1
372 191 1
372 192 1
372 194 1
372 198 1
372 202 1
372 203 1
372 207 1
372 211 1
372 214 1
372 219 1
372 226 1
372 235 1
372 236 1
372 241 1
372 246 1
372 247 1
372 252 1
372 254 1
372 257 1
372 261 1
372 262 1
372 267 1
372 268 1
372 272 1
372 273 1
372 274 1
372 282 1
372 285 1
372 289 1
372 290 1
372 293 1
372 299 1
372 306 1
372 319 1
372 327 1
372 330 1
372 334 1
372 339 1
372 345 1
372 357 1
372 376 1
372 378 1
372 383 1
372 385 1
372 386 1
372 390 1
372 392 1
372 402 1
372 404 1
372 407 1
372 408 1
372 415 1
372 418 1
372 426 1
372 438 1
372 440 1
372 444 1
372 445 1
372 453 1
372 465 1
372 473 1
372 477 1
372 478 1
372 495 1
372 500 1
372 505 1
372 510 1
372 511 1
372 512 1
372 526 1
372 532 1
372 535 1
372 542 1
372 551 1
372 553 1
372 557 1
372 558 1
372 560 1
372 561 1
372 563 1
372 567 1
372 568 1
372 575 1
372 581 1
372 583 1
372 594 1
372 595 1
373 6 1
373 16 1
373 20 1
373 23 1
373 26 1
373 37 1
373 44 1
373 46 1
373 47 1
373 51 1
373 52 1
373 54 1
373 62 1
373 67 1
373 88 1
373 92 1
373 98 1
373 99 1
373 104 1
373 108 1
373 110 1
373 115 1
373 117 1
373 127 1
373 130 1
373 134 1
373 148 1
373 150 1
373 157 1
373 159 1
373 168 1
373 170 1
373 173 1
373 179 1
373 181 1
373 182 1
373 183 1
373 185 1
373 186 1
373 187 1
373 189 1
373 190 1
373 193 1
373 194 1
373 196 1
373 199 1
373 203 1
373 204 1
373 208 1
373 211 1
373 214 1
373 215 1
373 217 1
373 218 1
373 220 1
373 221 1
373 240 1
373 242 1
373 251 1
373 252 1
373 261 1
373 283 1
373 284 1
373 286 1
373 294 1
373 295 1
373 297 1
373 303 1
373 305 1
373 319 1
373 320 1
373 321 1
373 325 1
373 326 1
373 327 1
373 329 1
373 330 1
373 334 1
373 335 1
373 338 1
373 348 1
373 355 1
373 356 1
373 358 1
373 362 1
373 363 1
373 369 1
373 394 1
373 398 1
373 399 1
373 401 1
373 414 1
373 416 1
373 422 1
373 426 1
373 429 1
373 435 1
373 439 1
373 442 1
373 452 1
373 454 1
373 458 1
373 459 1
373 464 1
373 468 1
373 471 1
373 473 1
373 477 1
373 496 1
373 497 1
373 502 1
373 523 1
373 527 1
373 528 1
373 535 1
373 540 1
373 544 1
373 545 1
373 546 1
373 547 1
373 554 1
373 566 1
373 571 1
373 583 1
373 586 1
373 589 1
373 591 1
373 592 1
374 4 1
374 8 1
374 17 1
374 18 1
374 23 1
374 24 1
374 25 1
374 26 1
374 30 1
374 32 1
374 33 1
374 46 1
374 86 1
374 94 1
374 100 1
374 101 1
374 106 1
374 107 1
374 110 1
374 117 1
374 121 1
374 124 1
374 134 1
374 143 1
374 164 1
374 176 1
374 177 1
374 180 1
374 187 1
374 191 1
374 196 1
374 209 1
374 217 1
374 218 1
374 219 1
374 222 1
374 226 1
374 227 1
374 229 1
374 247 1
374 258 1
374 260 1
374 277 1
374 279 1
374 282 1
374 283 1
374 285 1
374 288 1
374 292 1
374 293 1
374 297 1
374 301 1
374 312 1
374 316 1
374 324 1
374 329 1
374 334 1
374 336 1
374 338 1
374 339 1
374 346 1
374 347 1
374 353 1
374 355 1
374 356 1
374 368 1
374 380 1
374 388 1
374 392 1
374 399 1
374 404 1
374 409 1
374 410 1
374 414 1
374 418 1
374 420 1
374 423 1
374 424 1
374 426 1
374 445 1
374 448 1
374 453 1
374 456 1
374 465 1
374 466 1
374 469 1
374 472 1
374 474 1
374 476 1
374 486 1
374 488 1
374 490 1
374 496 1
374 499 1
374 501 1
374 504 1
374 506 1
374 514 1
374 515 1
374 529 1
374 532 1
374 536 1
374 537 1
374 542 1
374 543 1
374 547 1
374 548 1
374 550 1
374 559 1
374 562 1
374 563 1
374 568 1
374 569 1
374 570 1
374 588 1
374 590 1
374 591 1
374 594 1
375 3 1
375 4 1
375 8 1
375 11 1
375 13 1
375 41 1
375 42 1
375 50 1
375 51 1
375 57 1
375 58 1
375 65 1
375 78 1
375 81 1
375 83 1
375 88 1
375 99 1
375 102 1
375 104 1
375 110 1
375 113 1
375 120 1
375 123 1
375 125 1
375 133 1
375 137 1
375 141 1
375 143 1
375 147 1
375 153 1
375 157 1
375 163 1
375 172 1
375 174 1
375 175 1
375 177 1
375 185 1
375 190 1
375 192 1
375 195 1
375 199 1
375 203 1
375 211 1
375 215 1
375 220 1
375 221 1
375 237 1
375 242 1
375 250 1
375 258 1
375 259 1
375 273 1
375 274 1
375 291 1
375 295 1
375 298 1
375 303 1
375 304 1
375 309 1
375 313 1
375 314 1
375 321 1
375 324 1
375 326 1
375 335 1
375 345 1
375 346 1
375 348 1
375 353 1
375 361 1
375 362 1
375 365 1
375 367 1
375 368 1
375 378 1
375 388 1
375 389 1
375 391 1
375 396 1
375 399 1
375 400 1
375 403 1
375 405 1
375 406 1
375 407 1
375 413 1
375 416 1
375 420 1
375 424 1
375 431 1
375 432 1
375 438 1
375 441 1
375 443 1
375 448 1
375 449 1
375 453 1
375 458 1
375 461 1
375 464 1
375 471 1
375 478 1
375 493 1
375 495 1
375 499 1
375 501 1
375 503 1
375 504 1
375 508 1
375 512 1
375 518 1
375 521 1
375 524 1
375 530 1
375 531 1
375 538 1
375 541 1
375 556 1
375 578 1
375 581 1
375 584 1
375 585 1
375 586 1
375 587 1
375 599 1
376 22 1
376 23 1
376 26 1
376 28 1
376 34 1
376 40 1
376 41 1
376 42 1
376 56 1
376 57 1
376 70 1
376 85 1
376 93 1
376 94 1
376 95 1
376 99 1
376 101 1
376 107 1
376 109 1
376 116 1
376 121 1
376 123 1
376 124 1
376 127 1
376 132 1
376 133 1
376 142 1
376 147 1
376 164 1
376 167 1
376 170 1
376 171 1
376 172 1
376 173 1
376 177 1
376 195 1
376 197 1
376 198 1
376 202 1
376 203 1
376 207 1
376 218 1
376 220 1
376 224 1
376 228 1
376 230 1
376 232 1
376 234 1
376 241 1
376 245 1
376 253 1
376 254 1
376 258 1
376 264 1
376 266 1
376 271 1
376 273 1
376 278 1
376 285 1
376 300 1
376 302 1
376 305 1
376 310 1
376 312 1
376 324 1
376 326 1
376 333 1
376 334 1
376 335 1
376 351 1
376 353 1
376 357 1
376 358 1
376 360 1
376 362 1
376 367 1
376 369 1
376 372 1
376 381 1
376 383 1
376 392 1
376 394 1
376 401 1
376 402 1
376 403 1
376 415 1
376 416 1
376 428 1
376 437 1
376 445 1
376 448 1
376 458 1
376 460 1
376 463 1
376 464 1
376 466 1
376 467 1
376 470 1
376 477 1
376 480 1
376 488 1
376 489 1
376 490 1
376 491 1
376 493 1
376 497 1
376 512 1
376 514 1
376 534 1
376 539 1
376 540 1
376 543 1
376 549 1
376 553 1
376 555 1
376 566 1
376 573 1
376 574 1
376 588 1
376 598 1
376 599 1
376 600 1
377 14 1
377 22 1
377 25 1
377 29 1
377 30 1
377 33 1
377 36 1
377 46 1
377 51 1
377 61 1
377 64 1
377 66 1
377 72 1
377 77 1
377 78 1
377 82 1
377 90 1
377 93 1
377 94 1
377 96 1
377 100 1
377 101 1
377 102 1
377 104 1
377 108 1
377 127 1
377 130 1
377 142 1
377 146 1
377 147 1
377 153 1
377 158 1
377 159 1
377 174 1
377 183 1
377 186 1
377 196 1
377 198 1
377 199 1
377 200 1
377 205 1
377 206 1
377 207 1
377 209 1
377 212 1
377 217 1
377 226 1
377 228 1
377 231 1
377 233 1
377 235 1
377 237 1
377 242 1
377 258 1
377 261 1
377 266 1
377 270 1
377 283 1
377 288 1
377 289 1
377 292 1
377 293 1
377 299 1
377 300 1
377 323 1
377 324 1
377 331 1
377 334 1
377 338 1
377 344 1
377 351 1
377 353 1
377 354 1
377 359 1
377 363 1
377 366 1
377 367 1
377 378 1
377 379 1
377 389 1
377 390 1
377 392 1
377 395 1
377 396 1
377 397 1
377 400 1
377 401 1
377 405 1
377 406 1
377 407 1
377 417 1
377 418 1
377 419 1
377 422 1
377 425 1
377 426 1
377 427 1
377 433 1
377 434 1
377 435 1
377 441 1
377 444 1
377 457 1
377 459 1
377 461 1
377 462 1
377 466 1
377 476 1
377 483 1
377 485 1
377 488 1
377 493 1
377 496 1
377 498 1
377 500 1
377 506 1
377 508 1
377 510 1
377 514 1
377 531 1
377 543 1
377 545 1
377 547 1
377 552 1
377 553 1
377 556 1
377 558 1
377 564 1
377 571 1
377 579 1
377 597 1
378 6 1
378 8 1
378 18 1
378 19 1
378 20 1
378 21 1
378 22 1
378 30 1
378 32 1
378 45 1
378 46 1
378 49 1
378 57 1
378 64 1
378 67 1
378 69 1
378 71 1
378 73 1
378 74 1
378 78 1
378 87 1
378 88 1
378 93 1
378 101 1
378 109 1
378 110 1
378 121 1
378 127 1
378 128 1
378 129 1
378 132 1
378 138 1
378 148 1
378 151 1
378 158 1
378 160 1
378 161 1
378 163 1
378 178 1
378 181 1
378 182 1
378 185 1
378 191 1
378 198 1
378 204 1
378 205 1
378 206 1
378 208 1
378 210 1
378 211 1
378 219 1
378 231 1
378 243 1
378 246 1
378 251 1
378 254 1
378 266 1
378 269 1
378 287 1
378 312 1
378 313 1
378 314 1
378 315 1
378 316 1
378 324 1
378 328 1
378 333 1
378 342 1
378 344 1
378 345 1
378 356 1
378 357 1
378 361 1
378 366 1
378 367 1
378 371 1
378 372 1
378 375 1
378 377 1
378 380 1
378 385 1
378 393 1
378 397 1
378 399 1
378 401 1
378 403 1
378 407 1
378 417 1
378 421 1
378 423 1
378 426 1
378 427 1
378 428 1
378 433 1
378 449 1
378 451 1
378 461 1
378 467 1
378 478 1
378 479 1
378 482 1
378 490 1
378 495 1
378 496 1
378 502 1
378 507 1
378 509 1
378 513 1
378 516 1
378 517 1
378 528 1
378 535 1
378 538 1
378 540 1
378 542 1
378 543 1
378 544 1
378 548 1
378 552 1
378 556 1
378 558 1
378 561 1
378 565 1
378 570 1
378 571 1
378 572 1
378 575 1
378 585 1
378 589 1
378 593 1
379 5 1
379 10 1
379 11 1
379 12 1
379 29 1
379 38 1
379 41 1
379 46 1
379 56 1
379 72 1
379 79 1
379 82 1
379 87 1
379 92 1
379 119 1
379 120 1
379 121 1
379 123 1
379 125 1
379 128 1
379 130 1
379 144 1
379 154 1
379 157 1
379 158 1
379 160 1
379 165 1
379 168 1
379 170 1
379 178 1
379 182 1
379 185 1
379 189 1
379 191 1
379 206 1
379 208 1
379 217 1
379 227 1
379 229 1
379 232 1
379 233 1
379 236 1
379 239 1
379 242 1
379 244 1
379 246 1
379 253 1
379 268 1
379 275 1
379 276 1
379 279 1
379 280 1
379 285 1
379 286 1
379 293 1
379 294 1
379 305 1
379 306 1
379 309 1
379 315 1
379 320 1
379 321 1
379 323 1
379 324 1
379 326 1
379 331 1
379 334 1
379 336 1
379 342 1
379 343 1
379 345 1
379 356 1
379 358 1
379 365 1
379 366 1
379 368 1
379 377 1
379 381 1
379 390 1
379 396 1
379 398 1
379 404 1
379 408 1
379 409 1
379 410 1
379 412 1
379 414 1
379 416 1
379 418 1
379 428 1
379 431 1
379 434 1
379 435 1
379 442 1
379 445 1
379 448 1
379 458 1
379 469 1
379 470 1
379 471 1
379 473 1
379 478 1
379 484 1
379 491 1
379 494 1
379 498 1
379 503 1
379 504 1
379 505 1
379 507 1
379 513 1
379 534 1
379 535 1
379 537 1
379 539 1
379 540 1
379 541 1
379 546 1
379 552 1
379 553 1
379 559 1
379 570 1
379 571 1
379 572 1
379 573 1
379 581 1
379 587 1
379 599 1
380 3 1
380 5 1
380 9 1
380 24 1
380 27 1
380 40 1
380 42 1
380 44 1
380 53 1
380 54 1
380 63 1
380 71 1
380 74 1
380 92 1
380 93 1
380 95 1
380 103 1
380 110 1
380 111 1
380 112 1
380 119 1
380 126 1
380 131 1
380 133 1
380 140 1
380 143 1
380 154 1
380 160 1
380 171 1
380 173 1
380 183 1
380 185 1
380 188 1
380 189 1
380 195 1
380 205 1
380 224 1
380 228 1
380 234 1
380 246 1
380 247 1
380 254 1
380 255 1
380 256 1
380 259 1
380 269 1
380 275 1
380 276 1
380 277 1
380 281 1
380 286 1
380 287 1
380 293 1
380 296 1
380 305 1
380 307 1
380 308 1
380 311 1
380 315 1
380 324 1
380 327 1
380 329 1
380 330 1
380 351 1
380 359 1
380 360 1
380 374 1
380 378 1
380 382 1
380 400 1
380 421 1
380 423 1
380 429 1
380 430 1
380 433 1
380 436 1
380 438 1
380 448 1
380 452 1
380 453 1
380 457 1
380 468 1
380 478 1
380 480 1
380 483 1
380 484 1
380 506 1
380 518 1
380 520 1
380 522 1
380 542 1
380 546 1
380 552 1
380 562 1
380 567 1
380 577 1
380 580 1
380 583 1
380 584 1
380 591 1
380 593 1
381 7 1
381 8 1
381 9 1
381 15 1
381 16 1
381 22 1
381 23 1
381 24 1
381 28 1
381 30 1
381 37 1
381 39 1
381 42 1
381 54 1
381 64 1
381 65 1
381 68 1
381 69 1
381 70 1
381 73 1
381 75 1
381 85 1
381 90 1
381 91 1
381 92 1
381 97 1
381 110 1
381 118 1
381 132 1
381 135 1
381 143 1
381 150 1
381 156 1
381 157 1
381 164 1
381 171 1
381 176 1
381 177 1
381 207 1
381 208 1
381 212 1
381 218 1
381 220 1
381 223 1
381 225 1
381 228 1
381 231 1
381 232 1
381 234 1
381 243 1
381 247 1
381 252 1
381 258 1
381 259 1
381 260 1
381 264 1
381 267 1
381 269 1
381 274 1
381 279 1
381 283 1
381 291 1
381 292 1
381 298 1
381 309 1
381 319 1
381 320 1
381 325 1
381 329 1
381 334 1
381 336 1
381 337 1
381 338 1
381 340 1
381 347 1
381 353 1
381 357 1
381 358 1
381 362 1
381 376 1
381 379 1
381 389 1
381 394 1
381 401 1
381 403 1
381 410 1
381 423 1
381 425 1
381 426 1
381 427 1
381 430 1
381 432 1
381 435 1
381 437 1
381 443 1
381 448 1
381 451 1
381 464 1
381 468 1
381 474 1
381 477 1
381 485 1
381 493 1
381 494 1
381 504 1
381 506 1
381 511 1
381 512 1
381 521 1
381 523 1
381 525 1
381 528 1
381 534 1
381 536 1
381 540 1
381 550 1
381 551 1
381 552 1
381 558 1
381 562 1
381 583 1
381 585 1
381 586 1
381 587 1
381 592 1
381 594 1
381 595 1
381 596 1
381 597 1
382 1 1
382 4 1
382 6 1
382 8 1
382 16 1
382 19 1
382 28 1
382 34 1
382 36 1
382 38 1
382 41 1
382 44 1
382 54 1
382 55 1
382 57 1
382 58 1
382 65 1
382 69 1
382 72 1
382 77 1
382 78 1
382 82 1
382 90 1
382 100 1
382 105 1
382 109 1
382 126 1
382 128 1
382 131 1
382 132 1
382 134 1
382 140 1
382 142 1
382 158 1
382 162 1
382 163 1
382 165 1
382 178 1
382 182 1
382 188 1
382 194 1
382 197 1
382 198 1
382 201 1
382 206 1
382 213 1
382 219 1
382 223 1
382 227 1
382 231 1
382 233 1
382 236 1
382 244 1
382 254 1
382 262 1
382 266 1
382 267 1
382 279 1
382 282 1
382 283 1
382 291 1
382 295 1
382 298 1
382 299 1
382 309 1
382 310 1
382 321 1
382 331 1
382 335 1
382 341 1
382 347 1
382 349 1
382 365 1
382 366 1
382 370 1
382 380 1
382 383 1
382 385 1
382 390 1
382 392 1
382 393 1
382 399 1
382 407 1
382 414 1
382 428 1
382 436 1
382 438 1
382 442 1
382 452 1
382 454 1
382 460 1
382 462 1
382 463 1
382 464 1
382 466 1
382 468 1
382 485 1
382 492 1
382 506 1
382 511 1
382 520 1
382 521 1
382 523 1
382 532 1
382 535 1
382 545 1
382 546 1
382 550 1
382 551 1
382 554 1
382 555 1
382 557 1
382 570 1
382 572 1
382 574 1
382 575 1
382 578 1
382 587 1
382 590 1
383 7 1
383 11 1
383 13 1
383 19 1
383 25 1
383 28 1
383 31 1
383 34 1
383 37 1
383 38 1
383 46 1
383 48 1
383 49 1
383 50 1
383 51 1
383 53 1
383 71 1
383 84 1
383 85 1
383 90 1
383 96 1
383 98 1
383 107 1
383 112 1
383 115 1
383 117 1
383 118 1
383 121 1
383 122 1
383 123 1
383 127 1
383 150 1
383 151 1
383 158 1
383 162 1
383 172 1
383 176 1
383 177 1
383 178 1
383 180 1
383 183 1
383 192 1
383 197 1
383 198 1
383 212 1
383 222 1
383 223 1
383 225 1
383 227 1
383 231 1
383 239 1
383 248 1
383 257 1
383 258 1
383 263 1
383 268 1
383 269 1
383 270 1
383 272 1
383 273 1
383 276 1
383 304 1
383 305 1
383 308 1
383 309 1
383 316 1
383 317 1
383 319 1
383 337 1
383 346 1
383 348 1
383 352 1
383 354 1
383 356 1
383 366 1
383 372 1
383 376 1
383 382 1
383 398 1
383 399 1
383 400 1
383 404 1
383 418 1
383 419 1
383 420 1
383 425 1
383 427 1
383 460 1
383 465 1
383 466 1
383 468 1
383 470 1
383 476 1
383 483 1
383 484 1
383 489 1
383 493 1
383 506 1
383 510 1
383 512 1
383 513 1
383 520 1
383 523 1
383 526 1
383 527 1
383 537 1
383 540 1
383 541 1
383 546 1
383 576 1
383 583 1
383 590 1
384 1 1
384 5 1
384 14 1
384 20 1
384 34 1
384 40 1
384 60 1
384 62 1
384 63 1
384 65 1
384 66 1
384 68 1
384 71 1
384 75 1
384 76 1
384 77 1
384 79 1
384 81 1
384 86 1
384 90 1
384 117 1
384 122 1
384 124 1
384 130 1
384 132 1
384 136 1
384 146 1
384 147 1
384 153 1
384 156 1
384 157 1
384 160 1
384 166 1
384 167 1
384 178 1
384 182 1
384 184 1
384 189 1
384 192 1
384 194 1
384 195 1
384 199 1
384 209 1
384 210 1
384 214 1
384 217 1
384 227 1
384 230 1
384 237 1
384 239 1
384 241 1
384 245 1
384 249 1
384 252 1
384 255 1
384 258 1
384 259 1
384 261 1
384 265 1
384 267 1
384 270 1
384 271 1
384 273 1
384 275 1
384 280 1
384 287 1
384 297 1
384 299 1
384 304 1
384 309 1
384 312 1
384 323 1
384 330 1
384 333 1
384 342 1
384 352 1
384 356 1
384 359 1
384 362 1
384 367 1
384 368 1
384 385 1
384 387 1
384 389 1
384 392 1
384 398 1
384 410 1
384 412 1
384 414 1
384 419 1
384 426 1
384 431 1
384 433 1
384 434 1
384 439 1
384 444 1
384 456 1
384 457 1
384 459 1
384 460 1
384 463 1
384 464 1
384 466 1
384 467 1
384 473 1
384 475 1
384 480 1
384 484 1
384 501 1
384 506 1
384 510 1
384 516 1
384 519 1
384 524 1
384 525 1
384 526 1
384 527 1
384 529 1
384 531 1
384 533 1
384 537 1
384 552 1
384 553 1
384 556 1
384 567 1
384 578 1
384 579 1
384 583 1
384 584 1
384 585 1
384 588 1
384 590 1
384 595 1
384 598 1
385 1 1
385 2 1
385 7 1
385 8 1
385 13 1
385 27 1
385 31 1
385 32 1
385 33 1
385 37 1
385 41 1
385 53 1
385 54 1
385 75 1
385 76 1
385 89 1
385 92 1
385 103 1
385 105 1
385 107 1
385 112 1
385 114 1
385 116 1
385 118 1
385 120 1
385 124 1
385 127 1
385 128 1
385 135 1
385 141 1
385 158 1
385 159 1
385 167 1
385 175 1
385 176 1
385 188 1
385 201 1
385 203 1
385 208 1
385 212 1
385 227 1
385 230 1
385 237 1
385 240 1
385 241 1
385 245 1
385 246 1
385 247 1
385 253 1
385 255 1
385 262 1
385 268 1
385 270 1
385 272 1
385 279 1
385 289 1
385 293 1
385 294 1
385 300 1
385 301 1
385 303 1
385 311 1
385 323 1
385 324 1
385 332 1
385 333 1
385 340 1
385 341 1
385 347 1
385 349 1
385 350 1
385 351 1
385 352 1
385 354 1
385 358 1
385 361 1
385 366 1
385 371 1
385 372 1
385 378 1
385 382 1
385 384 1
385 389 1
385 391 1
385 392 1
385 396 1
385 397 1
385 404 1
385 407 1
385 409 1
385 435 1
385 442 1
385 448 1
385 458 1
385 461 1
385 469 1
385 471 1
385 472 1
385 478 1
385 482 1
385 488 1
385 492 1
385 507 1
385 516 1
385 521 1
385 525 1
385 526 1
385 530 1
385 531 1
385 535 1
385 541 1
385 542 1
385 547 1
385 549 1
385 550 1
385 552 1
385 557 1
385 567 1
385 568 1
385 571 1
385 572 1
385 574 1
385 575 1
385 576 1
385 581 1
385 587 1
386 4 1
386 7 1
386 8 1
386 15 1
386 19 1
386 25 1
386 31 1
386 36 1
386 47 1
386 58 1
386 59 1
386 63 1
386 66 1
386 74 1
386 79 1
386 80 1
386 82 1
386 84 1
386 92 1
386 94 1
386 107 1
386 108 1
386 110 1
386 114 1
386 121 1
386 122 1
386 128 1
386 129 1
386 134 1
386 135 1
386 140 1
386 147 1
386 150 1
386 164 1
386 165 1
386 170 1
386 172 1
386 176 1
386 186 1
386 189 1
386 197 1
386 203 1
386 208 1
386 210 1
386 211 1
386 219 1
386 222 1
386 233 1
386 243 1
386 247 1
386 251 1
386 253 1
386 260 1
386 272 1
386 285 1
386 286 1
386 300 1
386 302 1
386 305 1
386 310 1
386 316 1
386 318 1
386 334 1
386 335 1
386 336 1
386 341 1
386 342 1
386 346 1
386 351 1
386 353 1
386 360 1
386 368 1
386 369 1
386 372 1
386 390 1
386 397 1
386 399 1
386 407 1
386 408 1
386 414 1
386 415 1
386 419 1
386 422 1
386 430 1
386 432 1
386 438 1
386 441 1
386 446 1
386 449 1
386 452 1
386 457 1
386 461 1
386 464 1
386 467 1
386 468 1
386 472 1
386 473 1
386 475 1
386 476 1
386 486 1
386 492 1
386 502 1
386 506 1
386 512 1
386 513 1
386 515 1
386 519 1
386 521 1
386 526 1
386 527 1
386 533 1
386 542 1
386 543 1
386 545 1
386 557 1
386 558 1
386 562 1
386 567 1
386 577 1
386 582 1
386 584 1
386 586 1
386 598 1
387 9 1
387 16 1
387 17 1
387 23 1
387 35 1
387 44 1
387 50 1
387 51 1
387 53 1
387 54 1
387 55 1
387 67 1
387 74 1
387 75 1
387 78 1
387 88 1
387 98 1
387 109 1
387 127 1
387 129 1
387 132 1
387 133 1
387 134 1
387 137 1
387 138 1
387 145 1
387 153 1
387 161 1
387 164 1
387 165 1
387 166 1
387 172 1
387 181 1
387 185 1
387 188 1
387 189 1
387 195 1
387 196 1
387 203 1
387 214 1
387 215 1
387 221 1
387 226 1
387 229 1
387 240 1
387 242 1
387 243 1
387 250 1
387 256 1
387 258 1
387 261 1
387 276 1
387 278 1
387 282 1
387 289 1
387 294 1
387 299 1
387 301 1
387 313 1
387 314 1
387 325 1
387 327 1
387 329 1
387 331 1
387 333 1
387 342 1
387 343 1
387 354 1
387 369 1
387 384 1
387 391 1
387 411 1
387 416 1
387 417 1
387 419 1
387 426 1
387 428 1
387 443 1
387 444 1
387 458 1
387 460 1
387 465 1
387 469 1
387 474 1
387 484 1
387 485 1
387 505 1
387 507 1
387 514 1
387 521 1
387 532 1
387 536 1
387 537 1
387 538 1
387 544 1
387 546 1
387 560 1
387 565 1
387 575 1
387 577 1
387 593 1
387 597 1
388 3 1
388 6 1
388 14 1
388 15 1
388 18 1
388 25 1
388 28 1
388 38 1
388 47 1
388 62 1
388 75 1
388 77 1
388 85 1
388 88 1
388 91 1
388 94 1
388 95 1
388 97 1
388 99 1
388 100 1
388 102 1
388 106 1
388 113 1
388 121 1
388 123 1
388 125 1
388 135 1
388 137 1
388 138 1
388 141 1
388 146 1
388 155 1
388 161 1
388 178 1
388 184 1
388 189 1
388 192 1
388 195 1
388 199 1
388 201 1
388 202 1
388 208 1
388 210 1
388 211 1
388 217 1
388 239 1
388 240 1
388 243 1
388 252 1
388 256 1
388 261 1
388 266 1
388 274 1
388 279 1
388 281 1
388 283 1
388 288 1
388 294 1
388 298 1
388 299 1
388 303 1
388 308 1
388 315 1
388 332 1
388 338 1
388 342 1
388 352 1
388 354 1
388 355 1
388 357 1
388 358 1
388 359 1
388 360 1
388 369 1
388 370 1
388 374 1
388 375 1
388 389 1
388 394 1
388 395 1
388 402 1
388 409 1
388 420 1
388 422 1
388 423 1
388 437 1
388 441 1
388 454 1
388 456 1
388 457 1
388 460 1
388 468 1
388 469 1
388 473 1
388 474 1
388 482 1
388 484 1
388 485 1
388 504 1
388 508 1
388 515 1
388 517 1
388 523 1
388 524 1
388 525 1
388 527 1
388 531 1
388 539 1
388 542 1
388 546 1
388 557 1
388 558 1
388 563 1
388 565 1
388 576 1
388 586 1
388 594 1
388 595 1
388 598 1
389 1 1
389 3 1
389 9 1
389 10 1
389 11 1
389 13 1
389 15 1
389 24 1
389 25 1
389 28 1
389 33 1
389 38 1
389 39 1
389 42 1
389 43 1
389 44 1
389 50 1
389 52 1
389 58 1
389 67 1
389 72 1
389 80 1
389 83 1
389 85 1
389 87 1
389 89 1
389 93 1
389 97 1
389 116 1
389 130 1
389 135 1
389 138 1
389 154 1
389 155 1
389 158 1
389 163 1
389 169 1
389 171 1
389 177 1
389 182 1
389 192 1
389 203 1
389 205 1
389 214 1
389 218 1
389 220 1
389 226 1
389 235 1
389 242 1
389 243 1
389 260 1
389 261 1
389 277 1
389 278 1
389 282 1
389 293 1
389 296 1
389 297 1
389 302 1
389 306 1
389 311 1
389 317 1
389 320 1
389 322 1
389 332 1
389 338 1
389 349 1
389 361 1
389 362 1
389 371 1
389 375 1
389 377 1
389 381 1
389 384 1
389 385 1
389 388 1
389 391 1
389 392 1
389 395 1
389 396 1
389 399 1
389 404 1
389 405 1
389 407 1
389 410 1
389 413 1
389 415 1
389 417 1
389 419 1
389 421 1
389 422 1
389 427 1
389 449 1
389 454 1
389 458 1
389 463 1
389 474 1
389 477 1
389 479 1
389 482 1
389 483 1
389 495 1
389 511 1
389 516 1
389 520 1
389 523 1
389 531 1
389 533 1
389 534 1
389 536 1
389 537 1
389 538 1
389 552 1
389 553 1
389 566 1
389 579 1
389 581 1
389 585 1
389 586 1
389 593 1
389 595 1
390 7 1
390 16 1
390 26 1
390 27 1
390 34 1
390 47 1
390 52 1
390 53 1
390 66 1
390 71 1
390 72 1
390 73 1
390 80 1
390 81 1
390 85 1
390 98 1
390 101 1
390 103 1
390 107 1
390 111 1
390 134 1
390 138 1
390 139 1
390 142 1
390 143 1
390 144 1
390 146 1
390 150 1
390 153 1
390 156 1
390 168 1
390 172 1
390 174 1
390 193 1
390 194 1
390 199 1
390 201 1
390 203 1
390 216 1
390 218 1
390 219 1
390 223 1
390 233 1
390 238 1
390 241 1
390 242 1
390 250 1
390 251 1
390 255 1
390 256 1
390 262 1
390 263 1
390 266 1
390 267 1
390 275 1
390 279 1
390 287 1
390 293 1
390 299 1
390 311 1
390 317 1
390 322 1
390 329 1
390 332 1
390 337 1
390 340 1
390 345 1
390 347 1
390 352 1
390 356 1
390 361 1
390 363 1
390 364 1
390 369 1
390 372 1
390 377 1
390 379 1
390 382 1
390 386 1
390 393 1
390 395 1
390 401 1
390 407 1
390 408 1
390 411 1
390 412 1
390 430 1
390 434 1
390 448 1
390 458 1
390 461 1
390 462 1
390 464 1
390 466 1
390 471 1
390 475 1
390 481 1
390 487 1
390 488 1
390 489 1
390 492 1
390 501 1
390 507 1
390 514 1
390 516 1
390 521 1
390 524 1
390 525 1
390 526 1
390 531 1
390 532 1
390 543 1
390 551 1
390 556 1
390 560 1
390 566 1
390 570 1
390 574 1
390 577 1
390 581 1
390 586 1
390 589 1
390 594 1
390 596 1
390 600 1
391 3 1
391 7 1
391 18 1
391 24 1
391 28 1
391 32 1
391 33 1
391 37 1
391 38 1
391 42 1
391 44 1
391 46 1
391 53 1
391 54 1
391 64 1
391 67 1
391 73 1
391 78 1
391 83 1
391 87 1
391 96 1
391 105 1
391 107 1
391 123 1
391 126 1
391 129 1
391 132 1
391 139 1
391 143 1
391 144 1
391 146 1
391 149 1
391 159 1
391 160 1
391 162 1
391 181 1
391 183 1
391 191 1
391 194 1
391 203 1
391 205 1
391 217 1
391 221 1
391 241 1
391 242 1
391 243 1
391 245 1
391 257 1
391 260 1
391 266 1
391 270 1
391 276 1
391 280 1
391 285 1
391 288 1
391 292 1
391 294 1
391 299 1
391 300 1
391 303 1
391 314 1
391 317 1
391 318 1
391 322 1
391 325 1
391 331 1
391 336 1
391 344 1
391 345 1
391 346 1
391 351 1
391 375 1
391 385 1
391 387 1
391 389 1
391 397 1
391 398 1
391 401 1
391 412 1
391 413 1
391 415 1
391 423 1
391 424 1
391 426 1
391 427 1
391 430 1
391 431 1
391 433 1
391 436 1
391 441 1
391 467 1
391 469 1
391 471 1
391 479 1
391 488 1
391 491 1
391 496 1
391 502 1
391 503 1
391 507 1
391 510 1
391 511 1
391 513 1
391 515 1
391 519 1
391 529 1
391 531 1
391 537 1
391 538 1
391 541 1
391 547 1
391 556 1
391 563 1
391 564 1
391 580 1
391 582 1
391 584 1
391 590 1
391 592 1
392 3 1
392 4 1
392 8 1
392 12 1
392 16 1
392 21 1
392 28 1
392 38 1
392 48 1
392 52 1
392 53 1
392 54 1
392 56 1
392 62 1
392 74 1
392 75 1
392 76 1
392 77 1
392 78 1
392 85 1
392 87 1
392 93 1
392 98 1
392 104 1
392 113 1
392 116 1
392 125 1
392 126 1
392 128 1
392 132 1
392 133 1
392 138 1
392 140 1
392 141 1
392 146 1
392 155 1
392 169 1
392 180 1
392 190 1
392 191 1
392 195 1
392 200 1
392 204 1
392 212 1
392 213 1
392 215 1
392 217 1
392 218 1
392 224 1
392 232 1
392 237 1
392 240 1
392 243 1
392 245 1
392 249 1
392 258 1
392 259 1
392 263 1
392 271 1
392 272 1
392 275 1
392 287 1
392 292 1
392 300 1
392 301 1
392 303 1
392 304 1
392 312 1
392 330 1
392 353 1
392 363 1
392 370 1
392 372 1
392 374 1
392 376 1
392 377 1
392 382 1
392 384 1
392 385 1
392 389 1
392 398 1
392 403 1
392 406 1
392 413 1
392 420 1
392 428 1
392 429 1
392 431 1
392 437 1
392 438 1
392 439 1
392 443 1
392 444 1
392 448 1
392 460 1
392 465 1
392 473 1
392 480 1
392 482 1
392 483 1
392 487 1
392 488 1
392 490 1
392 494 1
392 495 1
392 497 1
392 500 1
392 503 1
392 509 1
392 516 1
392 522 1
392 528 1
392 534 1
392 543 1
392 550 1
392 552 1
392 560 1
392 566 1
392 576 1
392 577 1
392 579 1
392 582 1
392 585 1
392 589 1
392 593 1
392 594 1
392 595 1
392 600 1
393 8 1
393 11 1
393 17 1
393 24 1
393 26 1
393 34 1
393 37 1
393 41 1
393 44 1
393 48 1
393 53 1
393 60 1
393 65 1
393 66 1
393 83 1
393 85 1
393 92 1
393 96 1
393 110 1
393 114 1
393 116 1
393 118 1
393 119 1
393 122 1
393 123 1
393 138 1
393 139 1
393 144 1
393 148 1
393 160 1
393 162 1
393 170 1
393 171 1
393 174 1
393 181 1
393 192 1
393 193 1
393 207 1
393 209 1
393 211 1
393 218 1
393 219 1
393 220 1
393 227 1
393 228 1
393 229 1
393 231 1
393 237 1
393 239 1
393 246 1
393 247 1
393 251 1
393 252 1
393 256 1
393 261 1
393 262 1
393 263 1
393 266 1
393 267 1
393 268 1
393 272 1
393 275 1
393 276 1
393 278 1
393 279 1
393 282 1
393 289 1
393 304 1
393 313 1
393 323 1
393 332 1
393 333 1
393 336 1
393 338 1
393 346 1
393 351 1
393 358 1
393 363 1
393 366 1
393 370 1
393 371 1
393 378 1
393 382 1
393 390 1
393 394 1
393 401 1
393 403 1
393 404 1
393 421 1
393 429 1
393 436 1
393 446 1
393 448 1
393 451 1
393 457 1
393 460 1
393 463 1
393 465 1
393 468 1
393 478 1
393 479 1
393 481 1
393 484 1
393 489 1
393 503 1
393 506 1
393 508 1
393 514 1
393 522 1
393 526 1
393 528 1
393 535 1
393 541 1
393 544 1
393 554 1
393 572 1
393 576 1
393 580 1
393 592 1
393 598 1
394 2 1
394 8 1
394 9 1
394 12 1
394 20 1
394 21 1
394 27 1
394 30 1
394 40 1
394 42 1
394 47 1
394 51 1
394 54 1
394 63 1
394 64 1
394 75 1
394 77 1
394 83 1
394 88 1
394 98 1
394 104 1
394 105 1
394 106 1
394 111 1
394 114 1
394 115 1
394 116 1
394 121 1
394 124 1
394 133 1
394 147 1
394 158 1
394 163 1
394 165 1
394 170 1
394 172 1
394 174 1
394 188 1
394 193 1
394 197 1
394 201 1
394 202 1
394 206 1
394 209 1
394 210 1
394 215 1
394 221 1
394 224 1
394 232 1
394 236 1
394 243 1
394 245 1
394 260 1
394 271 1
394 278 1
394 281 1
394 283 1
394 284 1
394 287 1
394 293 1
394 298 1
394 300 1
394 305 1
394 306 1
394 308 1
394 310 1
394 317 1
394 321 1
394 325 1
394 338 1
394 342 1
394 346 1
394 350 1
394 362 1
394 363 1
394 368 1
394 370 1
394 373 1
394 376 1
394 381 1
394 388 1
394 393 1
394 398 1
394 408 1
394 412 1
394 414 1
394 416 1
394 420 1
394 426 1
394 428 1
394 429 1
394 432 1
394 440 1
394 442 1
394 454 1
394 456 1
394 462 1
394 467 1
394 470 1
394 471 1
394 483 1
394 484 1
394 490 1
394 492 1
394 496 1
394 497 1
394 499 1
394 503 1
394 507 1
394 526 1
394 534 1
394 537 1
394 540 1
394 543 1
394 544 1
394 545 1
394 549 1
394 555 1
394 572 1
394 573 1
394 577 1
394 590 1
394 591 1
394 595 1
395 3 1
395 8 1
395 17 1
395 41 1
395 49 1
395 52 1
395 83 1
395 84 1
395 86 1
395 88 1
395 100 1
395 104 1
395 112 1
395 115 1
395 123 1
395 132 1
395 146 1
395 148 1
395 163 1
395 169 1
395 171 1
395 181 1
395 183 1
395 193 1
395 200 1
395 203 1
395 208 1
395 209 1
395 212 1
395 225 1
395 232 1
395 235 1
395 238 1
395 245 1
395 252 1
395 254 1
395 255 1
395 257 1
395 261 1
395 262 1
395 271 1
395 274 1
395 276 1
395 277 1
395 280 1
395 285 1
395 287 1
395 289 1
395 307 1
395 310 1
395 314 1
395 327 1
395 331 1
395 332 1
395 340 1
395 343 1
395 345 1
395 347 1
395 351 1
395 352 1
395 354 1
395 361 1
395 367 1
395 368 1
395 377 1
395 388 1
395 389 1
395 390 1
395 400 1
395 407 1
395 408 1
395 416 1
395 418 1
395 423 1
395 425 1
395 433 1
395 434 1
395 435 1
395 437 1
395 441 1
395 449 1
395 450 1
395 456 1
395 464 1
395 465 1
395 471 1
395 472 1
395 477 1
395 480 1
395 482 1
395 484 1
395 486 1
395 489 1
395 490 1
395 493 1
395 498 1
395 503 1
395 508 1
395 518 1
395 523 1
395 534 1
395 537 1
395 539 1
395 540 1
395 541 1
395 547 1
395 554 1
395 558 1
395 559 1
395 567 1
395 576 1
395 579 1
395 588 1
395 592 1
395 594 1
395 597 1
395 598 1
396 4 1
396 9 1
396 14 1
396 17 1
396 18 1
396 21 1
396 28 1
396 29 1
396 36 1
396 39 1
396 43 1
396 52 1
396 54 1
396 60 1
396 61 1
396 67 1
396 68 1
396 70 1
396 72 1
396 80 1
396 81 1
396 89 1
396 92 1
396 102 1
396 107 1
396 111 1
396 112 1
396 135 1
396 139 1
396 151 1
396 154 1
396 157 1
396 160 1
396 161 1
396 165 1
396 166 1
396 170 1
396 174 1
396 177 1
396 184 1
396 192 1
396 197 1
396 200 1
396 202 1
396 215 1
396 226 1
396 236 1
396 238 1
396 241 1
396 247 1
396 253 1
396 255 1
396 259 1
396 260 1
396 281 1
396 284 1
396 285 1
396 286 1
396 287 1
396 293 1
396 294 1
396 305 1
396 307 1
396 311 1
396 318 1
396 324 1
396 347 1
396 354 1
396 356 1
396 357 1
396 358 1
396 359 1
396 361 1
396 362 1
396 365 1
396 375 1
396 377 1
396 379 1
396 385 1
396 389 1
396 398 1
396 427 1
396 428 1
396 440 1
396 444 1
396 445 1
396 446 1
396 448 1
396 461 1
396 468 1
396 470 1
396 477 1
396 483 1
396 487 1
396 502 1
396 504 1
396 506 1
396 516 1
396 527 1
396 531 1
396 532 1
396 533 1
396 539 1
396 548 1
396 567 1
396 568 1
396 569 1
396 570 1
396 577 1
396 579 1
396 581 1
396 587 1
396 600 1
397 2 1
397 5 1
397 12 1
397 21 1
397 24 1
397 27 1
397 31 1
397 33 1
397 38 1
397 39 1
397 44 1
397 45 1
397 68 1
397 70 1
397 75 1
397 78 1
397 80 1
397 81 1
397 82 1
397 84 1
397 87 1
397 89 1
397 94 1
397 100 1
397 110 1
397 111 1
397 118 1
397 120 1
397 121 1
397 124 1
397 125 1
397 132 1
397 133 1
397 134 1
397 143 1
397 148 1
397 149 1
397 150 1
397 159 1
397 163 1
397 171 1
397 175 1
397 179 1
397 182 1
397 184 1
397 213 1
397 220 1
397 222 1
397 223 1
397 224 1
397 228 1
397 229 1
397 230 1
397 235 1
397 237 1
397 239 1
397 250 1
397 258 1
397 261 1
397 263 1
397 265 1
397 267 1
397 279 1
397 281 1
397 293 1
397 306 1
397 312 1
397 315 1
397 318 1
397 321 1
397 325 1
397 331 1
397 332 1
397 344 1
397 346 1
397 357 1
397 358 1
397 363 1
397 370 1
397 377 1
397 378 1
397 385 1
397 386 1
397 391 1
397 403 1
397 404 1
397 407 1
397 409 1
397 410 1
397 417 1
397 420 1
397 424 1
397 425 1
397 428 1
397 429 1
397 432 1
397 450 1
397 453 1
397 454 1
397 458 1
397 459 1
397 462 1
397 483 1
397 484 1
397 490 1
397 493 1
397 495 1
397 504 1
397 507 1
397 509 1
397 511 1
397 512 1
397 515 1
397 527 1
397 532 1
397 536 1
397 538 1
397 543 1
397 548 1
397 550 1
397 557 1
397 558 1
397 561 1
397 562 1
397 566 1
397 574 1
397 579 1
397 585 1
397 594 1
398 6 1
398 11 1
398 15 1
398 17 1
398 22 1
398 32 1
398 45 1
398 50 1
398 59 1
398 60 1
398 68 1
398 70 1
398 74 1
398 81 1
398 82 1
398 92 1
398 93 1
398 99 1
398 103 1
398 119 1
398 129 1
398 130 1
398 136 1
398 137 1
398 146 1
398 147 1
398 148 1
398 149 1
398 151 1
398 159 1
398 164 1
398 166 1
398 169 1
398 170 1
398 172 1
398 177 1
398 190 1
398 196 1
398 200 1
398 209 1
398 218 1
398 220 1
398 222 1
398 224 1
398 226 1
398 227 1
398 245 1
398 249 1
398 251 1
398 255 1
398 257 1
398 263 1
398 271 1
398 278 1
398 286 1
398 288 1
398 293 1
398 306 1
398 318 1
398 320 1
398 321 1
398 328 1
398 337 1
398 339 1
398 347 1
398 354 1
398 359 1
398 364 1
398 373 1
398 379 1
398 383 1
398 384 1
398 391 1
398 392 1
398 394 1
398 396 1
398 400 1
398 403 1
398 404 1
398 411 1
398 417 1
398 423 1
398 424 1
398 431 1
398 433 1
398 438 1
398 447 1
398 455 1
398 456 1
398 458 1
398 459 1
398 460 1
398 461 1
398 464 1
398 480 1
398 483 1
398 487 1
398 493 1
398 496 1
398 498 1
398 503 1
398 511 1
398 513 1
398 529 1
398 530 1
398 534 1
398 535 1
398 536 1
398 545 1
398 548 1
398 549 1
398 551 1
398 554 1
398 557 1
398 558 1
398 559 1
398 566 1
398 575 1
398 583 1
398 588 1
398 595 1
398 597 1
399 6 1
399 12 1
399 27 1
399 28 1
399 29 1
399 30 1
399 31 1
399 34 1
399 39 1
399 40 1
399 45 1
399 53 1
399 63 1
399 71 1
399 72 1
399 76 1
399 77 1
399 90 1
399 92 1
399 94 1
399 98 1
399 102 1
399 110 1
399 116 1
399 118 1
399 121 1
399 128 1
399 130 1
399 132 1
399 146 1
399 152 1
399 154 1
399 156 1
399 160 1
399 167 1
399 168 1
399 171 1
399 184 1
399 186 1
399 200 1
399 206 1
399 207 1
399 210 1
399 213 1
399 214 1
399 217 1
399 222 1
399 225 1
399 226 1
399 229 1
399 231 1
399 256 1
399 258 1
399 260 1
399 263 1
399 264 1
399 269 1
399 272 1
399 273 1
399 278 1
399 286 1
399 289 1
399 297 1
399 298 1
399 301 1
399 316 1
399 322 1
399 327 1
399 328 1
399 331 1
399 334 1
399 354 1
399 360 1
399 373 1
399 374 1
399 375 1
399 378 1
399 382 1
399 383 1
399 386 1
399 389 1
399 401 1
399 402 1
399 408 1
399 411 1
399 429 1
399 433 1
399 441 1
399 445 1
399 454 1
399 456 1
399 458 1
399 459 1
399 460 1
399 473 1
399 476 1
399 479 1
399 481 1
399 493 1
399 495 1
399 497 1
399 504 1
399 513 1
399 524 1
399 533 1
399 536 1
399 549 1
399 550 1
399 563 1
399 564 1
399 570 1
399 574 1
399 576 1
399 582 1
399 588 1
399 591 1
399 595 1
399 597 1
399 600 1
400 3 1
400 4 1
400 9 1
400 40 1
400 43 1
400 44 1
400 45 1
400 52 1
400 55 1
400 62 1
400 63 1
400 66 1
400 72 1
400 73 1
400 78 1
400 82 1
400 83 1
400 84 1
400 97 1
400 99 1
400 110 1
400 111 1
400 121 1
400 125 1
400 130 1
400 139 1
400 143 1
400 153 1
400 162 1
400 167 1
400 184 1
400 188 1
400 192 1
400 196 1
400 208 1
400 211 1
400 217 1
400 218 1
400 220 1
400 221 1
400 222 1
400 223 1
400 225 1
400 229 1
400 230 1
400 232 1
400 234 1
400 239 1
400 243 1
400 247 1
400 249 1
400 252 1
400 261 1
400 262 1
400 266 1
400 267 1
400 270 1
400 293 1
400 297 1
400 299 1
400 301 1
400 307 1
400 310 1
400 313 1
400 316 1
400 329 1
400 343 1
400 345 1
400 346 1
400 350 1
400 351 1
400 366 1
400 368 1
400 370 1
400 375 1
400 377 1
400 380 1
400 383 1
400 395 1
400 398 1
400 409 1
400 412 1
400 415 1
400 418 1
400 429 1
400 437 1
400 441 1
400 443 1
400 451 1
400 452 1
400 462 1
400 474 1
400 475 1
400 495 1
400 496 1
400 502 1
400 503 1
400 510 1
400 511 1
400 516 1
400 523 1
400 532 1
400 534 1
400 536 1
400 539 1
400 547 1
400 558 1
400 559 1
400 560 1
400 567 1
400 576 1
400 580 1
400 581 1
400 585 1
400 591 1
401 7 1
401 15 1
401 17 1
401 18 1
401 21 1
401 22 1
401 24 1
401 37 1
401 40 1
401 47 1
401 56 1
401 57 1
401 65 1
401 70 1
401 95 1
401 103 1
401 110 1
401 121 1
401 123 1
401 130 1
401 133 1
401 134 1
401 136 1
401 138 1
401 143 1
401 147 1
401 153 1
401 156 1
401 157 1
401 159 1
401 160 1
401 170 1
401 175 1
401 176 1
401 181 1
401 183 1
401 202 1
401 203 1
401 204 1
401 205 1
401 209 1
401 211 1
401 218 1
401 221 1
401 230 1
401 234 1
401 238 1
401 243 1
401 249 1
401 253 1
401 255 1
401 256 1
401 258 1
401 266 1
401 286 1
401 295 1
401 301 1
401 303 1
401 307 1
401 312 1
401 314 1
401 316 1
401 317 1
401 333 1
401 340 1
401 347 1
401 354 1
401 359 1
401 360 1
401 368 1
401 373 1
401 376 1
401 377 1
401 378 1
401 381 1
401 390 1
401 391 1
401 393 1
401 399 1
401 404 1
401 408 1
401 422 1
401 431 1
401 436 1
401 437 1
401 438 1
401 440 1
401 453 1
401 456 1
401 457 1
401 471 1
401 480 1
401 484 1
401 487 1
401 490 1
401 493 1
401 509 1
401 515 1
401 525 1
401 526 1
401 532 1
401 552 1
401 555 1
401 558 1
401 560 1
401 563 1
401 565 1
401 566 1
401 567 1
401 568 1
401 569 1
401 570 1
401 578 1
401 580 1
401 582 1
401 583 1
401 590 1
401 597 1
402 1 1
402 12 1
402 16 1
402 18 1
402 21 1
402 22 1
402 23 1
402 32 1
402 34 1
402 38 1
402 39 1
402 56 1
402 61 1
402 76 1
402 83 1
402 93 1
402 99 1
402 100 1
402 104 1
402 109 1
402 115 1
402 116 1
402 118 1
402 134 1
402 139 1
402 142 1
402 144 1
402 148 1
402 150 1
402 152 1
402 166 1
402 168 1
402 171 1
402 176 1
402 180 1
402 182 1
402 184 1
402 190 1
402 193 1
402 198 1
402 207 1
402 209 1
402 211 1
402 212 1
402 224 1
402 235 1
402 238 1
402 241 1
402 246 1
402 249 1
402 251 1
402 258 1
402 263 1
402 275 1
402 278 1
402 280 1
402 281 1
402 290 1
402 298 1
402 302 1
402 306 1
402 307 1
402 308 1
402 311 1
402 315 1
402 319 1
402 320 1
402 322 1
402 333 1
402 335 1
402 356 1
402 357 1
402 359 1
402 362 1
402 363 1
402 366 1
402 372 1
402 376 1
402 388 1
402 399 1
402 412 1
402 419 1
402 420 1
402 422 1
402 430 1
402 434 1
402 436 1
402 443 1
402 444 1
402 451 1
402 455 1
402 459 1
402 460 1
402 467 1
402 478 1
402 481 1
402 490 1
402 496 1
402 497 1
402 505 1
402 507 1
402 510 1
402 519 1
402 525 1
402 528 1
402 532 1
402 535 1
402 538 1
402 539 1
402 541 1
402 547 1
402 551 1
402 553 1
402 554 1
402 561 1
402 565 1
402 567 1
402 571 1
402 580 1
402 582 1
402 586 1
402 588 1
402 599 1
403 4 1
403 6 1
403 14 1
403 18 1
403 20 1
403 27 1
403 28 1
403 30 1
403 42 1
403 46 1
403 51 1
403 56 1
403 67 1
403 68 1
403 84 1
403 87 1
403 89 1
403 95 1
403 108 1
403 110 1
403 118 1
403 119 1
403 120 1
403 134 1
403 136 1
403 144 1
403 154 1
403 157 1
403 158 1
403 162 1
403 166 1
403 172 1
403 185 1
403 186 1
403 193 1
403 199 1
403 206 1
403 207 1
403 217 1
403 222 1
403 226 1
403 233 1
403 240 1
403 248 1
403 260 1
403 265 1
403 275 1
403 276 1
403 278 1
403 279 1
403 281 1
403 290 1
403 303 1
403 308 1
403 319 1
403 325 1
403 328 1
403 333 1
403 336 1
403 345 1
403 347 1
403 351 1
403 361 1
403 365 1
403 367 1
403 375 1
403 376 1
403 378 1
403 381 1
403 392 1
403 393 1
403 397 1
403 398 1
403 406 1
403 408 1
403 411 1
403 414 1
403 415 1
403 417 1
403 421 1
403 426 1
403 437 1
403 439 1
403 441 1
403 451 1
403 452 1
403 453 1
403 454 1
403 458 1
403 466 1
403 470 1
403 473 1
403 479 1
403 487 1
403 494 1
403 510 1
403 528 1
403 531 1
403 532 1
403 535 1
403 540 1
403 545 1
403 552 1
403 556 1
403 564 1
403 575 1
403 576 1
403 584 1
403 600 1
404 1 1
404 11 1
404 13 1
404 24 1
404 26 1
404 31 1
404 37 1
404 45 1
404 51 1
404 58 1
404 60 1
404 66 1
404 70 1
404 73 1
404 77 1
404 78 1
404 80 1
404 81 1
404 83 1
404 84 1
404 88 1
404 97 1
404 98 1
404 99 1
404 103 1
404 104 1
404 106 1
404 111 1
404 112 1
404 115 1
404 117 1
404 119 1
404 120 1
404 129 1
404 135 1
404 137 1
404 143 1
404 145 1
404 147 1
404 148 1
404 149 1
404 151 1
404 162 1
404 173 1
404 174 1
404 193 1
404 198 1
404 201 1
404 205 1
404 206 1
404 207 1
404 213 1
404 226 1
404 232 1
404 240 1
404 241 1
404 242 1
404 243 1
404 245 1
404 251 1
404 252 1
404 261 1
404 274 1
404 277 1
404 290 1
404 292 1
404 301 1
404 306 1
404 311 1
404 317 1
404 324 1
404 326 1
404 331 1
404 334 1
404 341 1
404 349 1
404 355 1
404 362 1
404 365 1
404 366 1
404 367 1
404 372 1
404 374 1
404 379 1
404 383 1
404 385 1
404 389 1
404 393 1
404 397 1
404 398 1
404 401 1
404 405 1
404 409 1
404 415 1
404 419 1
404 425 1
404 427 1
404 429 1
404 431 1
404 434 1
404 441 1
404 442 1
404 443 1
404 444 1
404 452 1
404 460 1
404 461 1
404 465 1
404 472 1
404 474 1
404 477 1
404 481 1
404 485 1
404 489 1
404 496 1
404 506 1
404 509 1
404 519 1
404 520 1
404 524 1
404 534 1
404 535 1
404 553 1
404 558 1
404 562 1
404 565 1
404 575 1
404 580 1
404 590 1
404 594 1
404 595 1
405 10 1
405 15 1
405 19 1
405 27 1
405 29 1
405 32 1
405 35 1
405 39 1
405 41 1
405 45 1
405 47 1
405 50 1
405 64 1
405 65 1
405 67 1
405 72 1
405 73 1
405 79 1
405 89 1
405 90 1
405 92 1
405 98 1
405 99 1
405 100 1
405 104 1
405 105 1
405 119 1
405 120 1
405 122 1
405 125 1
405 126 1
405 127 1
405 130 1
405 132 1
405 134 1
405 141 1
405 156 1
405 159 1
405 161 1
405 165 1
405 171 1
405 174 1
405 178 1
405 179 1
405 186 1
405 193 1
405 196 1
405 201 1
405 210 1
405 211 1
405 214 1
405 215 1
405 220 1
405 221 1
405 224 1
405 233 1
405 237 1
405 252 1
405 253 1
405 260 1
405 269 1
405 284 1
405 298 1
405 301 1
405 302 1
405 305 1
405 308 1
405 311 1
405 312 1
405 314 1
405 320 1
405 321 1
405 322 1
405 323 1
405 332 1
405 335 1
405 339 1
405 343 1
405 344 1
405 355 1
405 363 1
405 370 1
405 375 1
405 377 1
405 389 1
405 404 1
405 415 1
405 417 1
405 420 1
405 421 1
405 439 1
405 440 1
405 449 1
405 450 1
405 456 1
405 458 1
405 463 1
405 469 1
405 474 1
405 477 1
405 481 1
405 487 1
405 490 1
405 496 1
405 497 1
405 500 1
405 501 1
405 505 1
405 508 1
405 520 1
405 521 1
405 525 1
405 530 1
405 534 1
405 544 1
405 551 1
405 552 1
405 554 1
405 557 1
405 567 1
405 570 1
405 571 1
405 573 1
405 577 1
405 583 1
405 585 1
405 586 1
405 594 1
406 2 1
406 12 1
406 15 1
406 17 1
406 18 1
406 27 1
406 29 1
406 30 1
406 34 1
406 41 1
406 46 1
406 47 1
406 53 1
406 60 1
406 68 1
406 70 1
406 73 1
406 76 1
406 80 1
406 83 1
406 86 1
406 88 1
406 92 1
406 93 1
406 95 1
406 102 1
406 114 1
406 116 1
406 122 1
406 124 1
406 134 1
406 136 1
406 139 1
406 141 1
406 147 1
406 156 1
406 158 1
406 165 1
406 167 1
406 169 1
406 173 1
406 179 1
406 183 1
406 188 1
406 190 1
406 191 1
406 206 1
406 208 1
406 209 1
406 210 1
406 212 1
406 217 1
406 218 1
406 226 1
406 233 1
406 236 1
406 237 1
406 246 1
406 256 1
406 263 1
406 264 1
406 266 1
406 271 1
406 275 1
406 276 1
406 281 1
406 292 1
406 294 1
406 297 1
406 302 1
406 304 1
406 306 1
406 309 1
406 311 1
406 312 1
406 317 1
406 318 1
406 319 1
406 320 1
406 326 1
406 335 1
406 338 1
406 349 1
406 350 1
406 353 1
406 356 1
406 375 1
406 377 1
406 392 1
406 403 1
406 411 1
406 414 1
406 421 1
406 426 1
406 434 1
406 437 1
406 464 1
406 466 1
406 468 1
406 469 1
406 470 1
406 479 1
406 489 1
406 491 1
406 494 1
406 496 1
406 504 1
406 506 1
406 508 1
406 515 1
406 528 1
406 536 1
406 542 1
406 543 1
406 546 1
406 562 1
406 564 1
406 567 1
406 571 1
406 577 1
406 580 1
406 581 1
406 588 1
406 593 1
406 598 1
407 1 1
407 2 1
407 5 1
407 14 1
407 21 1
407 23 1
407 26 1
407 34 1
407 35 1
407 40 1
407 48 1
407 50 1
407 57 1
407 69 1
407 74 1
407 77 1
407 80 1
407 89 1
407 95 1
407 96 1
407 97 1
407 100 1
407 102 1
407 129 1
407 132 1
407 137 1
407 148 1
407 156 1
407 159 1
407 162 1
407 174 1
407 176 1
407 178 1
407 183 1
407 188 1
407 198 1
407 200 1
407 202 1
407 210 1
407 212 1
407 224 1
407 227 1
407 228 1
407 229 1
407 231 1
407 232 1
407 237 1
407 244 1
407 250 1
407 257 1
407 259 1
407 267 1
407 269 1
407 273 1
407 275 1
407 290 1
407 295 1
407 297 1
407 299 1
407 300 1
407 302 1
407 304 1
407 305 1
407 313 1
407 315 1
407 325 1
407 326 1
407 335 1
407 336 1
407 340 1
407 344 1
407 348 1
407 350 1
407 352 1
407 354 1
407 359 1
407 360 1
407 363 1
407 366 1
407 367 1
407 372 1
407 375 1
407 377 1
407 378 1
407 382 1
407 385 1
407 386 1
407 389 1
407 390 1
407 395 1
407 397 1
407 409 1
407 410 1
407 411 1
407 414 1
407 417 1
407 423 1
407 427 1
407 430 1
407 441 1
407 454 1
407 457 1
407 462 1
407 469 1
407 474 1
407 475 1
407 479 1
407 484 1
407 486 1
407 494 1
407 498 1
407 499 1
407 505 1
407 510 1
407 513 1
407 524 1
407 526 1
407 534 1
407 540 1
407 542 1
407 545 1
407 551 1
407 564 1
407 572 1
407 573 1
407 576 1
407 582 1
407 583 1
407 585 1
407 586 1
407 593 1
407 597 1
407 598 1
408 3 1
408 15 1
408 17 1
408 21 1
408 25 1
408 26 1
408 35 1
408 36 1
408 42 1
408 43 1
408 48 1
408 60 1
408 67 1
408 68 1
408 69 1
408 72 1
408 74 1
408 75 1
408 87 1
408 96 1
408 98 1
408 101 1
408 105 1
408 112 1
408 115 1
408 121 1
408 125 1
408 126 1
408 127 1
408 131 1
408 143 1
408 157 1
408 163 1
408 168 1
408 174 1
408 188 1
408 194 1
408 202 1
408 211 1
408 220 1
408 222 1
408 229 1
408 230 1
408 231 1
408 232 1
408 240 1
408 241 1
408 243 1
408 244 1
408 246 1
408 254 1
408 271 1
408 278 1
408 287 1
408 289 1
408 295 1
408 307 1
408 330 1
408 336 1
408 338 1
408 339 1
408 344 1
408 349 1
408 353 1
408 359 1
408 370 1
408 371 1
408 372 1
408 379 1
408 386 1
408 390 1
408 394 1
408 395 1
408 399 1
408 401 1
408 403 1
408 409 1
408 411 1
408 412 1
408 414 1
408 418 1
408 420 1
408 422 1
408 423 1
408 431 1
408 435 1
408 436 1
408 440 1
408 461 1
408 481 1
408 483 1
408 485 1
408 486 1
408 487 1
408 489 1
408 497 1
408 508 1
408 509 1
408 510 1
408 514 1
408 518 1
408 520 1
408 545 1
408 550 1
408 552 1
408 557 1
408 567 1
408 575 1
408 581 1
408 584 1
408 587 1
408 590 1
408 596 1
408 597 1
409 6 1
409 8 1
409 9 1
409 10 1
409 11 1
409 14 1
409 20 1
409 32 1
409 35 1
409 36 1
409 45 1
409 52 1
409 54 1
409 56 1
409 59 1
409 60 1
409 64 1
409 66 1
409 75 1
409 78 1
409 79 1
409 83 1
409 84 1
409 85 1
409 87 1
409 93 1
409 97 1
409 127 1
409 128 1
409 129 1
409 132 1
409 133 1
409 139 1
409 146 1
409 151 1
409 152 1
409 164 1
409 170 1
409 172 1
409 178 1
409 184 1
409 185 1
409 191 1
409 193 1
409 194 1
409 197 1
409 202 1
409 217 1
409 219 1
409 226 1
409 233 1
409 239 1
409 241 1
409 243 1
409 246 1
409 251 1
409 255 1
409 262 1
409 268 1
409 276 1
409 279 1
409 280 1
409 281 1
409 284 1
409 286 1
409 287 1
409 292 1
409 295 1
409 299 1
409 304 1
409 305 1
409 309 1
409 310 1
409 320 1
409 328 1
409 338 1
409 341 1
409 343 1
409 349 1
409 351 1
409 353 1
409 354 1
409 357 1
409 359 1
409 360 1
409 367 1
409 374 1
409 379 1
409 385 1
409 388 1
409 397 1
409 400 1
409 404 1
409 407 1
409 408 1
409 417 1
409 425 1
409 430 1
409 435 1
409 441 1
409 443 1
409 444 1
409 449 1
409 450 1
409 451 1
409 471 1
409 473 1
409 481 1
409 487 1
409 493 1
409 500 1
409 519 1
409 522 1
409 525 1
409 526 1
409 528 1
409 534 1
409 537 1
409 540 1
409 542 1
409 545 1
409 553 1
409 558 1
409 563 1
409 564 1
409 566 1
409 569 1
409 570 1
409 575 1
409 577 1
409 578 1
409 579 1
409 582 1
409 583 1
409 585 1
409 599 1
410 12 1
410 16 1
410 32 1
410 37 1
410 42 1
410 43 1
410 45 1
410 46 1
410 50 1
410 53 1
410 55 1
410 56 1
410 74 1
410 75 1
410 77 1
410 78 1
410 87 1
410 92 1
410 93 1
410 96 1
410 101 1
410 125 1
410 132 1
410 133 1
410 134 1
410 135 1
410 139 1
410 153 1
410 156 1
410 160 1
410 170 1
410 177 1
410 201 1
410 204 1
410 205 1
410 215 1
410 220 1
410 223 1
410 235 1
410 236 1
410 246 1
410 250 1
410 252 1
410 253 1
410 264 1
410 275 1
410 280 1
410 282 1
410 288 1
410 290 1
410 301 1
410 304 1
410 312 1
410 313 1
410 322 1
410 329 1
410 337 1
410 338 1
410 342 1
410 350 1
410 352 1
410 355 1
410 364 1
410 366 1
410 367 1
410 368 1
410 369 1
410 374 1
410 379 1
410 381 1
410 384 1
410 389 1
410 397 1
410 407 1
410 411 1
410 419 1
410 420 1
410 422 1
410 423 1
410 425 1
410 433 1
410 434 1
410 456 1
410 457 1
410 460 1
410 461 1
410 466 1
410 469 1
410 480 1
410 484 1
410 485 1
410 488 1
410 493 1
410 499 1
410 502 1
410 514 1
410 540 1
410 542 1
410 552 1
410 553 1
410 560 1
410 561 1
410 577 1
410 578 1
410 584 1
410 588 1
410 591 1
410 598 1
410 599 1
411 3 1
411 11 1
411 14 1
411 18 1
411 30 1
411 36 1
411 38 1
411 40 1
411 44 1
411 45 1
411 48 1
411 51 1
411 54 1
411 56 1
411 62 1
411 71 1
411 81 1
411 92 1
411 104 1
411 105 1
411 112 1
411 114 1
411 118 1
411 121 1
411 126 1
411 135 1
411 147 1
411 161 1
411 162 1
411 163 1
411 168 1
411 181 1
411 183 1
411 185 1
411 190 1
411 193 1
411 195 1
411 203 1
411 205 1
411 214 1
411 215 1
411 218 1
411 219 1
411 233 1
411 235 1
411 244 1
411 255 1
411 257 1
411 260 1
411 262 1
411 272 1
411 273 1
411 277 1
411 281 1
411 286 1
411 295 1
411 297 1
411 301 1
411 304 1
411 306 1
411 307 1
411 317 1
411 318 1
411 323 1
411 334 1
411 336 1
411 337 1
411 341 1
411 350 1
411 358 1
411 370 1
411 387 1
411 390 1
411 398 1
411 399 1
411 403 1
411 406 1
411 407 1
411 408 1
411 410 1
411 414 1
411 418 1
411 424 1
411 425 1
411 426 1
411 427 1
411 428 1
411 433 1
411 436 1
411 437 1
411 452 1
411 456 1
411 457 1
411 458 1
411 459 1
411 463 1
411 468 1
411 472 1
411 473 1
411 480 1
411 481 1
411 483 1
411 485 1
411 489 1
411 493 1
411 500 1
411 505 1
411 514 1
411 519 1
411 526 1
411 531 1
411 540 1
411 548 1
411 561 1
411 570 1
411 574 1
411 585 1
411 588 1
411 589 1
411 592 1
411 594 1
411 595 1
411 597 1
412 4 1
412 7 1
412 9 1
412 13 1
412 29 1
412 40 1
412 41 1
412 42 1
412 44 1
412 57 1
412 59 1
412 61 1
412 62 1
412 63 1
412 66 1
412 82 1
412 84 1
412 87 1
412 88 1
412 93 1
412 94 1
412 95 1
412 103 1
412 113 1
412 115 1
412 120 1
412 126 1
412 130 1
412 138 1
412 139 1
412 140 1
412 147 1
412 148 1
412 150 1
412 153 1
412 154 1
412 159 1
412 167 1
412 169 1
412 173 1
412 177 1
412 183 1
412 185 1
412 195 1
412 196 1
412 206 1
412 208 1
412 213 1
412 218 1
412 219 1
412 222 1
412 225 1
412 228 1
412 239 1
412 241 1
412 251 1
412 254 1
412 262 1
412 265 1
412 268 1
412 272 1
412 275 1
412 277 1
412 298 1
412 301 1
412 312 1
412 313 1
412 315 1
412 317 1
412 319 1
412 325 1
412 326 1
412 330 1
412 337 1
412 343 1
412 354 1
412 357 1
412 361 1
412 370 1
412 379 1
412 384 1
412 390 1
412 391 1
412 394 1
412 400 1
412 402 1
412 408 1
412 421 1
412 422 1
412 435 1
412 438 1
412 441 1
412 444 1
412 453 1
412 456 1
412 459 1
412 461 1
412 463 1
412 465 1
412 474 1
412 487 1
412 489 1
412 498 1
412 501 1
412 503 1
412 505 1
412 506 1
412 508 1
412 509 1
412 511 1
412 525 1
412 538 1
412 552 1
412 560 1
412 580 1
412 582 1
412 596 1
412 599 1
413 1 1
413 4 1
413 6 1
413 8 1
413 9 1
413 12 1
413 13 1
413 20 1
413 22 1
413 23 1
413 29 1
413 40 1
413 46 1
413 51 1
413 62 1
413 65 1
413 73 1
413 76 1
413 78 1
413 84 1
413 86 1
413 94 1
413 96 1
413 99 1
413 102 1
413 107 1
413 108 1
413 115 1
413 120 1
413 133 1
413 138 1
413 157 1
413 166 1
413 169 1
413 170 1
413 177 1
413 184 1
413 187 1
413 195 1
413 196 1
413 197 1
413 198 1
413 199 1
413 202 1
413 203 1
413 210 1
413 211 1
413 221 1
413 224 1
413 230 1
413 234 1
413 235 1
413 239 1
413 245 1
413 246 1
413 248 1
413 251 1
413 259 1
413 264 1
413 265 1
413 269 1
413 282 1
413 284 1
413 285 1
413 288 1
413 293 1
413 296 1
413 300 1
413 301 1
413 304 1
413 306 1
413 324 1
413 331 1
413 333 1
413 334 1
413 336 1
413 342 1
413 356 1
413 364 1
413 368 1
413 371 1
413 375 1
413 389 1
413 391 1
413 392 1
413 423 1
413 424 1
413 427 1
413 440 1
413 444 1
413 459 1
413 460 1
413 461 1
413 464 1
413 469 1
413 471 1
413 474 1
413 476 1
413 478 1
413 482 1
413 484 1
413 487 1
413 493 1
413 497 1
413 511 1
413 514 1
413 520 1
413 522 1
413 526 1
413 529 1
413 531 1
413 534 1
413 536 1
413 538 1
413 544 1
413 558 1
413 564 1
413 566 1
413 569 1
413 573 1
413 575 1
413 576 1
413 584 1
413 590 1
414 13 1
414 23 1
414 27 1
414 30 1
414 31 1
414 34 1
414 35 1
414 37 1
414 39 1
414 40 1
414 43 1
414 47 1
414 50 1
414 55 1
414 63 1
414 66 1
414 72 1
414 79 1
414 88 1
414 89 1
414 93 1
414 102 1
414 108 1
414 110 1
414 112 1
414 126 1
414 128 1
414 132 1
414 136 1
414 143 1
414 145 1
414 148 1
414 151 1
414 156 1
414 162 1
414 163 1
414 169 1
414 172 1
414 175 1
414 183 1
414 188 1
414 204 1
414 218 1
414 228 1
414 229 1
414 235 1
414 244 1
414 246 1
414 247 1
414 267 1
414 270 1
414 288 1
414 297 1
414 305 1
414 307 1
414 314 1
414 315 1
414 317 1
414 325 1
414 326 1
414 328 1
414 333 1
414 347 1
414 353 1
414 360 1
414 370 1
414 373 1
414 374 1
414 379 1
414 382 1
414 384 1
414 386 1
414 394 1
414 403 1
414 406 1
414 407 1
414 408 1
414 411 1
414 419 1
414 423 1
414 426 1
414 434 1
414 437 1
414 438 1
414 439 1
414 445 1
414 451 1
414 458 1
414 460 1
414 466 1
414 468 1
414 469 1
414 470 1
414 472 1
414 477 1
414 480 1
414 482 1
414 490 1
414 492 1
414 493 1
414 530 1
414 538 1
414 545 1
414 546 1
414 549 1
414 552 1
414 556 1
414 557 1
414 566 1
414 576 1
414 577 1
414 595 1
415 4 1
415 6 1
415 7 1
415 12 1
415 13 1
415 16 1
415 17 1
415 22 1
415 23 1
415 33 1
415 38 1
415 46 1
415 47 1
415 69 1
415 74 1
415 78 1
415 81 1
415 82 1
415 86 1
415 87 1
415 101 1
415 102 1
415 106 1
415 108 1
415 120 1
415 123 1
415 125 1
415 128 1
415 138 1
415 140 1
415 144 1
415 153 1
415 159 1
415 164 1
415 165 1
415 166 1
415 173 1
415 176 1
415 181 1
415 185 1
415 196 1
415 200 1
415 212 1
415 219 1
415 230 1
415 231 1
415 235 1
415 241 1
415 243 1
415 246 1
415 247 1
415 252 1
415 256 1
415 259 1
415 260 1
415 267 1
415 273 1
415 282 1
415 285 1
415 288 1
415 298 1
415 302 1
415 304 1
415 307 1
415 309 1
415 310 1
415 311 1
415 314 1
415 325 1
415 335 1
415 346 1
415 353 1
415 358 1
415 365 1
415 368 1
415 369 1
415 370 1
415 372 1
415 376 1
415 386 1
415 389 1
415 391 1
415 400 1
415 403 1
415 404 1
415 405 1
415 416 1
415 417 1
415 419 1
415 420 1
415 426 1
415 438 1
415 443 1
415 464 1
415 469 1
415 473 1
415 476 1
415 478 1
415 487 1
415 489 1
415 493 1
415 494 1
415 495 1
415 497 1
415 500 1
415 511 1
415 515 1
415 517 1
415 526 1
415 533 1
415 545 1
415 547 1
415 548 1
415 552 1
415 558 1
415 561 1
415 566 1
415 570 1
415 578 1
415 581 1
415 584 1
415 586 1
415 587 1
415 589 1
415 590 1
415 594 1
416 10 1
416 32 1
416 33 1
416 34 1
416 51 1
416 54 1
416 57 1
416 63 1
416 70 1
416 75 1
416 77 1
416 78 1
416 79 1
416 84 1
416 85 1
416 93 1
416 94 1
416 98 1
416 99 1
416 100 1
416 108 1
416 112 1
416 117 1
416 121 1
416 130 1
416 131 1
416 143 1
416 149 1
416 153 1
416 155 1
416 164 1
416 175 1
416 181 1
416 186 1
416 198 1
416 200 1
416 204 1
416 205 1
416 209 1
416 214 1
416 215 1
416 221 1
416 224 1
416 231 1
416 234 1
416 240 1
416 244 1
416 245 1
416 273 1
416 274 1
416 275 1
416 279 1
416 280 1
416 282 1
416 286 1
416 288 1
416 289 1
416 292 1
416 302 1
416 316 1
416 317 1
416 323 1
416 332 1
416 336 1
416 340 1
416 342 1
416 344 1
416 353 1
416 370 1
416 371 1
416 373 1
416 375 1
416 376 1
416 379 1
416 387 1
416 394 1
416 395 1
416 415 1
416 420 1
416 421 1
416 422 1
416 423 1
416 424 1
416 429 1
416 432 1
416 437 1
416 438 1
416 446 1
416 447 1
416 449 1
416 453 1
416 460 1
416 462 1
416 464 1
416 473 1
416 476 1
416 483 1
416 484 1
416 504 1
416 506 1
416 510 1
416 529 1
416 532 1
416 536 1
416 542 1
416 544 1
416 545 1
416 548 1
416 549 1
416 551 1
416 553 1
416 557 1
416 564 1
416 567 1
416 570 1
416 578 1
416 579 1
416 584 1
416 587 1
416 589 1
416 590 1
416 594 1
416 596 1
417 2 1
417 5 1
417 13 1
417 21 1
417 23 1
417 24 1
417 34 1
417 36 1
417 40 1
417 41 1
417 51 1
417 53 1
417 55 1
417 57 1
417 58 1
417 79 1
417 86 1
417 99 1
417 104 1
417 121 1
417 122 1
417 128 1
417 129 1
417 132 1
417 133 1
417 135 1
417 138 1
417 140 1
417 145 1
417 152 1
417 153 1
417 154 1
417 159 1
417 163 1
417 164 1
417 166 1
417 177 1
417 180 1
417 186 1
417 209 1
417 211 1
417 218 1
417 225 1
417 234 1
417 243 1
417 245 1
417 246 1
417 249 1
417 253 1
417 257 1
417 258 1
417 261 1
417 278 1
417 280 1
417 302 1
417 304 1
417 311 1
417 313 1
417 315 1
417 317 1
417 329 1
417 331 1
417 336 1
417 338 1
417 341 1
417 350 1
417 354 1
417 365 1
417 367 1
417 368 1
417 371 1
417 377 1
417 378 1
417 387 1
417 389 1
417 397 1
417 398 1
417 403 1
417 405 1
417 407 1
417 409 1
417 415 1
417 419 1
417 420 1
417 425 1
417 427 1
417 443 1
417 444 1
417 456 1
417 458 1
417 468 1
417 496 1
417 501 1
417 504 1
417 516 1
417 522 1
417 524 1
417 526 1
417 527 1
417 528 1
417 535 1
417 537 1
417 540 1
417 556 1
417 557 1
417 560 1
417 561 1
417 570 1
417 575 1
417 578 1
417 585 1
417 586 1
417 593 1
418 1 1
418 5 1
418 6 1
418 7 1
418 17 1
418 36 1
418 37 1
418 39 1
418 44 1
418 57 1
418 58 1
418 61 1
418 63 1
418 68 1
418 78 1
418 81 1
418 82 1
418 86 1
418 90 1
418 91 1
418 93 1
418 98 1
418 102 1
418 106 1
418 107 1
418 128 1
418 143 1
418 151 1
418 153 1
418 162 1
418 171 1
418 176 1
418 209 1
418 210 1
418 212 1
418 263 1
418 269 1
418 280 1
418 301 1
418 303 1
418 305 1
418 307 1
418 308 1
418 325 1
418 328 1
418 339 1
418 354 1
418 356 1
418 361 1
418 362 1
418 366 1
418 372 1
418 374 1
418 377 1
418 379 1
418 383 1
418 395 1
418 400 1
418 408 1
418 411 1
418 421 1
418 425 1
418 432 1
418 442 1
418 445 1
418 448 1
418 455 1
418 457 1
418 463 1
418 465 1
418 468 1
418 472 1
418 473 1
418 474 1
418 477 1
418 481 1
418 484 1
418 495 1
418 507 1
418 511 1
418 536 1
418 539 1
418 552 1
418 553 1
418 556 1
418 558 1
418 559 1
418 563 1
418 569 1
418 571 1
418 573 1
418 579 1
418 581 1
418 585 1
418 590 1
418 592 1
418 593 1
418 595 1
418 597 1
419 2 1
419 6 1
419 35 1
419 37 1
419 38 1
419 41 1
419 42 1
419 47 1
419 49 1
419 50 1
419 54 1
419 55 1
419 61 1
419 62 1
419 78 1
419 81 1
419 84 1
419 106 1
419 113 1
419 124 1
419 127 1
419 130 1
419 137 1
419 142 1
419 147 1
419 148 1
419 152 1
419 156 1
419 159 1
419 160 1
419 163 1
419 164 1
419 167 1
419 170 1
419 172 1
419 175 1
419 177 1
419 178 1
419 183 1
419 188 1
419 196 1
419 200 1
419 204 1
419 209 1
419 211 1
419 215 1
419 217 1
419 231 1
419 247 1
419 252 1
419 253 1
419 266 1
419 270 1
419 278 1
419 281 1
419 304 1
419 312 1
419 315 1
419 319 1
419 325 1
419 326 1
419 332 1
419 337 1
419 341 1
419 346 1
419 354 1
419 361 1
419 362 1
419 364 1
419 365 1
419 371 1
419 377 1
419 383 1
419 384 1
419 386 1
419 387 1
419 389 1
419 402 1
419 404 1
419 410 1
419 414 1
419 415 1
419 417 1
419 450 1
419 457 1
419 458 1
419 464 1
419 466 1
419 467 1
419 482 1
419 484 1
419 492 1
419 495 1
419 497 1
419 501 1
419 502 1
419 511 1
419 516 1
419 525 1
419 527 1
419 533 1
419 539 1
419 545 1
419 548 1
419 552 1
419 555 1
419 567 1
419 578 1
419 585 1
419 588 1
419 590 1
419 597 1
420 13 1
420 19 1
420 20 1
420 27 1
420 30 1
420 32 1
420 33 1
420 39 1
420 40 1
420 49 1
420 52 1
420 58 1
420 59 1
420 60 1
420 79 1
420 80 1
420 84 1
420 89 1
420 100 1
420 103 1
420 107 1
420 109 1
420 113 1
420 115 1
420 116 1
420 124 1
420 126 1
420 128 1
420 130 1
420 148 1
420 150 1
420 152 1
420 153 1
420 156 1
420 178 1
420 185 1
420 199 1
420 200 1
420 208 1
420 212 1
420 215 1
420 218 1
420 219 1
420 226 1
420 228 1
420 236 1
420 237 1
420 241 1
420 256 1
420 259 1
420 264 1
420 266 1
420 269 1
420 272 1
420 278 1
420 279 1
420 286 1
420 290 1
420 295 1
420 296 1
420 314 1
420 346 1
420 347 1
420 349 1
420 351 1
420 361 1
420 363 1
420 366 1
420 367 1
420 369 1
420 374 1
420 375 1
420 383 1
420 388 1
420 392 1
420 394 1
420 397 1
420 402 1
420 405 1
420 408 1
420 410 1
420 415 1
420 416 1
420 417 1
420 428 1
420 432 1
420 436 1
420 443 1
420 444 1
420 453 1
420 455 1
420 459 1
420 466 1
420 467 1
420 468 1
420 478 1
420 485 1
420 495 1
420 498 1
420 516 1
420 519 1
420 523 1
420 524 1
420 533 1
420 535 1
420 540 1
420 543 1
420 548 1
420 549 1
420 559 1
420 563 1
420 568 1
420 574 1
420 575 1
420 578 1
420 587 1
420 596 1
421 5 1
421 6 1
421 9 1
421 15 1
421 17 1
421 19 1
421 25 1
421 29 1
421 34 1
421 42 1
421 53 1
421 54 1
421 56 1
421 57 1
421 63 1
421 65 1
421 68 1
421 72 1
421 76 1
421 80 1
421 88 1
421 89 1
421 92 1
421 93 1
421 95 1
421 96 1
421 107 1
421 116 1
421 117 1
421 125 1
421 127 1
421 128 1
421 130 1
421 131 1
421 134 1
421 141 1
421 142 1
421 145 1
421 151 1
421 154 1
421 155 1
421 157 1
421 160 1
421 162 1
421 169 1
421 173 1
421 177 1
421 182 1
421 184 1
421 199 1
421 202 1
421 205 1
421 211 1
421 224 1
421 229 1
421 231 1
421 233 1
421 235 1
421 245 1
421 249 1
421 253 1
421 265 1
421 266 1
421 267 1
421 270 1
421 273 1
421 280 1
421 281 1
421 285 1
421 290 1
421 293 1
421 295 1
421 309 1
421 310 1
421 311 1
421 312 1
421 313 1
421 316 1
421 319 1
421 320 1
421 325 1
421 329 1
421 341 1
421 358 1
421 368 1
421 378 1
421 380 1
421 389 1
421 393 1
421 403 1
421 405 1
421 406 1
421 412 1
421 416 1
421 418 1
421 422 1
421 424 1
421 427 1
421 436 1
421 439 1
421 440 1
421 446 1
421 447 1
421 455 1
421 466 1
421 468 1
421 479 1
421 486 1
421 489 1
421 493 1
421 496 1
421 497 1
421 499 1
421 507 1
421 511 1
421 532 1
421 547 1
421 559 1
421 569 1
421 570 1
421 573 1
421 575 1
421 580 1
421 582 1
421 590 1
421 591 1
421 599 1
422 4 1
422 10 1
422 11 1
422 24 1
422 29 1
422 32 1
422 44 1
422 47 1
422 57 1
422 58 1
422 59 1
422 61 1
422 67 1
422 72 1
422 79 1
422 83 1
422 91 1
422 92 1
422 98 1
422 101 1
422 104 1
422 110 1
422 116 1
422 118 1
422 125 1
422 127 1
422 134 1
422 135 1
422 142 1
422 147 1
422 151 1
422 155 1
422 157 1
422 159 1
422 160 1
422 168 1
422 170 1
422 172 1
422 177 1
422 184 1
422 191 1
422 192 1
422 207 1
422 210 1
422 212 1
422 213 1
422 219 1
422 220 1
422 224 1
422 228 1
422 230 1
422 234 1
422 243 1
422 246 1
422 258 1
422 266 1
422 267 1
422 274 1
422 283 1
422 292 1
422 297 1
422 299 1
422 302 1
422 303 1
422 305 1
422 309 1
422 322 1
422 330 1
422 333 1
422 334 1
422 346 1
422 352 1
422 353 1
422 359 1
422 373 1
422 377 1
422 386 1
422 388 1
422 389 1
422 401 1
422 402 1
422 408 1
422 410 1
422 412 1
422 416 1
422 421 1
422 427 1
422 436 1
422 439 1
422 440 1
422 446 1
422 449 1
422 450 1
422 453 1
422 457 1
422 463 1
422 481 1
422 485 1
422 508 1
422 515 1
422 518 1
422 521 1
422 530 1
422 536 1
422 537 1
422 556 1
422 560 1
422 561 1
422 573 1
422 577 1
422 581 1
422 582 1
422 590 1
422 593 1
422 594 1
423 10 1
423 14 1
423 16 1
423 34 1
423 39 1
423 40 1
423 42 1
423 46 1
423 47 1
423 49 1
423 54 1
423 55 1
423 63 1
423 68 1
423 71 1
423 75 1
423 81 1
423 83 1
423 89 1
423 97 1
423 99 1
423 102 1
423 105 1
423 106 1
423 107 1
423 108 1
423 113 1
423 117 1
423 121 1
423 122 1
423 123 1
423 125 1
423 131 1
423 138 1
423 140 1
423 143 1
423 145 1
423 146 1
423 151 1
423 153 1
423 155 1
423 157 1
423 159 1
423 174 1
423 177 1
423 180 1
423 187 1
423 189 1
423 194 1
423 197 1
423 210 1
423 215 1
423 225 1
423 230 1
423 240 1
423 241 1
423 242 1
423 248 1
423 249 1
423 256 1
423 257 1
423 258 1
423 261 1
423 262 1
423 265 1
423 267 1
423 269 1
423 271 1
423 278 1
423 281 1
423 307 1
423 317 1
423 318 1
423 321 1
423 324 1
423 326 1
423 331 1
423 334 1
423 337 1
423 341 1
423 345 1
423 354 1
423 361 1
423 363 1
423 366 1
423 368 1
423 374 1
423 378 1
423 380 1
423 381 1
423 388 1
423 391 1
423 395 1
423 398 1
423 407 1
423 408 1
423 410 1
423 413 1
423 414 1
423 416 1
423 428 1
423 429 1
423 434 1
423 443 1
423 449 1
423 451 1
423 461 1
423 462 1
423 463 1
423 468 1
423 470 1
423 474 1
423 475 1
423 477 1
423 481 1
423 484 1
423 494 1
423 497 1
423 499 1
423 506 1
423 508 1
423 509 1
423 511 1
423 518 1
423 519 1
423 520 1
423 521 1
423 523 1
423 538 1
423 543 1
423 557 1
423 565 1
423 584 1
423 596 1
424 1 1
424 3 1
424 10 1
424 11 1
424 12 1
424 14 1
424 16 1
424 18 1
424 22 1
424 24 1
424 25 1
424 28 1
424 29 1
424 48 1
424 51 1
424 59 1
424 65 1
424 72 1
424 79 1
424 81 1
424 92 1
424 103 1
424 107 1
424 115 1
424 118 1
424 137 1
424 172 1
424 173 1
424 183 1
424 186 1
424 189 1
424 200 1
424 203 1
424 209 1
424 218 1
424 221 1
424 222 1
424 224 1
424 226 1
424 229 1
424 230 1
424 247 1
424 255 1
424 256 1
424 260 1
424 268 1
424 274 1
424 295 1
424 296 1
424 310 1
424 315 1
424 330 1
424 336 1
424 338 1
424 341 1
424 344 1
424 363 1
424 368 1
424 370 1
424 374 1
424 375 1
424 391 1
424 397 1
424 398 1
424 411 1
424 413 1
424 416 1
424 421 1
424 428 1
424 433 1
424 435 1
424 441 1
424 448 1
424 461 1
424 474 1
424 478 1
424 479 1
424 481 1
424 484 1
424 485 1
424 488 1
424 490 1
424 495 1
424 498 1
424 500 1
424 508 1
424 515 1
424 517 1
424 520 1
424 524 1
424 531 1
424 540 1
424 543 1
424 545 1
424 551 1
424 552 1
424 561 1
424 566 1
424 573 1
424 575 1
424 582 1
424 597 1
424 598 1
425 2 1
425 3 1
425 7 1
425 15 1
425 17 1
425 19 1
425 44 1
425 45 1
425 47 1
425 57 1
425 64 1
425 68 1
425 83 1
425 84 1
425 93 1
425 99 1
425 100 1
425 116 1
425 121 1
425 127 1
425 137 1
425 138 1
425 142 1
425 146 1
425 147 1
425 150 1
425 152 1
425 154 1
425 160 1
425 167 1
425 172 1
425 174 1
425 178 1
425 182 1
425 188 1
425 191 1
425 193 1
425 198 1
425 206 1
425 215 1
425 233 1
425 234 1
425 235 1
425 237 1
425 241 1
425 243 1
425 246 1
425 249 1
425 256 1
425 257 1
425 273 1
425 274 1
425 280 1
425 282 1
425 292 1
425 296 1
425 297 1
425 305 1
425 310 1
425 314 1
425 316 1
425 318 1
425 321 1
425 323 1
425 331 1
425 336 1
425 338 1
425 342 1
425 346 1
425 348 1
425 356 1
425 361 1
425 365 1
425 369 1
425 377 1
425 381 1
425 383 1
425 395 1
425 397 1
425 404 1
425 409 1
425 410 1
425 411 1
425 417 1
425 418 1
425 430 1
425 439 1
425 450 1
425 454 1
425 460 1
425 461 1
425 469 1
425 476 1
425 480 1
425 482 1
425 483 1
425 486 1
425 487 1
425 502 1
425 512 1
425 519 1
425 523 1
425 526 1
425 532 1
425 540 1
425 549 1
425 553 1
425 554 1
425 557 1
425 558 1
425 563 1
425 571 1
425 574 1
425 576 1
425 577 1
425 584 1
425 585 1
425 594 1
425 596 1
425 598 1
425 600 1
426 4 1
426 6 1
426 7 1
426 12 1
426 13 1
426 20 1
426 21 1
426 23 1
426 24 1
426 29 1
426 32 1
426 35 1
426 37 1
426 40 1
426 44 1
426 45 1
426 48 1
426 51 1
426 63 1
426 73 1
426 75 1
426 76 1
426 79 1
426 80 1
426 84 1
426 98 1
426 100 1
426 101 1
426 105 1
426 112 1
426 117 1
426 121 1
426 125 1
426 134 1
426 135 1
426 144 1
426 151 1
426 155 1
426 162 1
426 163 1
426 170 1
426 188 1
426 191 1
426 202 1
426 211 1
426 212 1
426 214 1
426 216 1
426 218 1
426 226 1
426 229 1
426 234 1
426 238 1
426 245 1
426 252 1
426 273 1
426 283 1
426 304 1
426 306 1
426 307 1
426 320 1
426 335 1
426 341 1
426 349 1
426 353 1
426 360 1
426 364 1
426 369 1
426 371 1
426 372 1
426 373 1
426 374 1
426 377 1
426 378 1
426 381 1
426 384 1
426 387 1
426 391 1
426 394 1
426 403 1
426 406 1
426 411 1
426 414 1
426 415 1
426 427 1
426 432 1
426 436 1
426 441 1
426 443 1
426 446 1
426 449 1
426 454 1
426 458 1
426 461 1
426 462 1
426 463 1
426 468 1
426 472 1
426 473 1
426 479 1
426 480 1
426 482 1
426 483 1
426 487 1
426 489 1
426 492 1
426 497 1
426 502 1
426 512 1
426 529 1
426 544 1
426 545 1
426 548 1
426 550 1
426 551 1
426 555 1
426 558 1
426 568 1
426 572 1
426 575 1
426 576 1
426 583 1
426 584 1
426 590 1
426 592 1
427 5 1
427 10 1
427 13 1
427 25 1
427 33 1
427 40 1
427 41 1
427 44 1
427 48 1
427 49 1
427 57 1
427 80 1
427 83 1
427 84 1
427 87 1
427 90 1
427 99 1
427 100 1
427 111 1
427 117 1
427 121 1
427 125 1
427 128 1
427 130 1
427 131 1
427 138 1
427 142 1
427 143 1
427 148 1
427 150 1
427 153 1
427 154 1
427 155 1
427 157 1
427 159 1
427 163 1
427 165 1
427 166 1
427 170 1
427 177 1
427 179 1
427 180 1
427 181 1
427 194 1
427 207 1
427 221 1
427 222 1
427 223 1
427 229 1
427 239 1
427 247 1
427 251 1
427 254 1
427 265 1
427 273 1
427 275 1
427 282 1
427 292 1
427 293 1
427 301 1
427 303 1
427 308 1
427 310 1
427 312 1
427 313 1
427 316 1
427 342 1
427 343 1
427 344 1
427 348 1
427 355 1
427 365 1
427 371 1
427 377 1
427 378 1
427 381 1
427 383 1
427 389 1
427 391 1
427 396 1
427 404 1
427 407 1
427 411 1
427 413 1
427 417 1
427 421 1
427 422 1
427 426 1
427 435 1
427 444 1
427 450 1
427 451 1
427 457 1
427 462 1
427 464 1
427 475 1
427 477 1
427 483 1
427 495 1
427 501 1
427 509 1
427 516 1
427 523 1
427 534 1
427 537 1
427 539 1
427 540 1
427 541 1
427 549 1
427 555 1
427 573 1
427 575 1
427 586 1
427 587 1
427 592 1
427 598 1
428 1 1
428 5 1
428 12 1
428 14 1
428 18 1
428 27 1
428 31 1
428 39 1
428 47 1
428 48 1
428 59 1
428 66 1
428 71 1
428 72 1
428 73 1
428 80 1
428 85 1
428 88 1
428 90 1
428 95 1
428 99 1
428 102 1
428 104 1
428 107 1
428 113 1
428 117 1
428 126 1
428 131 1
428 134 1
428 136 1
428 140 1
428 143 1
428 149 1
428 151 1
428 152 1
428 157 1
428 160 1
428 161 1
428 169 1
428 170 1
428 178 1
428 180 1
428 185 1
428 195 1
428 197 1
428 200 1
428 203 1
428 207 1
428 208 1
428 212 1
428 214 1
428 219 1
428 224 1
428 227 1
428 229 1
428 232 1
428 233 1
428 237 1
428 243 1
428 244 1
428 251 1
428 253 1
428 255 1
428 262 1
428 273 1
428 288 1
428 299 1
428 307 1
428 309 1
428 314 1
428 315 1
428 318 1
428 326 1
428 334 1
428 339 1
428 341 1
428 349 1
428 358 1
428 359 1
428 369 1
428 376 1
428 378 1
428 379 1
428 382 1
428 387 1
428 392 1
428 394 1
428 396 1
428 397 1
428 411 1
428 420 1
428 423 1
428 424 1
428 430 1
428 431 1
428 435 1
428 436 1
428 437 1
428 443 1
428 450 1
428 454 1
428 463 1
428 473 1
428 478 1
428 484 1
428 490 1
428 491 1
428 496 1
428 498 1
428 504 1
428 509 1
428 511 1
428 522 1
428 528 1
428 536 1
428 537 1
428 541 1
428 544 1
428 550 1
428 551 1
428 554 1
428 557 1
428 560 1
428 562 1
428 577 1
428 585 1
428 588 1
428 596 1
429 9 1
429 13 1
429 15 1
429 17 1
429 19 1
429 40 1
429 43 1
429 45 1
429 50 1
429 52 1
429 53 1
429 56 1
429 58 1
429 61 1
429 66 1
429 78 1
429 90 1
429 93 1
429 94 1
429 95 1
429 97 1
429 105 1
429 117 1
429 130 1
429 132 1
429 134 1
429 141 1
429 144 1
429 145 1
429 149 1
429 153 1
429 157 1
429 167 1
429 174 1
429 175 1
429 176 1
429 181 1
429 185 1
429 187 1
429 191 1
429 195 1
429 213 1
429 229 1
429 237 1
429 241 1
429 246 1
429 247 1
429 249 1
429 261 1
429 262 1
429 263 1
429 265 1
429 269 1
429 271 1
429 278 1
429 279 1
429 280 1
429 283 1
429 292 1
429 293 1
429 307 1
429 308 1
429 312 1
429 326 1
429 327 1
429 328 1
429 334 1
429 343 1
429 346 1
429 347 1
429 351 1
429 353 1
429 355 1
429 363 1
429 364 1
429 368 1
429 370 1
429 373 1
429 380 1
429 392 1
429 393 1
429 394 1
429 397 1
429 399 1
429 400 1
429 404 1
429 416 1
429 423 1
429 431 1
429 435 1
429 446 1
429 447 1
429 455 1
429 456 1
429 458 1
429 460 1
429 466 1
429 472 1
429 476 1
429 481 1
429 484 1
429 489 1
429 496 1
429 501 1
429 502 1
429 505 1
429 509 1
429 518 1
429 524 1
429 529 1
429 530 1
429 531 1
429 534 1
429 542 1
429 543 1
429 544 1
429 546 1
429 550 1
429 551 1
429 555 1
429 558 1
429 570 1
429 575 1
429 595 1
429 598 1
430 6 1
430 7 1
430 19 1
430 26 1
430 27 1
430 46 1
430 52 1
430 57 1
430 61 1
430 63 1
430 71 1
430 73 1
430 75 1
430 76 1
430 88 1
430 90 1
430 96 1
430 104 1
430 105 1
430 106 1
430 108 1
430 111 1
430 120 1
430 121 1
430 122 1
430 126 1
430 131 1
430 134 1
430 138 1
430 141 1
430 150 1
430 154 1
430 155 1
430 160 1
430 167 1
430 171 1
430 176 1
430 178 1
430 183 1
430 186 1
430 187 1
430 195 1
430 197 1
430 201 1
430 202 1
430 210 1
430 212 1
430 219 1
430 220 1
430 223 1
430 224 1
430 232 1
430 239 1
430 241 1
430 249 1
430 258 1
430 263 1
430 268 1
430 273 1
430 279 1
430 303 1
430 314 1
430 315 1
430 317 1
430 324 1
430 327 1
430 330 1
430 336 1
430 338 1
430 341 1
430 344 1
430 347 1
430 348 1
430 360 1
430 362 1
430 368 1
430 380 1
430 381 1
430 386 1
430 390 1
430 391 1
430 402 1
430 407 1
430 409 1
430 425 1
430 428 1
430 431 1
430 436 1
430 438 1
430 439 1
430 440 1
430 444 1
430 449 1
430 454 1
430 460 1
430 461 1
430 464 1
430 465 1
430 466 1
430 468 1
430 469 1
430 487 1
430 491 1
430 495 1
430 497 1
430 511 1
430 521 1
430 525 1
430 533 1
430 543 1
430 566 1
430 575 1
430 576 1
430 577 1
430 588 1
430 597 1
430 599 1
431 13 1
431 19 1
431 25 1
431 30 1
431 31 1
431 43 1
431 48 1
431 59 1
431 65 1
431 66 1
431 87 1
431 92 1
431 93 1
431 98 1
431 99 1
431 108 1
431 116 1
431 119 1
431 120 1
431 128 1
431 129 1
431 153 1
431 154 1
431 158 1
431 159 1
431 163 1
431 165 1
431 166 1
431 176 1
431 181 1
431 183 1
431 197 1
431 200 1
431 206 1
431 207 1
431 219 1
431 225 1
431 229 1
431 230 1
431 235 1
431 237 1
431 247 1
431 249 1
431 258 1
431 263 1
431 265 1
431 268 1
431 271 1
431 276 1
431 281 1
431 287 1
431 288 1
431 297 1
431 305 1
431 307 1
431 311 1
431 329 1
431 333 1
431 335 1
431 342 1
431 345 1
431 350 1
431 353 1
431 359 1
431 361 1
431 367 1
431 375 1
431 379 1
431 384 1
431 391 1
431 392 1
431 398 1
431 401 1
431 404 1
431 408 1
431 428 1
431 429 1
431 430 1
431 434 1
431 437 1
431 438 1
431 439 1
431 440 1
431 441 1
431 446 1
431 447 1
431 449 1
431 457 1
431 458 1
431 460 1
431 462 1
431 473 1
431 476 1
431 480 1
431 485 1
431 489 1
431 490 1
431 491 1
431 498 1
431 500 1
431 506 1
431 515 1
431 517 1
431 524 1
431 542 1
431 543 1
431 545 1
431 547 1
431 550 1
431 554 1
431 559 1
431 560 1
431 568 1
431 590 1
431 591 1
431 600 1
432 4 1
432 5 1
432 16 1
432 22 1
432 24 1
432 30 1
432 33 1
432 34 1
432 35 1
432 36 1
432 37 1
432 38 1
432 43 1
432 46 1
432 50 1
432 52 1
432 57 1
432 60 1
432 64 1
432 72 1
432 76 1
432 82 1
432 86 1
432 102 1
432 103 1
432 112 1
432 115 1
432 116 1
432 121 1
432 127 1
432 133 1
432 135 1
432 136 1
432 137 1
432 148 1
432 150 1
432 152 1
432 153 1
432 154 1
432 155 1
432 158 1
432 159 1
432 165 1
432 166 1
432 167 1
432 179 1
432 182 1
432 184 1
432 193 1
432 208 1
432 209 1
432 213 1
432 216 1
432 217 1
432 222 1
432 228 1
432 234 1
432 240 1
432 245 1
432 248 1
432 254 1
432 258 1
432 260 1
432 267 1
432 273 1
432 277 1
432 278 1
432 282 1
432 284 1
432 285 1
432 289 1
432 292 1
432 294 1
432 297 1
432 300 1
432 303 1
432 304 1
432 305 1
432 308 1
432 315 1
432 317 1
432 318 1
432 323 1
432 331 1
432 334 1
432 337 1
432 352 1
432 361 1
432 364 1
432 367 1
432 368 1
432 375 1
432 381 1
432 386 1
432 394 1
432 397 1
432 416 1
432 418 1
432 420 1
432 426 1
432 433 1
432 439 1
432 442 1
432 448 1
432 461 1
432 465 1
432 466 1
432 469 1
432 473 1
432 479 1
432 483 1
432 489 1
432 498 1
432 501 1
432 507 1
432 509 1
432 520 1
432 521 1
432 532 1
432 535 1
432 543 1
432 544 1
432 549 1
432 550 1
432 556 1
432 568 1
432 573 1
432 576 1
432 579 1
432 583 1
432 584 1
432 588 1
433 1 1
433 5 1
433 6 1
433 10 1
433 17 1
433 22 1
433 23 1
433 26 1
433 31 1
433 35 1
433 37 1
433 47 1
433 48 1
433 52 1
433 53 1
433 63 1
433 65 1
433 70 1
433 71 1
433 78 1
433 79 1
433 80 1
433 82 1
433 91 1
433 96 1
433 100 1
433 102 1
433 111 1
433 113 1
433 115 1
433 117 1
433 121 1
433 123 1
433 124 1
433 125 1
433 127 1
433 133 1
433 139 1
433 141 1
433 144 1
433 149 1
433 166 1
433 167 1
433 169 1
433 175 1
433 179 1
433 181 1
433 182 1
433 187 1
433 189 1
433 191 1
433 195 1
433 197 1
433 200 1
433 201 1
433 204 1
433 211 1
433 215 1
433 216 1
433 219 1
433 220 1
433 232 1
433 261 1
433 273 1
433 281 1
433 288 1
433 290 1
433 297 1
433 305 1
433 309 1
433 310 1
433 312 1
433 318 1
433 319 1
433 331 1
433 333 1
433 341 1
433 342 1
433 350 1
433 359 1
433 362 1
433 365 1
433 377 1
433 378 1
433 380 1
433 384 1
433 391 1
433 395 1
433 398 1
433 399 1
433 410 1
433 411 1
433 424 1
433 432 1
433 435 1
433 437 1
433 438 1
433 440 1
433 449 1
433 450 1
433 456 1
433 457 1
433 459 1
433 460 1
433 467 1
433 468 1
433 470 1
433 490 1
433 495 1
433 510 1
433 512 1
433 513 1
433 514 1
433 521 1
433 530 1
433 531 1
433 545 1
433 553 1
433 570 1
433 575 1
433 581 1
433 583 1
433 584 1
433 586 1
433 589 1
433 590 1
433 596 1
433 600 1
434 1 1
434 2 1
434 11 1
434 12 1
434 23 1
434 24 1
434 31 1
434 39 1
434 40 1
434 42 1
434 43 1
434 44 1
434 47 1
434 51 1
434 59 1
434 64 1
434 66 1
434 70 1
434 72 1
434 77 1
434 79 1
434 81 1
434 83 1
434 94 1
434 101 1
434 104 1
434 109 1
434 112 1
434 114 1
434 115 1
434 120 1
434 124 1
434 125 1
434 126 1
434 129 1
434 131 1
434 132 1
434 133 1
434 136 1
434 142 1
434 156 1
434 160 1
434 166 1
434 174 1
434 177 1
434 190 1
434 199 1
434 201 1
434 206 1
434 215 1
434 219 1
434 228 1
434 233 1
434 237 1
434 240 1
434 246 1
434 248 1
434 249 1
434 269 1
434 275 1
434 278 1
434 292 1
434 294 1
434 296 1
434 299 1
434 305 1
434 318 1
434 341 1
434 346 1
434 352 1
434 354 1
434 365 1
434 370 1
434 377 1
434 379 1
434 384 1
434 390 1
434 395 1
434 402 1
434 404 1
434 406 1
434 410 1
434 414 1
434 423 1
434 431 1
434 440 1
434 444 1
434 455 1
434 456 1
434 463 1
434 474 1
434 484 1
434 487 1
434 492 1
434 497 1
434 505 1
434 515 1
434 519 1
434 522 1
434 528 1
434 542 1
434 543 1
434 544 1
434 545 1
434 559 1
434 561 1
434 564 1
434 565 1
434 567 1
434 571 1
434 578 1
434 579 1
434 581 1
434 582 1
434 584 1
434 586 1
434 587 1
434 592 1
434 593 1
434 597 1
434 600 1
435 8 1
435 9 1
435 18 1
435 19 1
435 59 1
435 70 1
435 74 1
435 88 1
435 90 1
435 95 1
435 101 1
435 105 1
435 109 1
435 116 1
435 118 1
435 121 1
435 123 1
435 124 1
435 136 1
435 139 1
435 142 1
435 146 1
435 149 1
435 158 1
435 168 1
435 174 1
435 179 1
435 182 1
435 183 1
435 187 1
435 189 1
435 205 1
435 207 1
435 208 1
435 215 1
435 226 1
435 227 1
435 229 1
435 232 1
435 237 1
435 239 1
435 248 1
435 249 1
435 251 1
435 279 1
435 281 1
435 284 1
435 286 1
435 287 1
435 293 1
435 297 1
435 311 1
435 324 1
435 326 1
435 332 1
435 334 1
435 345 1
435 347 1
435 350 1
435 355 1
435 360 1
435 362 1
435 373 1
435 377 1
435 379 1
435 381 1
435 385 1
435 395 1
435 408 1
435 409 1
435 412 1
435 424 1
435 427 1
435 428 1
435 429 1
435 433 1
435 442 1
435 443 1
435 450 1
435 451 1
435 454 1
435 461 1
435 473 1
435 474 1
435 488 1
435 492 1
435 494 1
435 497 1
435 498 1
435 505 1
435 510 1
435 511 1
435 514 1
435 521 1
435 531 1
435 533 1
435 542 1
435 554 1
435 561 1
435 578 1
435 581 1
435 587 1
435 589 1
435 590 1
435 592 1
435 594 1
435 597 1
435 599 1
436 6 1
436 8 1
436 9 1
436 17 1
436 21 1
436 27 1
436 32 1
436 37 1
436 38 1
436 39 1
436 43 1
436 52 1
436 57 1
436 71 1
436 75 1
436 86 1
436 89 1
436 90 1
436 95 1
436 98 1
436 105 1
436 110 1
436 113 1
436 116 1
436 123 1
436 136 1
436 138 1
436 139 1
436 144 1
436 147 1
436 151 1
436 154 1
436 155 1
436 159 1
436 161 1
436 165 1
436 166 1
436 181 1
436 188 1
436 192 1
436 194 1
436 195 1
436 196 1
436 201 1
436 203 1
436 214 1
436 220 1
436 221 1
436 227 1
436 238 1
436 240 1
436 242 1
436 245 1
436 247 1
436 251 1
436 256 1
436 258 1
436 261 1
436 263 1
436 264 1
436 267 1
436 287 1
436 291 1
436 294 1
436 296 1
436 299 1
436 300 1
436 304 1
436 305 1
436 310 1
436 315 1
436 330 1
436 337 1
436 340 1
436 343 1
436 346 1
436 357 1
436 360 1
436 363 1
436 364 1
436 380 1
436 382 1
436 391 1
436 393 1
436 401 1
436 402 1
436 408 1
436 411 1
436 420 1
436 421 1
436 422 1
436 426 1
436 428 1
436 430 1
436 448 1
436 452 1
436 454 1
436 457 1
436 458 1
436 459 1
436 461 1
436 463 1
436 464 1
436 468 1
436 469 1
436 470 1
436 473 1
436 487 1
436 488 1
436 493 1
436 497 1
436 499 1
436 509 1
436 514 1
436 524 1
436 525 1
436 544 1
436 547 1
436 551 1
436 553 1
436 559 1
436 567 1
436 569 1
436 578 1
436 584 1
436 589 1
436 595 1
436 598 1
437 1 1
437 3 1
437 4 1
437 6 1
437 8 1
437 10 1
437 16 1
437 18 1
437 24 1
437 33 1
437 43 1
437 44 1
437 45 1
437 48 1
437 55 1
437 65 1
437 70 1
437 76 1
437 80 1
437 86 1
437 96 1
437 98 1
437 105 1
437 112 1
437 113 1
437 116 1
437 117 1
437 119 1
437 122 1
437 123 1
437 124 1
437 125 1
437 131 1
437 138 1
437 140 1
437 148 1
437 149 1
437 150 1
437 157 1
437 158 1
437 163 1
437 165 1
437 178 1
437 182 1
437 185 1
437 199 1
437 202 1
437 206 1
437 210 1
437 216 1
437 223 1
437 225 1
437 247 1
437 249 1
437 250 1
437 254 1
437 262 1
437 267 1
437 271 1
437 278 1
437 281 1
437 286 1
437 288 1
437 289 1
437 296 1
437 297 1
437 300 1
437 301 1
437 305 1
437 309 1
437 310 1
437 311 1
437 325 1
437 334 1
437 340 1
437 341 1
437 346 1
437 347 1
437 352 1
437 359 1
437 376 1
437 381 1
437 388 1
437 392 1
437 395 1
437 400 1
437 401 1
437 403 1
437 406 1
437 411 1
437 414 1
437 416 1
437 428 1
437 431 1
437 433 1
437 448 1
437 466 1
437 468 1
437 472 1
437 475 1
437 478 1
437 484 1
437 488 1
437 492 1
437 495 1
437 497 1
437 515 1
437 517 1
437 526 1
437 529 1
437 537 1
437 542 1
437 550 1
437 552 1
437 555 1
437 563 1
437 572 1
437 573 1
437 574 1
437 577 1
437 578 1
437 579 1
437 582 1
437 593 1
437 600 1
438 3 1
438 9 1
438 28 1
438 42 1
438 50 1
438 62 1
438 65 1
438 66 1
438 69 1
438 70 1
438 72 1
438 80 1
438 84 1
438 105 1
438 108 1
438 115 1
438 119 1
438 120 1
438 125 1
438 127 1
438 129 1
438 132 1
438 133 1
438 136 1
438 139 1
438 151 1
438 154 1
438 160 1
438 161 1
438 166 1
438 167 1
438 169 1
438 172 1
438 181 1
438 195 1
438 197 1
438 203 1
438 210 1
438 215 1
438 219 1
438 222 1
438 224 1
438 229 1
438 232 1
438 235 1
438 237 1
438 244 1
438 248 1
438 250 1
438 256 1
438 265 1
438 274 1
438 282 1
438 286 1
438 293 1
438 298 1
438 300 1
438 305 1
438 316 1
438 321 1
438 322 1
438 324 1
438 326 1
438 331 1
438 337 1
438 349 1
438 350 1
438 370 1
438 371 1
438 372 1
438 375 1
438 380 1
438 382 1
438 386 1
438 392 1
438 398 1
438 401 1
438 412 1
438 414 1
438 415 1
438 416 1
438 430 1
438 431 1
438 433 1
438 449 1
438 453 1
438 456 1
438 458 1
438 463 1
438 466 1
438 467 1
438 474 1
438 475 1
438 480 1
438 481 1
438 483 1
438 485 1
438 486 1
438 495 1
438 503 1
438 504 1
438 505 1
438 509 1
438 513 1
438 517 1
438 525 1
438 537 1
438 542 1
438 544 1
438 551 1
438 555 1
438 556 1
438 557 1
438 561 1
438 565 1
438 572 1
438 575 1
438 580 1
438 581 1
438 584 1
439 1 1
439 6 1
439 9 1
439 13 1
439 20 1
439 27 1
439 28 1
439 30 1
439 39 1
439 43 1
439 44 1
439 47 1
439 49 1
439 51 1
439 60 1
439 75 1
439 77 1
439 82 1
439 84 1
439 91 1
439 97 1
439 98 1
439 99 1
439 102 1
439 118 1
439 123 1
439 129 1
439 131 1
439 133 1
439 134 1
439 135 1
439 140 1
439 141 1
439 143 1
439 150 1
439 158 1
439 161 1
439 165 1
439 166 1
439 170 1
439 171 1
439 172 1
439 174 1
439 181 1
439 182 1
439 184 1
439 187 1
439 203 1
439 217 1
439 218 1
439 223 1
439 225 1
439 228 1
439 232 1
439 234 1
439 243 1
439 245 1
439 246 1
439 252 1
439 254 1
439 257 1
439 272 1
439 275 1
439 280 1
439 281 1
439 287 1
439 292 1
439 295 1
439 296 1
439 302 1
439 305 1
439 309 1
439 313 1
439 315 1
439 316 1
439 322 1
439 324 1
439 325 1
439 327 1
439 334 1
439 335 1
439 341 1
439 346 1
439 355 1
439 358 1
439 364 1
439 373 1
439 384 1
439 392 1
439 403 1
439 405 1
439 414 1
439 421 1
439 422 1
439 425 1
439 430 1
439 431 1
439 432 1
439 440 1
439 444 1
439 456 1
439 460 1
439 464 1
439 467 1
439 468 1
439 470 1
439 473 1
439 477 1
439 484 1
439 486 1
439 488 1
439 492 1
439 496 1
439 497 1
439 502 1
439 512 1
439 524 1
439 532 1
439 533 1
439 535 1
439 547 1
439 553 1
439 564 1
439 565 1
439 570 1
439 578 1
439 579 1
439 581 1
439 587 1
439 591 1
439 598 1
439 599 1
440 6 1
440 9 1
440 10 1
440 15 1
440 19 1
440 29 1
440 45 1
440 47 1
440 48 1
440 49 1
440 51 1
440 52 1
440 56 1
440 59 1
440 63 1
440 67 1
440 68 1
440 72 1
440 74 1
440 89 1
440 95 1
440 97 1
440 101 1
440 103 1
440 104 1
440 109 1
440 113 1
440 119 1
440 123 1
440 136 1
440 137 1
440 139 1
440 141 1
440 142 1
440 153 1
440 159 1
440 160 1
440 161 1
440 163 1
440 165 1
440 173 1
440 176 1
440 179 1
440 186 1
440 188 1
440 190 1
440 193 1
440 195 1
440 206 1
440 207 1
440 209 1
440 216 1
440 229 1
440 234 1
440 236 1
440 239 1
440 241 1
440 250 1
440 252 1
440 255 1
440 263 1
440 270 1
440 273 1
440 279 1
440 283 1
440 298 1
440 308 1
440 314 1
440 325 1
440 326 1
440 329 1
440 335 1
440 354 1
440 364 1
440 369 1
440 372 1
440 394 1
440 396 1
440 401 1
440 405 1
440 408 1
440 413 1
440 421 1
440 422 1
440 430 1
440 431 1
440 433 1
440 434 1
440 439 1
440 443 1
440 446 1
440 453 1
440 460 1
440 467 1
440 476 1
440 478 1
440 481 1
440 484 1
440 486 1
440 488 1
440 494 1
440 502 1
440 513 1
440 514 1
440 515 1
440 521 1
440 525 1
440 527 1
440 533 1
440 536 1
440 543 1
440 555 1
440 556 1
440 557 1
440 559 1
440 568 1
440 570 1
440 583 1
440 588 1
440 591 1
440 596 1
440 597 1
440 600 1
441 3 1
441 8 1
441 11 1
441 15 1
441 19 1
441 23 1
441 32 1
441 33 1
441 34 1
441 39 1
441 40 1
441 55 1
441 70 1
441 73 1
441 74 1
441 78 1
441 79 1
441 82 1
441 83 1
441 90 1
441 92 1
441 93 1
441 98 1
441 108 1
441 127 1
441 142 1
441 144 1
441 148 1
441 150 1
441 154 1
441 156 1
441 159 1
441 165 1
441 172 1
441 173 1
441 175 1
441 194 1
441 203 1
441 209 1
441 210 1
441 211 1
441 213 1
441 218 1
441 224 1
441 232 1
441 237 1
441 238 1
441 248 1
441 259 1
441 260 1
441 268 1
441 272 1
441 280 1
441 282 1
441 300 1
441 303 1
441 304 1
441 309 1
441 325 1
441 332 1
441 337 1
441 341 1
441 345 1
441 350 1
441 351 1
441 354 1
441 356 1
441 357 1
441 358 1
441 361 1
441 362 1
441 363 1
441 367 1
441 375 1
441 377 1
441 386 1
441 388 1
441 391 1
441 395 1
441 399 1
441 400 1
441 403 1
441 404 1
441 407 1
441 409 1
441 412 1
441 424 1
441 426 1
441 431 1
441 443 1
441 448 1
441 460 1
441 464 1
441 470 1
441 478 1
441 479 1
441 481 1
441 495 1
441 496 1
441 499 1
441 500 1
441 510 1
441 515 1
441 516 1
441 518 1
441 519 1
441 521 1
441 537 1
441 541 1
441 551 1
441 556 1
441 562 1
441 563 1
441 582 1
441 583 1
441 586 1
441 589 1
442 4 1
442 6 1
442 11 1
442 20 1
442 24 1
442 30 1
442 32 1
442 34 1
442 36 1
442 38 1
442 40 1
442 42 1
442 45 1
442 49 1
442 50 1
442 51 1
442 55 1
442 56 1
442 64 1
442 66 1
442 69 1
442 72 1
442 73 1
442 74 1
442 80 1
442 83 1
442 94 1
442 100 1
442 101 1
442 102 1
442 110 1
442 116 1
442 118 1
442 135 1
442 136 1
442 150 1
442 155 1
442 157 1
442 167 1
442 168 1
442 169 1
442 172 1
442 181 1
442 183 1
442 186 1
442 193 1
442 194 1
442 198 1
442 203 1
442 205 1
442 211 1
442 212 1
442 213 1
442 216 1
442 217 1
442 224 1
442 228 1
442 231 1
442 239 1
442 248 1
442 251 1
442 260 1
442 271 1
442 274 1
442 278 1
442 286 1
442 291 1
442 292 1
442 299 1
442 300 1
442 302 1
442 306 1
442 310 1
442 316 1
442 318 1
442 325 1
442 326 1
442 343 1
442 348 1
442 353 1
442 354 1
442 357 1
442 360 1
442 365 1
442 367 1
442 373 1
442 379 1
442 382 1
442 385 1
442 394 1
442 404 1
442 418 1
442 432 1
442 435 1
442 443 1
442 449 1
442 451 1
442 457 1
442 461 1
442 468 1
442 472 1
442 473 1
442 484 1
442 488 1
442 491 1
442 494 1
442 501 1
442 504 1
442 506 1
442 508 1
442 511 1
442 514 1
442 516 1
442 523 1
442 524 1
442 532 1
442 539 1
442 541 1
442 549 1
442 554 1
442 555 1
442 568 1
442 578 1
442 583 1
442 584 1
442 585 1
442 586 1
442 590 1
442 592 1
442 593 1
442 595 1
443 2 1
443 5 1
443 7 1
443 11 1
443 15 1
443 19 1
443 21 1
443 23 1
443 27 1
443 30 1
443 34 1
443 37 1
443 38 1
443 51 1
443 53 1
443 55 1
443 56 1
443 57 1
443 61 1
443 72 1
443 75 1
443 82 1
443 86 1
443 98 1
443 99 1
443 103 1
443 104 1
443 105 1
443 107 1
443 114 1
443 124 1
443 127 1
443 128 1
443 141 1
443 151 1
443 161 1
443 166 1
443 169 1
443 171 1
443 175 1
443 177 1
443 178 1
443 182 1
443 188 1
443 203 1
443 207 1
443 217 1
443 220 1
443 222 1
443 232 1
443 241 1
443 248 1
443 249 1
443 258 1
443 268 1
443 269 1
443 270 1
443 280 1
443 288 1
443 291 1
443 292 1
443 293 1
443 295 1
443 299 1
443 312 1
443 328 1
443 340 1
443 346 1
443 348 1
443 351 1
443 360 1
443 361 1
443 364 1
443 366 1
443 368 1
443 375 1
443 381 1
443 387 1
443 392 1
443 400 1
443 402 1
443 404 1
443 409 1
443 415 1
443 417 1
443 420 1
443 423 1
443 426 1
443 428 1
443 435 1
443 440 1
443 441 1
443 442 1
443 453 1
443 455 1
443 462 1
443 468 1
443 478 1
443 482 1
443 487 1
443 491 1
443 502 1
443 513 1
443 525 1
443 527 1
443 531 1
443 532 1
443 533 1
443 535 1
443 545 1
443 554 1
443 557 1
443 565 1
443 567 1
443 569 1
443 571 1
443 586 1
443 587 1
443 589 1
443 591 1
443 592 1
443 596 1
443 597 1
443 598 1
444 2 1
444 10 1
444 11 1
444 13 1
444 14 1
444 18 1
444 26 1
444 28 1
444 29 1
444 36 1
444 37 1
444 41 1
444 52 1
444 67 1
444 75 1
444 76 1
444 85 1
444 116 1
444 117 1
444 130 1
444 136 1
444 148 1
444 157 1
444 159 1
444 167 1
444 171 1
444 174 1
444 175 1
444 176 1
444 180 1
444 186 1
444 188 1
444 190 1
444 201 1
444 203 1
444 208 1
444 212 1
444 215 1
444 220 1
444 221 1
444 223 1
444 225 1
444 231 1
444 235 1
444 265 1
444 270 1
444 274 1
444 284 1
444 291 1
444 296 1
444 298 1
444 303 1
444 309 1
444 313 1
444 315 1
444 317 1
444 325 1
444 331 1
444 332 1
444 335 1
444 336 1
444 359 1
444 368 1
444 371 1
444 372 1
444 377 1
444 384 1
444 387 1
444 392 1
444 396 1
444 402 1
444 404 1
444 409 1
444 412 1
444 413 1
444 417 1
444 420 1
444 427 1
444 430 1
444 434 1
444 439 1
444 456 1
444 462 1
444 472 1
444 475 1
444 482 1
444 491 1
444 499 1
444 512 1
444 516 1
444 518 1
444 520 1
444 526 1
444 527 1
444 528 1
444 529 1
444 533 1
444 539 1
444 541 1
444 545 1
444 556 1
444 560 1
444 566 1
444 567 1
444 570 1
444 573 1
444 584 1
444 587 1
444 588 1
445 1 1
445 3 1
445 6 1
445 19 1
445 29 1
445 54 1
445 56 1
445 60 1
445 62 1
445 63 1
445 69 1
445 70 1
445 71 1
445 78 1
445 88 1
445 92 1
445 101 1
445 102 1
445 108 1
445 115 1
445 121 1
445 127 1
445 128 1
445 131 1
445 134 1
445 135 1
445 140 1
445 141 1
445 142 1
445 144 1
445 149 1
445 159 1
445 164 1
445 168 1
445 169 1
445 172 1
445 175 1
445 178 1
445 197 1
445 203 1
445 204 1
445 215 1
445 237 1
445 240 1
445 241 1
445 243 1
445 246 1
445 249 1
445 253 1
445 255 1
445 258 1
445 266 1
445 268 1
445 277 1
445 287 1
445 291 1
445 292 1
445 309 1
445 310 1
445 313 1
445 314 1
445 319 1
445 320 1
445 324 1
445 331 1
445 339 1
445 344 1
445 349 1
445 350 1
445 351 1
445 364 1
445 365 1
445 368 1
445 372 1
445 374 1
445 376 1
445 379 1
445 396 1
445 399 1
445 414 1
445 418 1
445 461 1
445 462 1
445 463 1
445 472 1
445 481 1
445 483 1
445 486 1
445 497 1
445 501 1
445 502 1
445 506 1
445 507 1
445 509 1
445 515 1
445 516 1
445 520 1
445 526 1
445 532 1
445 542 1
445 545 1
445 553 1
445 560 1
445 577 1
445 587 1
445 594 1
446 2 1
446 5 1
446 9 1
446 19 1
446 25 1
446 35 1
446 38 1
446 41 1
446 45 1
446 48 1
446 52 1
446 54 1
446 61 1
446 63 1
446 71 1
446 75 1
446 80 1
446 81 1
446 85 1
446 92 1
446 94 1
446 100 1
446 105 1
446 109 1
446 110 1
446 118 1
446 121 1
446 125 1
446 134 1
446 144 1
446 145 1
446 158 1
446 169 1
446 174 1
446 178 1
446 185 1
446 186 1
446 193 1
446 194 1
446 198 1
446 199 1
446 202 1
446 206 1
446 209 1
446 219 1
446 229 1
446 231 1
446 241 1
446 243 1
446 258 1
446 259 1
446 265 1
446 266 1
446 267 1
446 270 1
446 275 1
446 287 1
446 289 1
446 298 1
446 301 1
446 307 1
446 309 1
446 316 1
446 324 1
446 329 1
446 330 1
446 332 1
446 339 1
446 344 1
446 351 1
446 358 1
446 362 1
446 363 1
446 366 1
446 369 1
446 370 1
446 371 1
446 386 1
446 393 1
446 396 1
446 416 1
446 421 1
446 422 1
446 426 1
446 429 1
446 431 1
446 440 1
446 448 1
446 451 1
446 457 1
446 462 1
446 473 1
446 476 1
446 486 1
446 493 1
446 497 1
446 498 1
446 499 1
446 500 1
446 502 1
446 505 1
446 515 1
446 517 1
446 531 1
446 534 1
446 538 1
446 544 1
446 545 1
446 547 1
446 551 1
446 557 1
446 560 1
446 561 1
446 572 1
446 573 1
446 577 1
446 581 1
446 583 1
446 586 1
446 600 1
447 1 1
447 15 1
447 22 1
447 23 1
447 24 1
447 27 1
447 31 1
447 40 1
447 44 1
447 45 1
447 47 1
447 48 1
447 50 1
447 52 1
447 57 1
447 59 1
447 70 1
447 71 1
447 72 1
447 73 1
447 74 1
447 92 1
447 95 1
447 104 1
447 107 1
447 111 1
447 126 1
447 127 1
447 129 1
447 133 1
447 136 1
447 148 1
447 157 1
447 160 1
447 161 1
447 162 1
447 163 1
447 164 1
447 174 1
447 188 1
447 189 1
447 199 1
447 202 1
447 203 1
447 208 1
447 213 1
447 220 1
447 221 1
447 228 1
447 232 1
447 236 1
447 242 1
447 251 1
447 252 1
447 265 1
447 266 1
447 271 1
447 278 1
447 281 1
447 283 1
447 284 1
447 298 1
447 324 1
447 332 1
447 337 1
447 346 1
447 347 1
447 348 1
447 350 1
447 352 1
447 353 1
447 354 1
447 357 1
447 360 1
447 398 1
447 416 1
447 421 1
447 429 1
447 431 1
447 449 1
447 453 1
447 459 1
447 472 1
447 473 1
447 475 1
447 478 1
447 490 1
447 496 1
447 498 1
447 508 1
447 516 1
447 518 1
447 521 1
447 526 1
447 538 1
447 540 1
447 544 1
447 548 1
447 554 1
447 556 1
447 558 1
447 559 1
447 562 1
447 563 1
447 567 1
447 574 1
447 576 1
447 577 1
447 588 1
447 589 1
447 591 1
447 592 1
447 597 1
448 3 1
448 4 1
448 6 1
448 7 1
448 11 1
448 18 1
448 19 1
448 26 1
448 37 1
448 52 1
448 61 1
448 77 1
448 80 1
448 83 1
448 88 1
448 89 1
448 107 1
448 109 1
448 113 1
448 117 1
448 151 1
448 152 1
448 155 1
448 156 1
448 163 1
448 165 1
448 166 1
448 169 1
448 171 1
448 174 1
448 178 1
448 186 1
448 191 1
448 192 1
448 194 1
448 197 1
448 205 1
448 207 1
448 211 1
448 219 1
448 222 1
448 226 1
448 230 1
448 242 1
448 262 1
448 266 1
448 268 1
448 271 1
448 283 1
448 288 1
448 292 1
448 294 1
448 296 1
448 297 1
448 298 1
448 303 1
448 307 1
448 313 1
448 315 1
448 318 1
448 322 1
448 324 1
448 325 1
448 334 1
448 337 1
448 339 1
448 340 1
448 345 1
448 347 1
448 351 1
448 358 1
448 361 1
448 362 1
448 374 1
448 375 1
448 376 1
448 379 1
448 380 1
448 381 1
448 385 1
448 390 1
448 392 1
448 393 1
448 396 1
448 418 1
448 424 1
448 432 1
448 436 1
448 437 1
448 441 1
448 446 1
448 466 1
448 469 1
448 472 1
448 474 1
448 477 1
448 482 1
448 484 1
448 486 1
448 487 1
448 495 1
448 497 1
448 506 1
448 510 1
448 512 1
448 514 1
448 520 1
448 537 1
448 538 1
448 539 1
448 542 1
448 549 1
448 552 1
448 555 1
448 568 1
448 569 1
448 570 1
448 575 1
448 582 1
448 585 1
448 592 1
448 596 1
448 599 1
449 1 1
449 3 1
449 14 1
449 15 1
449 18 1
449 24 1
449 27 1
449 28 1
449 33 1
449 35 1
449 37 1
449 39 1
449 43 1
449 46 1
449 55 1
449 57 1
449 59 1
449 63 1
449 65 1
449 67 1
449 85 1
449 106 1
449 107 1
449 120 1
449 130 1
449 150 1
449 152 1
449 156 1
449 164 1
449 172 1
449 174 1
449 176 1
449 179 1
449 189 1
449 198 1
449 199 1
449 204 1
449 209 1
449 213 1
449 216 1
449 221 1
449 227 1
449 228 1
449 229 1
449 234 1
449 240 1
449 242 1
449 248 1
449 250 1
449 256 1
449 257 1
449 259 1
449 263 1
449 265 1
449 269 1
449 280 1
449 284 1
449 314 1
449 324 1
449 331 1
449 332 1
449 346 1
449 347 1
449 355 1
449 356 1
449 360 1
449 363 1
449 371 1
449 375 1
449 378 1
449 386 1
449 389 1
449 395 1
449 405 1
449 409 1
449 416 1
449 422 1
449 423 1
449 426 1
449 430 1
449 431 1
449 433 1
449 438 1
449 442 1
449 447 1
449 456 1
449 474 1
449 478 1
449 483 1
449 484 1
449 485 1
449 490 1
449 493 1
449 497 1
449 505 1
449 510 1
449 511 1
449 518 1
449 520 1
449 521 1
449 522 1
449 545 1
449 550 1
449 555 1
449 556 1
449 566 1
449 568 1
449 572 1
449 580 1
449 582 1
449 583 1
449 588 1
449 589 1
449 590 1
449 592 1
449 600 1
450 3 1
450 16 1
450 19 1
450 23 1
450 29 1
450 31 1
450 43 1
450 48 1
450 50 1
450 55 1
450 58 1
450 68 1
450 70 1
450 71 1
450 76 1
450 77 1
450 82 1
450 86 1
450 95 1
450 99 1
450 101 1
450 105 1
450 109 1
450 110 1
450 132 1
450 138 1
450 142 1
450 146 1
450 148 1
450 154 1
450 160 1
450 162 1
450 163 1
450 164 1
450 167 1
450 176 1
450 179 1
450 183 1
450 184 1
450 195 1
450 197 1
450 198 1
450 199 1
450 208 1
450 211 1
450 226 1
450 230 1
450 231 1
450 232 1
450 236 1
450 246 1
450 263 1
450 265 1
450 272 1
450 275 1
450 277 1
450 280 1
450 282 1
450 283 1
450 284 1
450 287 1
450 292 1
450 294 1
450 298 1
450 303 1
450 307 1
450 310 1
450 311 1
450 330 1
450 344 1
450 348 1
450 351 1
450 352 1
450 356 1
450 357 1
450 360 1
450 364 1
450 367 1
450 368 1
450 369 1
450 395 1
450 397 1
450 405 1
450 409 1
450 419 1
450 422 1
450 425 1
450 427 1
450 428 1
450 433 1
450 435 1
450 452 1
450 453 1
450 463 1
450 465 1
450 468 1
450 472 1
450 478 1
450 480 1
450 481 1
450 484 1
450 485 1
450 488 1
450 490 1
450 491 1
450 494 1
450 498 1
450 499 1
450 511 1
450 513 1
450 514 1
450 515 1
450 521 1
450 524 1
450 550 1
450 563 1
450 566 1
450 568 1
450 572 1
450 576 1
450 590 1
450 594 1
450 598 1
450 600 1
451 17 1
451 18 1
451 21 1
451 27 1
451 48 1
451 53 1
451 55 1
451 57 1
451 58 1
451 62 1
451 64 1
451 69 1
451 70 1
451 71 1
451 84 1
451 85 1
451 87 1
451 89 1
451 98 1
451 99 1
451 121 1
451 126 1
451 129 1
451 130 1
451 131 1
451 142 1
451 146 1
451 148 1
451 149 1
451 154 1
451 161 1
451 163 1
451 166 1
451 168 1
451 175 1
451 182 1
451 195 1
451 196 1
451 197 1
451 207 1
451 220 1
451 221 1
451 222 1
451 223 1
451 227 1
451 229 1
451 237 1
451 245 1
451 256 1
451 262 1
451 264 1
451 265 1
451 267 1
451 273 1
451 275 1
451 276 1
451 280 1
451 285 1
451 287 1
451 290 1
451 292 1
451 293 1
451 296 1
451 314 1
451 316 1
451 328 1
451 340 1
451 342 1
451 346 1
451 352 1
451 353 1
451 367 1
451 370 1
451 378 1
451 381 1
451 393 1
451 400 1
451 402 1
451 403 1
451 409 1
451 414 1
451 423 1
451 427 1
451 435 1
451 442 1
451 446 1
451 459 1
451 460 1
451 475 1
451 480 1
451 487 1
451 490 1
451 494 1
451 495 1
451 497 1
451 500 1
451 504 1
451 508 1
451 509 1
451 510 1
451 522 1
451 533 1
451 543 1
451 544 1
451 546 1
451 555 1
451 556 1
451 558 1
451 568 1
451 570 1
451 571 1
451 572 1
451 573 1
451 574 1
451 579 1
451 583 1
451 589 1
451 595 1
451 598 1
452 3 1
452 10 1
452 23 1
452 27 1
452 30 1
452 32 1
452 35 1
452 41 1
452 43 1
452 44 1
452 45 1
452 53 1
452 55 1
452 56 1
452 63 1
452 82 1
452 87 1
452 89 1
452 92 1
452 97 1
452 104 1
452 109 1
452 114 1
452 131 1
452 135 1
452 136 1
452 139 1
452 145 1
452 146 1
452 149 1
452 153 1
452 155 1
452 159 1
452 171 1
452 173 1
452 179 1
452 181 1
452 182 1
452 191 1
452 196 1
452 201 1
452 202 1
452 206 1
452 210 1
452 214 1
452 217 1
452 232 1
452 237 1
452 240 1
452 243 1
452 259 1
452 261 1
452 269 1
452 273 1
452 276 1
452 278 1
452 288 1
452 299 1
452 308 1
452 314 1
452 321 1
452 328 1
452 329 1
452 330 1
452 348 1
452 354 1
452 356 1
452 358 1
452 359 1
452 361 1
452 367 1
452 373 1
452 380 1
452 382 1
452 386 1
452 400 1
452 403 1
452 404 1
452 411 1
452 436 1
452 450 1
452 455 1
452 461 1
452 465 1
452 471 1
452 473 1
452 492 1
452 498 1
452 500 1
452 505 1
452 506 1
452 509 1
452 511 1
452 530 1
452 536 1
452 537 1
452 551 1
452 557 1
452 560 1
452 561 1
452 570 1
452 581 1
452 582 1
452 583 1
452 597 1
453 6 1
453 10 1
453 11 1
453 12 1
453 14 1
453 15 1
453 22 1
453 24 1
453 26 1
453 37 1
453 48 1
453 50 1
453 59 1
453 62 1
453 63 1
453 76 1
453 77 1
453 78 1
453 79 1
453 82 1
453 84 1
453 91 1
453 92 1
453 100 1
453 104 1
453 106 1
453 107 1
453 109 1
453 110 1
453 115 1
453 126 1
453 127 1
453 135 1
453 144 1
453 152 1
453 156 1
453 170 1
453 172 1
453 177 1
453 179 1
453 191 1
453 194 1
453 203 1
453 204 1
453 205 1
453 216 1
453 231 1
453 238 1
453 239 1
453 245 1
453 246 1
453 248 1
453 267 1
453 269 1
453 276 1
453 281 1
453 283 1
453 284 1
453 285 1
453 286 1
453 289 1
453 291 1
453 292 1
453 293 1
453 298 1
453 303 1
453 309 1
453 313 1
453 320 1
453 325 1
453 326 1
453 328 1
453 330 1
453 336 1
453 338 1
453 341 1
453 342 1
453 347 1
453 350 1
453 352 1
453 354 1
453 357 1
453 358 1
453 372 1
453 374 1
453 375 1
453 380 1
453 397 1
453 401 1
453 403 1
453 412 1
453 416 1
453 420 1
453 422 1
453 438 1
453 440 1
453 443 1
453 447 1
453 450 1
453 455 1
453 457 1
453 459 1
453 460 1
453 462 1
453 470 1
453 471 1
453 472 1
453 473 1
453 476 1
453 478 1
453 479 1
453 484 1
453 490 1
453 495 1
453 504 1
453 509 1
453 511 1
453 512 1
453 514 1
453 524 1
453 526 1
453 527 1
453 529 1
453 530 1
453 536 1
453 546 1
453 560 1
453 563 1
453 566 1
453 571 1
453 576 1
453 582 1
453 587 1
453 588 1
453 596 1
453 600 1
454 5 1
454 8 1
454 11 1
454 24 1
454 28 1
454 29 1
454 31 1
454 42 1
454 48 1
454 50 1
454 57 1
454 60 1
454 65 1
454 66 1
454 77 1
454 78 1
454 79 1
454 82 1
454 83 1
454 87 1
454 91 1
454 96 1
454 105 1
454 110 1
454 136 1
454 137 1
454 139 1
454 146 1
454 155 1
454 161 1
454 166 1
454 174 1
454 178 1
454 179 1
454 180 1
454 184 1
454 186 1
454 187 1
454 191 1
454 192 1
454 195 1
454 212 1
454 229 1
454 231 1
454 247 1
454 252 1
454 253 1
454 259 1
454 260 1
454 262 1
454 264 1
454 267 1
454 275 1
454 285 1
454 289 1
454 298 1
454 306 1
454 310 1
454 315 1
454 316 1
454 328 1
454 329 1
454 331 1
454 333 1
454 334 1
454 335 1
454 341 1
454 359 1
454 361 1
454 368 1
454 373 1
454 382 1
454 388 1
454 389 1
454 394 1
454 397 1
454 399 1
454 403 1
454 407 1
454 425 1
454 426 1
454 428 1
454 430 1
454 435 1
454 436 1
454 459 1
454 470 1
454 471 1
454 487 1
454 490 1
454 498 1
454 499 1
454 505 1
454 509 1
454 512 1
454 514 1
454 515 1
454 521 1
454 525 1
454 526 1
454 530 1
454 531 1
454 547 1
454 552 1
454 561 1
454 562 1
454 566 1
454 572 1
454 573 1
454 578 1
454 586 1
454 589 1
454 591 1
454 592 1
454 596 1
454 599 1
455 3 1
455 5 1
455 6 1
455 7 1
455 10 1
455 18 1
455 25 1
455 31 1
455 34 1
455 40 1
455 41 1
455 43 1
455 44 1
455 48 1
455 54 1
455 55 1
455 68 1
455 70 1
455 73 1
455 77 1
455 84 1
455 90 1
455 92 1
455 95 1
455 98 1
455 100 1
455 101 1
455 103 1
455 109 1
455 110 1
455 125 1
455 126 1
455 129 1
455 130 1
455 132 1
455 133 1
455 137 1
455 139 1
455 140 1
455 147 1
455 151 1
455 157 1
455 159 1
455 166 1
455 179 1
455 184 1
455 185 1
455 198 1
455 202 1
455 203 1
455 213 1
455 221 1
455 226 1
455 234 1
455 256 1
455 257 1
455 274 1
455 275 1
455 278 1
455 282 1
455 288 1
455 289 1
455 291 1
455 293 1
455 303 1
455 309 1
455 311 1
455 312 1
455 325 1
455 326 1
455 329 1
455 334 1
455 338 1
455 350 1
455 353 1
455 354 1
455 355 1
455 356 1
455 359 1
455 398 1
455 402 1
455 418 1
455 420 1
455 421 1
455 429 1
455 434 1
455 443 1
455 452 1
455 453 1
455 456 1
455 465 1
455 468 1
455 472 1
455 473 1
455 478 1
455 480 1
455 490 1
455 493 1
455 494 1
455 499 1
455 500 1
455 502 1
455 503 1
455 504 1
455 506 1
455 511 1
455 516 1
455 517 1
455 528 1
455 541 1
455 552 1
455 567 1
455 571 1
455 579 1
455 584 1
455 589 1
455 595 1
455 598 1
456 1 1
456 9 1
456 11 1
456 17 1
456 20 1
456 21 1
456 23 1
456 24 1
456 25 1
456 29 1
456 31 1
456 50 1
456 59 1
456 60 1
456 67 1
456 68 1
456 71 1
456 80 1
456 82 1
456 84 1
456 92 1
456 106 1
456 108 1
456 110 1
456 113 1
456 115 1
456 116 1
456 120 1
456 123 1
456 125 1
456 129 1
456 133 1
456 140 1
456 143 1
456 144 1
456 147 1
456 149 1
456 153 1
456 156 1
456 160 1
456 162 1
456 167 1
456 168 1
456 169 1
456 179 1
456 193 1
456 195 1
456 196 1
456 202 1
456 213 1
456 215 1
456 233 1
456 237 1
456 241 1
456 243 1
456 251 1
456 262 1
456 273 1
456 275 1
456 280 1
456 282 1
456 287 1
456 300 1
456 309 1
456 316 1
456 319 1
456 321 1
456 331 1
456 333 1
456 334 1
456 343 1
456 351 1
456 359 1
456 362 1
456 364 1
456 374 1
456 384 1
456 388 1
456 394 1
456 395 1
456 398 1
456 399 1
456 401 1
456 405 1
456 410 1
456 411 1
456 412 1
456 417 1
456 429 1
456 433 1
456 434 1
456 438 1
456 439 1
456 444 1
456 449 1
456 455 1
456 468 1
456 470 1
456 478 1
456 479 1
456 482 1
456 483 1
456 485 1
456 489 1
456 490 1
456 492 1
456 503 1
456 511 1
456 516 1
456 523 1
456 525 1
456 531 1
456 532 1
456 533 1
456 534 1
456 537 1
456 538 1
456 540 1
456 547 1
456 548 1
456 550 1
456 560 1
456 566 1
456 568 1
457 1 1
457 2 1
457 3 1
457 4 1
457 5 1
457 17 1
457 30 1
457 32 1
457 39 1
457 53 1
457 61 1
457 63 1
457 74 1
457 78 1
457 79 1
457 80 1
457 81 1
457 92 1
457 94 1
457 102 1
457 103 1
457 105 1
457 107 1
457 117 1
457 119 1
457 123 1
457 133 1
457 134 1
457 137 1
457 151 1
457 154 1
457 163 1
457 165 1
457 167 1
457 183 1
457 188 1
457 191 1
457 192 1
457 196 1
457 207 1
457 212 1
457 217 1
457 229 1
457 233 1
457 238 1
457 239 1
457 240 1
457 244 1
457 246 1
457 252 1
457 260 1
457 262 1
457 265 1
457 266 1
457 276 1
457 278 1
457 292 1
457 299 1
457 303 1
457 304 1
457 305 1
457 308 1
457 314 1
457 319 1
457 323 1
457 333 1
457 349 1
457 350 1
457 363 1
457 364 1
457 368 1
457 370 1
457 371 1
457 377 1
457 380 1
457 384 1
457 386 1
457 388 1
457 393 1
457 401 1
457 407 1
457 410 1
457 411 1
457 418 1
457 419 1
457 422 1
457 427 1
457 431 1
457 433 1
457 436 1
457 442 1
457 446 1
457 453 1
457 466 1
457 467 1
457 472 1
457 476 1
457 482 1
457 484 1
457 489 1
457 491 1
457 492 1
457 493 1
457 494 1
457 496 1
457 503 1
457 511 1
457 521 1
457 528 1
457 533 1
457 537 1
457 546 1
457 554 1
457 565 1
457 566 1
457 567 1
457 573 1
457 587 1
457 589 1
458 4 1
458 16 1
458 20 1
458 27 1
458 31 1
458 48 1
458 72 1
458 77 1
458 81 1
458 83 1
458 87 1
458 103 1
458 128 1
458 145 1
458 146 1
458 150 1
458 151 1
458 170 1
458 172 1
458 176 1
458 187 1
458 211 1
458 214 1
458 220 1
458 223 1
458 231 1
458 234 1
458 235 1
458 245 1
458 247 1
458 250 1
458 258 1
458 264 1
458 265 1
458 270 1
458 283 1
458 284 1
458 286 1
458 288 1
458 289 1
458 294 1
458 310 1
458 316 1
458 318 1
458 323 1
458 329 1
458 340 1
458 341 1
458 342 1
458 343 1
458 344 1
458 349 1
458 350 1
458 353 1
458 357 1
458 369 1
458 371 1
458 373 1
458 375 1
458 376 1
458 379 1
458 385 1
458 387 1
458 389 1
458 390 1
458 397 1
458 398 1
458 399 1
458 403 1
458 405 1
458 411 1
458 414 1
458 417 1
458 419 1
458 426 1
458 429 1
458 431 1
458 436 1
458 438 1
458 472 1
458 473 1
458 476 1
458 482 1
458 484 1
458 487 1
458 536 1
458 540 1
458 541 1
458 548 1
458 550 1
458 553 1
458 564 1
458 570 1
458 575 1
458 598 1
459 3 1
459 4 1
459 5 1
459 6 1
459 9 1
459 10 1
459 14 1
459 21 1
459 23 1
459 25 1
459 26 1
459 30 1
459 41 1
459 47 1
459 51 1
459 62 1
459 63 1
459 65 1
459 66 1
459 71 1
459 74 1
459 82 1
459 88 1
459 89 1
459 97 1
459 104 1
459 108 1
459 111 1
459 113 1
459 117 1
459 118 1
459 121 1
459 124 1
459 127 1
459 143 1
459 144 1
459 145 1
459 152 1
459 158 1
459 161 1
459 174 1
459 176 1
459 183 1
459 184 1
459 185 1
459 186 1
459 189 1
459 195 1
459 201 1
459 217 1
459 219 1
459 220 1
459 222 1
459 223 1
459 227 1
459 235 1
459 245 1
459 271 1
459 273 1
459 276 1
459 281 1
459 304 1
459 310 1
459 319 1
459 329 1
459 338 1
459 352 1
459 353 1
459 354 1
459 358 1
459 368 1
459 371 1
459 373 1
459 377 1
459 384 1
459 397 1
459 398 1
459 399 1
459 402 1
459 411 1
459 412 1
459 413 1
459 420 1
459 433 1
459 436 1
459 447 1
459 451 1
459 453 1
459 454 1
459 460 1
459 461 1
459 463 1
459 466 1
459 473 1
459 479 1
459 483 1
459 486 1
459 492 1
459 493 1
459 500 1
459 504 1
459 505 1
459 515 1
459 518 1
459 525 1
459 526 1
459 532 1
459 536 1
459 543 1
459 550 1
459 559 1
459 561 1
459 570 1
459 574 1
459 576 1
459 580 1
459 586 1
459 590 1
459 598 1
459 600 1
460 3 1
460 6 1
460 26 1
460 34 1
460 36 1
460 38 1
460 44 1
460 46 1
460 49 1
460 54 1
460 69 1
460 78 1
460 89 1
460 90 1
460 91 1
460 100 1
460 109 1
460 125 1
460 126 1
460 130 1
460 135 1
460 140 1
460 152 1
460 156 1
460 157 1
460 162 1
460 164 1
460 167 1
460 178 1
460 181 1
460 186 1
460 197 1
460 202 1
460 212 1
460 216 1
460 224 1
460 225 1
460 226 1
460 228 1
460 229 1
460 232 1
460 253 1
460 258 1
460 262 1
460 263 1
460 264 1
460 268 1
460 274 1
460 279 1
460 285 1
460 287 1
460 289 1
460 298 1
460 300 1
460 305 1
460 322 1
460 331 1
460 334 1
460 335 1
460 340 1
460 345 1
460 355 1
460 357 1
460 358 1
460 370 1
460 376 1
460 382 1
460 383 1
460 384 1
460 387 1
460 388 1
460 392 1
460 393 1
460 398 1
460 399 1
460 402 1
460 404 1
460 410 1
460 413 1
460 414 1
460 416 1
460 425 1
460 429 1
460 430 1
460 431 1
460 433 1
460 439 1
460 440 1
460 441 1
460 451 1
460 453 1
460 459 1
460 475 1
460 480 1
460 481 1
460 482 1
460 483 1
460 495 1
460 496 1
460 499 1
460 512 1
460 513 1
460 517 1
460 528 1
460 529 1
460 537 1
460 543 1
460 549 1
460 553 1
460 559 1
460 564 1
460 567 1
460 575 1
460 578 1
460 580 1
460 582 1
460 584 1
460 593 1
461 5 1
461 6 1
461 15 1
461 18 1
461 19 1
461 24 1
461 34 1
461 38 1
461 42 1
461 44 1
461 50 1
461 52 1
461 53 1
461 56 1
461 63 1
461 75 1
461 81 1
461 83 1
461 85 1
461 100 1
461 112 1
461 116 1
461 117 1
461 120 1
461 123 1
461 127 1
461 129 1
461 135 1
461 139 1
461 151 1
461 154 1
461 162 1
461 163 1
461 175 1
461 177 1
461 179 1
461 182 1
461 195 1
461 198 1
461 203 1
461 208 1
461 210 1
461 214 1
461 218 1
461 223 1
461 224 1
461 228 1
461 230 1
461 231 1
461 232 1
461 233 1
461 240 1
461 247 1
461 248 1
461 249 1
461 253 1
461 256 1
461 264 1
461 266 1
461 270 1
461 280 1
461 283 1
461 286 1
461 287 1
461 298 1
461 299 1
461 307 1
461 310 1
461 311 1
461 320 1
461 323 1
461 325 1
461 326 1
461 331 1
461 337 1
461 338 1
461 344 1
461 352 1
461 353 1
461 355 1
461 358 1
461 361 1
461 362 1
461 365 1
461 367 1
461 370 1
461 375 1
461 377 1
461 378 1
461 385 1
461 386 1
461 390 1
461 396 1
461 398 1
461 404 1
461 408 1
461 410 1
461 412 1
461 413 1
461 423 1
461 424 1
461 425 1
461 426 1
461 430 1
461 432 1
461 435 1
461 436 1
461 442 1
461 445 1
461 452 1
461 459 1
461 462 1
461 465 1
461 469 1
461 474 1
461 492 1
461 495 1
461 498 1
461 505 1
461 506 1
461 510 1
461 519 1
461 537 1
461 546 1
461 547 1
461 548 1
461 550 1
461 565 1
461 573 1
461 574 1
461 578 1
461 583 1
461 587 1
461 588 1
462 1 1
462 2 1
462 4 1
462 20 1
462 25 1
462 27 1
462 31 1
462 53 1
462 55 1
462 60 1
462 61 1
462 70 1
462 75 1
462 79 1
462 80 1
462 82 1
462 83 1
462 84 1
462 97 1
462 103 1
462 108 1
462 110 1
462 111 1
462 119 1
462 125 1
462 128 1
462 132 1
462 133 1
462 138 1
462 143 1
462 146 1
462 156 1
462 158 1
462 168 1
462 169 1
462 171 1
462 172 1
462 178 1
462 180 1
462 182 1
462 184 1
462 197 1
462 206 1
462 208 1
462 212 1
462 214 1
462 215 1
462 216 1
462 218 1
462 228 1
462 229 1
462 236 1
462 238 1
462 241 1
462 265 1
462 270 1
462 277 1
462 284 1
462 285 1
462 291 1
462 292 1
462 296 1
462 305 1
462 311 1
462 320 1
462 323 1
462 325 1
462 326 1
462 343 1
462 348 1
462 369 1
462 377 1
462 382 1
462 390 1
462 394 1
462 397 1
462 400 1
462 407 1
462 416 1
462 423 1
462 426 1
462 427 1
462 431 1
462 443 1
462 444 1
462 445 1
462 446 1
462 453 1
462 461 1
462 467 1
462 469 1
462 480 1
462 482 1
462 488 1
462 489 1
462 490 1
462 491 1
462 494 1
462 505 1
462 510 1
462 513 1
462 514 1
462 516 1
462 526 1
462 530 1
462 531 1
462 532 1
462 533 1
462 535 1
462 542 1
462 544 1
462 547 1
462 548 1
462 549 1
462 550 1
462 551 1
462 552 1
462 554 1
462 567 1
462 572 1
462 577 1
462 579 1
462 585 1
462 587 1
462 590 1
462 594 1
462 596 1
462 598 1
463 2 1
463 4 1
463 6 1
463 9 1
463 11 1
463 16 1
463 20 1
463 23 1
463 25 1
463 27 1
463 31 1
463 35 1
463 38 1
463 39 1
463 47 1
463 55 1
463 56 1
463 57 1
463 58 1
463 69 1
463 74 1
463 75 1
463 93 1
463 94 1
463 102 1
463 107 1
463 111 1
463 124 1
463 127 1
463 134 1
463 139 1
463 157 1
463 165 1
463 169 1
463 171 1
463 174 1
463 177 1
463 184 1
463 190 1
463 194 1
463 195 1
463 202 1
463 207 1
463 212 1
463 214 1
463 221 1
463 222 1
463 226 1
463 229 1
463 248 1
463 252 1
463 253 1
463 256 1
463 258 1
463 259 1
463 261 1
463 272 1
463 275 1
463 277 1
463 283 1
463 287 1
463 291 1
463 292 1
463 295 1
463 299 1
463 311 1
463 329 1
463 334 1
463 338 1
463 339 1
463 340 1
463 345 1
463 346 1
463 348 1
463 357 1
463 359 1
463 376 1
463 382 1
463 384 1
463 389 1
463 393 1
463 405 1
463 411 1
463 412 1
463 418 1
463 422 1
463 423 1
463 426 1
463 428 1
463 434 1
463 436 1
463 438 1
463 445 1
463 450 1
463 459 1
463 466 1
463 474 1
463 476 1
463 478 1
463 480 1
463 481 1
463 486 1
463 492 1
463 498 1
463 501 1
463 502 1
463 521 1
463 527 1
463 528 1
463 529 1
463 535 1
463 539 1
463 550 1
463 552 1
463 555 1
463 557 1
463 559 1
463 564 1
463 571 1
463 579 1
463 583 1
463 584 1
463 585 1
463 588 1
463 591 1
463 594 1
464 2 1
464 7 1
464 14 1
464 17 1
464 24 1
464 29 1
464 30 1
464 40 1
464 48 1
464 50 1
464 53 1
464 55 1
464 57 1
464 58 1
464 62 1
464 63 1
464 64 1
464 72 1
464 82 1
464 84 1
464 91 1
464 92 1
464 95 1
464 99 1
464 106 1
464 116 1
464 117 1
464 118 1
464 122 1
464 123 1
464 128 1
464 134 1
464 138 1
464 152 1
464 156 1
464 157 1
464 158 1
464 168 1
464 190 1
464 202 1
464 215 1
464 216 1
464 218 1
464 224 1
464 227 1
464 228 1
464 231 1
464 238 1
464 242 1
464 251 1
464 253 1
464 260 1
464 263 1
464 265 1
464 267 1
464 269 1
464 276 1
464 283 1
464 292 1
464 303 1
464 307 1
464 310 1
464 311 1
464 319 1
464 321 1
464 337 1
464 339 1
464 345 1
464 351 1
464 355 1
464 357 1
464 361 1
464 373 1
464 375 1
464 376 1
464 381 1
464 382 1
464 384 1
464 386 1
464 390 1
464 395 1
464 398 1
464 406 1
464 413 1
464 415 1
464 416 1
464 419 1
464 427 1
464 430 1
464 436 1
464 439 1
464 441 1
464 465 1
464 480 1
464 482 1
464 489 1
464 490 1
464 492 1
464 496 1
464 499 1
464 508 1
464 510 1
464 513 1
464 515 1
464 516 1
464 517 1
464 518 1
464 524 1
464 527 1
464 531 1
464 533 1
464 534 1
464 542 1
464 546 1
464 547 1
464 556 1
464 567 1
464 572 1
464 585 1
464 586 1
464 587 1
464 594 1
464 598 1
465 5 1
465 6 1
465 13 1
465 15 1
465 17 1
465 21 1
465 30 1
465 38 1
465 40 1
465 41 1
465 55 1
465 57 1
465 58 1
465 70 1
465 71 1
465 77 1
465 79 1
465 88 1
465 89 1
465 101 1
465 105 1
465 112 1
465 121 1
465 123 1
465 127 1
465 131 1
465 149 1
465 152 1
465 165 1
465 173 1
465 176 1
465 184 1
465 189 1
465 190 1
465 194 1
465 198 1
465 199 1
465 204 1
465 210 1
465 218 1
465 219 1
465 226 1
465 232 1
465 233 1
465 242 1
465 248 1
465 253 1
465 254 1
465 255 1
465 259 1
465 260 1
465 262 1
465 264 1
465 271 1
465 273 1
465 280 1
465 281 1
465 282 1
465 286 1
465 288 1
465 292 1
465 295 1
465 298 1
465 299 1
465 304 1
465 312 1
465 313 1
465 319 1
465 321 1
465 328 1
465 329 1
465 334 1
465 346 1
465 347 1
465 351 1
465 354 1
465 355 1
465 360 1
465 363 1
465 369 1
465 370 1
465 372 1
465 374 1
465 383 1
465 387 1
465 392 1
465 393 1
465 395 1
465 404 1
465 412 1
465 418 1
465 430 1
465 432 1
465 450 1
465 452 1
465 455 1
465 461 1
465 464 1
465 468 1
465 469 1
465 471 1
465 476 1
465 479 1
465 484 1
465 486 1
465 488 1
465 489 1
465 495 1
465 496 1
465 500 1
465 510 1
465 512 1
465 513 1
465 535 1
465 536 1
465 537 1
465 539 1
465 540 1
465 550 1
465 551 1
465 561 1
465 570 1
465 572 1
465 578 1
465 582 1
465 595 1
465 596 1
466 4 1
466 18 1
466 19 1
466 21 1
466 27 1
466 29 1
466 30 1
466 33 1
466 34 1
466 42 1
466 47 1
466 48 1
466 67 1
466 77 1
466 79 1
466 80 1
466 81 1
466 82 1
466 89 1
466 97 1
466 102 1
466 110 1
466 112 1
466 118 1
466 126 1
466 127 1
466 128 1
466 129 1
466 136 1
466 143 1
466 163 1
466 164 1
466 169 1
466 173 1
466 177 1
466 178 1
466 198 1
466 201 1
466 208 1
466 221 1
466 225 1
466 231 1
466 234 1
466 244 1
466 245 1
466 250 1
466 256 1
466 257 1
466 258 1
466 259 1
466 260 1
466 266 1
466 269 1
466 275 1
466 278 1
466 280 1
466 281 1
466 282 1
466 285 1
466 286 1
466 288 1
466 293 1
466 296 1
466 298 1
466 300 1
466 312 1
466 316 1
466 317 1
466 336 1
466 347 1
466 355 1
466 357 1
466 374 1
466 376 1
466 377 1
466 382 1
466 383 1
466 384 1
466 390 1
466 403 1
466 406 1
466 410 1
466 414 1
466 419 1
466 420 1
466 421 1
466 429 1
466 430 1
466 432 1
466 437 1
466 438 1
466 448 1
466 457 1
466 459 1
466 463 1
466 476 1
466 481 1
466 490 1
466 496 1
466 501 1
466 507 1
466 511 1
466 520 1
466 521 1
466 523 1
466 527 1
466 528 1
466 530 1
466 532 1
466 536 1
466 538 1
466 540 1
466 541 1
466 551 1
466 552 1
466 553 1
466 555 1
466 556 1
466 559 1
466 561 1
466 566 1
466 570 1
466 579 1
466 595 1
466 600 1
467 3 1
467 6 1
467 7 1
467 9 1
467 10 1
467 13 1
467 16 1
467 21 1
467 24 1
467 27 1
467 31 1
467 44 1
467 46 1
467 54 1
467 59 1
467 63 1
467 68 1
467 74 1
467 76 1
467 83 1
467 89 1
467 103 1
467 104 1
467 131 1
467 141 1
467 146 1
467 148 1
467 154 1
467 155 1
467 161 1
467 174 1
467 188 1
467 193 1
467 201 1
467 203 1
467 206 1
467 209 1
467 216 1
467 222 1
467 225 1
467 233 1
467 235 1
467 236 1
467 238 1
467 239 1
467 248 1
467 249 1
467 255 1
467 257 1
467 263 1
467 265 1
467 271 1
467 277 1
467 278 1
467 279 1
467 288 1
467 290 1
467 291 1
467 295 1
467 296 1
467 304 1
467 308 1
467 309 1
467 314 1
467 316 1
467 318 1
467 319 1
467 327 1
467 329 1
467 331 1
467 334 1
467 336 1
467 337 1
467 341 1
467 345 1
467 350 1
467 355 1
467 356 1
467 361 1
467 368 1
467 369 1
467 376 1
467 378 1
467 384 1
467 386 1
467 391 1
467 394 1
467 402 1
467 419 1
467 420 1
467 433 1
467 438 1
467 439 1
467 440 1
467 457 1
467 462 1
467 471 1
467 472 1
467 476 1
467 477 1
467 481 1
467 482 1
467 487 1
467 492 1
467 493 1
467 497 1
467 514 1
467 521 1
467 539 1
467 540 1
467 541 1
467 543 1
467 545 1
467 551 1
467 557 1
467 560 1
467 563 1
467 568 1
467 571 1
467 575 1
467 581 1
467 589 1
467 595 1
468 2 1
468 13 1
468 14 1
468 15 1
468 28 1
468 32 1
468 51 1
468 53 1
468 54 1
468 56 1
468 59 1
468 68 1
468 72 1
468 78 1
468 81 1
468 82 1
468 90 1
468 92 1
468 96 1
468 97 1
468 100 1
468 104 1
468 110 1
468 112 1
468 113 1
468 114 1
468 116 1
468 120 1
468 124 1
468 130 1
468 133 1
468 134 1
468 135 1
468 139 1
468 147 1
468 170 1
468 171 1
468 172 1
468 188 1
468 189 1
468 191 1
468 200 1
468 205 1
468 212 1
468 214 1
468 218 1
468 222 1
468 226 1
468 228 1
468 236 1
468 238 1
468 241 1
468 246 1
468 249 1
468 254 1
468 264 1
468 265 1
468 274 1
468 276 1
468 279 1
468 284 1
468 285 1
468 293 1
468 294 1
468 307 1
468 318 1
468 319 1
468 324 1
468 339 1
468 340 1
468 341 1
468 359 1
468 364 1
468 365 1
468 369 1
468 370 1
468 373 1
468 380 1
468 381 1
468 382 1
468 383 1
468 386 1
468 388 1
468 393 1
468 396 1
468 406 1
468 411 1
468 414 1
468 417 1
468 418 1
468 420 1
468 421 1
468 423 1
468 426 1
468 430 1
468 433 1
468 436 1
468 437 1
468 439 1
468 442 1
468 443 1
468 450 1
468 455 1
468 456 1
468 465 1
468 472 1
468 478 1
468 483 1
468 486 1
468 487 1
468 489 1
468 494 1
468 500 1
468 501 1
468 505 1
468 513 1
468 533 1
468 536 1
468 545 1
468 551 1
468 555 1
468 572 1
468 576 1
468 579 1
468 583 1
468 585 1
468 590 1
468 599 1
468 600 1
469 3 1
469 7 1
469 8 1
469 13 1
469 18 1
469 19 1
469 20 1
469 21 1
469 23 1
469 25 1
469 27 1
469 35 1
469 36 1
469 38 1
469 42 1
469 43 1
469 46 1
469 53 1
469 59 1
469 60 1
469 66 1
469 67 1
469 69 1
469 70 1
469 76 1
469 81 1
469 82 1
469 86 1
469 88 1
469 89 1
469 93 1
469 99 1
469 104 1
469 107 1
469 109 1
469 116 1
469 121 1
469 123 1
469 125 1
469 130 1
469 132 1
469 133 1
469 134 1
469 135 1
469 142 1
469 144 1
469 147 1
469 149 1
469 152 1
469 159 1
469 167 1
469 174 1
469 179 1
469 183 1
469 190 1
469 195 1
469 202 1
469 220 1
469 224 1
469 226 1
469 228 1
469 234 1
469 237 1
469 242 1
469 244 1
469 248 1
469 249 1
469 251 1
469 253 1
469 256 1
469 262 1
469 264 1
469 266 1
469 272 1
469 283 1
469 289 1
469 290 1
469 295 1
469 300 1
469 301 1
469 304 1
469 306 1
469 309 1
469 321 1
469 327 1
469 332 1
469 340 1
469 344 1
469 345 1
469 359 1
469 362 1
469 367 1
469 374 1
469 379 1
469 385 1
469 387 1
469 388 1
469 391 1
469 405 1
469 406 1
469 407 1
469 410 1
469 413 1
469 414 1
469 415 1
469 425 1
469 430 1
469 432 1
469 436 1
469 448 1
469 461 1
469 462 1
469 465 1
469 473 1
469 474 1
469 476 1
469 482 1
469 493 1
469 497 1
469 499 1
469 500 1
469 502 1
469 508 1
469 519 1
469 528 1
469 532 1
469 541 1
469 543 1
469 555 1
469 559 1
469 561 1
469 571 1
469 574 1
469 577 1
469 579 1
469 583 1
469 584 1
469 585 1
469 595 1
469 596 1
469 599 1
470 14 1
470 16 1
470 23 1
470 26 1
470 35 1
470 39 1
470 42 1
470 43 1
470 44 1
470 45 1
470 55 1
470 59 1
470 61 1
470 64 1
470 65 1
470 68 1
470 81 1
470 82 1
470 99 1
470 106 1
470 112 1
470 121 1
470 124 1
470 129 1
470 130 1
470 135 1
470 152 1
470 158 1
470 159 1
470 161 1
470 165 1
470 168 1
470 171 1
470 178 1
470 182 1
470 195 1
470 200 1
470 210 1
470 224 1
470 226 1
470 230 1
470 232 1
470 233 1
470 242 1
470 243 1
470 246 1
470 247 1
470 255 1
470 256 1
470 258 1
470 264 1
470 266 1
470 268 1
470 269 1
470 273 1
470 276 1
470 283 1
470 287 1
470 296 1
470 299 1
470 301 1
470 307 1
470 313 1
470 318 1
470 322 1
470 326 1
470 328 1
470 333 1
470 334 1
470 339 1
470 340 1
470 341 1
470 342 1
470 344 1
470 350 1
470 368 1
470 369 1
470 371 1
470 376 1
470 379 1
470 383 1
470 394 1
470 396 1
470 403 1
470 406 1
470 414 1
470 423 1
470 433 1
470 436 1
470 439 1
470 441 1
470 453 1
470 454 1
470 456 1
470 488 1
470 493 1
470 507 1
470 508 1
470 509 1
470 512 1
470 514 1
470 515 1
470 517 1
470 518 1
470 520 1
470 547 1
470 553 1
470 555 1
470 565 1
470 568 1
470 574 1
470 580 1
470 590 1
470 591 1
470 594 1
470 595 1
471 8 1
471 21 1
471 28 1
471 46 1
471 47 1
471 53 1
471 54 1
471 56 1
471 57 1
471 60 1
471 64 1
471 65 1
471 67 1
471 69 1
471 76 1
471 78 1
471 84 1
471 85 1
471 89 1
471 91 1
471 94 1
471 105 1
471 115 1
471 119 1
471 124 1
471 128 1
471 140 1
471 153 1
471 160 1
471 161 1
471 163 1
471 167 1
471 169 1
471 172 1
471 182 1
471 185 1
471 189 1
471 191 1
471 201 1
471 204 1
471 208 1
471 209 1
471 212 1
471 216 1
471 221 1
471 225 1
471 227 1
471 228 1
471 232 1
471 233 1
471 235 1
471 238 1
471 242 1
471 243 1
471 244 1
471 246 1
471 247 1
471 252 1
471 258 1
471 261 1
471 262 1
471 270 1
471 271 1
471 277 1
471 280 1
471 283 1
471 284 1
471 290 1
471 292 1
471 294 1
471 300 1
471 301 1
471 307 1
471 313 1
471 316 1
471 319 1
471 327 1
471 342 1
471 343 1
471 347 1
471 350 1
471 353 1
471 363 1
471 373 1
471 375 1
471 379 1
471 385 1
471 390 1
471 391 1
471 394 1
471 395 1
471 401 1
471 409 1
471 413 1
471 452 1
471 453 1
471 454 1
471 465 1
471 467 1
471 485 1
471 487 1
471 490 1
471 494 1
471 497 1
471 506 1
471 507 1
471 509 1
471 513 1
471 519 1
471 520 1
471 521 1
471 526 1
471 531 1
471 535 1
471 538 1
471 542 1
471 550 1
471 553 1
471 557 1
471 570 1
471 572 1
471 578 1
471 580 1
471 581 1
471 587 1
471 599 1
472 1 1
472 3 1
472 13 1
472 18 1
472 19 1
472 20 1
472 24 1
472 37 1
472 46 1
472 48 1
472 55 1
472 58 1
472 63 1
472 70 1
472 72 1
472 75 1
472 79 1
472 80 1
472 90 1
472 99 1
472 106 1
472 107 1
472 115 1
472 129 1
472 130 1
472 132 1
472 135 1
472 136 1
472 137 1
472 147 1
472 148 1
472 153 1
472 154 1
472 159 1
472 165 1
472 169 1
472 182 1
472 184 1
472 185 1
472 203 1
472 204 1
472 206 1
472 224 1
472 226 1
472 229 1
472 238 1
472 239 1
472 243 1
472 254 1
472 257 1
472 263 1
472 264 1
472 266 1
472 267 1
472 268 1
472 269 1
472 271 1
472 273 1
472 278 1
472 283 1
472 286 1
472 290 1
472 296 1
472 299 1
472 301 1
472 303 1
472 304 1
472 310 1
472 316 1
472 317 1
472 328 1
472 331 1
472 333 1
472 335 1
472 338 1
472 346 1
472 354 1
472 360 1
472 366 1
472 369 1
472 371 1
472 374 1
472 385 1
472 386 1
472 395 1
472 404 1
472 411 1
472 414 1
472 418 1
472 426 1
472 429 1
472 437 1
472 442 1
472 444 1
472 445 1
472 447 1
472 448 1
472 450 1
472 453 1
472 455 1
472 457 1
472 458 1
472 467 1
472 468 1
472 474 1
472 478 1
472 485 1
472 488 1
472 492 1
472 493 1
472 499 1
472 506 1
472 507 1
472 510 1
472 514 1
472 518 1
472 521 1
472 526 1
472 529 1
472 531 1
472 533 1
472 534 1
472 535 1
472 538 1
472 542 1
472 556 1
472 568 1
472 572 1
472 577 1
472 581 1
472 590 1
472 591 1
472 592 1
472 598 1
472 600 1
473 4 1
473 7 1
473 19 1
473 25 1
473 34 1
473 44 1
473 51 1
473 54 1
473 61 1
473 64 1
473 70 1
473 99 1
473 100 1
473 103 1
473 105 1
473 110 1
473 114 1
473 116 1
473 122 1
473 123 1
473 127 1
473 129 1
473 130 1
473 134 1
473 135 1
473 144 1
473 145 1
473 150 1
473 154 1
473 162 1
473 171 1
473 174 1
473 178 1
473 187 1
473 190 1
473 192 1
473 197 1
473 200 1
473 202 1
473 203 1
473 209 1
473 210 1
473 215 1
473 225 1
473 231 1
473 238 1
473 241 1
473 242 1
473 243 1
473 247 1
473 248 1
473 262 1
473 263 1
473 266 1
473 273 1
473 276 1
473 277 1
473 291 1
473 294 1
473 306 1
473 307 1
473 320 1
473 322 1
473 336 1
473 337 1
473 351 1
473 361 1
473 366 1
473 368 1
473 372 1
473 373 1
473 379 1
473 384 1
473 386 1
473 388 1
473 392 1
473 399 1
473 403 1
473 409 1
473 411 1
473 415 1
473 416 1
473 418 1
473 426 1
473 428 1
473 431 1
473 432 1
473 435 1
473 436 1
473 439 1
473 442 1
473 446 1
473 447 1
473 452 1
473 453 1
473 455 1
473 458 1
473 459 1
473 469 1
473 482 1
473 488 1
473 490 1
473 495 1
473 504 1
473 505 1
473 509 1
473 510 1
473 516 1
473 533 1
473 536 1
473 539 1
473 543 1
473 546 1
473 550 1
473 552 1
473 558 1
473 561 1
473 565 1
473 566 1
473 573 1
473 578 1
473 580 1
473 583 1
473 593 1
473 596 1
474 2 1
474 8 1
474 11 1
474 20 1
474 21 1
474 28 1
474 30 1
474 41 1
474 45 1
474 49 1
474 51 1
474 56 1
474 59 1
474 60 1
474 64 1
474 67 1
474 68 1
474 69 1
474 71 1
474 79 1
474 88 1
474 92 1
474 93 1
474 106 1
474 107 1
474 112 1
474 116 1
474 117 1
474 122 1
474 126 1
474 129 1
474 133 1
474 138 1
474 146 1
474 153 1
474 154 1
474 159 1
474 163 1
474 171 1
474 174 1
474 179 1
474 198 1
474 204 1
474 206 1
474 208 1
474 214 1
474 225 1
474 228 1
474 232 1
474 237 1
474 240 1
474 243 1
474 244 1
474 245 1
474 260 1
474 264 1
474 265 1
474 271 1
474 279 1
474 281 1
474 284 1
474 285 1
474 287 1
474 290 1
474 296 1
474 306 1
474 309 1
474 312 1
474 321 1
474 333 1
474 340 1
474 341 1
474 357 1
474 358 1
474 361 1
474 374 1
474 381 1
474 387 1
474 388 1
474 389 1
474 400 1
474 404 1
474 405 1
474 407 1
474 412 1
474 413 1
474 418 1
474 423 1
474 424 1
474 434 1
474 435 1
474 438 1
474 448 1
474 449 1
474 461 1
474 463 1
474 469 1
474 472 1
474 489 1
474 503 1
474 506 1
474 507 1
474 514 1
474 519 1
474 521 1
474 524 1
474 532 1
474 534 1
474 538 1
474 539 1
474 543 1
474 545 1
474 550 1
474 553 1
474 561 1
474 563 1
474 569 1
474 570 1
474 573 1
474 576 1
474 583 1
474 592 1
474 594 1
475 8 1
475 13 1
475 15 1
475 17 1
475 25 1
475 30 1
475 37 1
475 38 1
475 41 1
475 47 1
475 53 1
475 56 1
475 58 1
475 61 1
475 62 1
475 64 1
475 68 1
475 75 1
475 81 1
475 93 1
475 99 1
475 102 1
475 105 1
475 111 1
475 119 1
475 120 1
475 121 1
475 125 1
475 128 1
475 132 1
475 148 1
475 149 1
475 150 1
475 151 1
475 155 1
475 168 1
475 171 1
475 172 1
475 174 1
475 175 1
475 180 1
475 182 1
475 184 1
475 186 1
475 188 1
475 200 1
475 204 1
475 212 1
475 214 1
475 219 1
475 230 1
475 232 1
475 235 1
475 241 1
475 250 1
475 254 1
475 263 1
475 271 1
475 279 1
475 285 1
475 286 1
475 290 1
475 292 1
475 297 1
475 300 1
475 315 1
475 320 1
475 322 1
475 332 1
475 338 1
475 342 1
475 347 1
475 350 1
475 353 1
475 359 1
475 360 1
475 384 1
475 386 1
475 390 1
475 400 1
475 407 1
475 423 1
475 427 1
475 437 1
475 438 1
475 444 1
475 447 1
475 451 1
475 460 1
475 483 1
475 487 1
475 488 1
475 495 1
475 498 1
475 511 1
475 513 1
475 516 1
475 525 1
475 528 1
475 537 1
475 539 1
475 542 1
475 547 1
475 552 1
475 553 1
475 556 1
475 561 1
475 570 1
475 576 1
475 581 1
475 583 1
475 595 1
475 596 1
475 597 1
475 598 1
476 1 1
476 6 1
476 11 1
476 14 1
476 16 1
476 21 1
476 22 1
476 23 1
476 33 1
476 34 1
476 42 1
476 52 1
476 53 1
476 61 1
476 70 1
476 71 1
476 75 1
476 83 1
476 84 1
476 89 1
476 95 1
476 96 1
476 97 1
476 109 1
476 112 1
476 116 1
476 118 1
476 123 1
476 124 1
476 140 1
476 142 1
476 146 1
476 147 1
476 149 1
476 152 1
476 159 1
476 163 1
476 167 1
476 188 1
476 190 1
476 194 1
476 213 1
476 215 1
476 220 1
476 221 1
476 222 1
476 226 1
476 242 1
476 247 1
476 255 1
476 257 1
476 262 1
476 271 1
476 275 1
476 285 1
476 290 1
476 291 1
476 292 1
476 297 1
476 307 1
476 310 1
476 314 1
476 316 1
476 319 1
476 321 1
476 323 1
476 335 1
476 345 1
476 347 1
476 349 1
476 353 1
476 354 1
476 358 1
476 360 1
476 369 1
476 374 1
476 377 1
476 383 1
476 386 1
476 399 1
476 413 1
476 415 1
476 416 1
476 425 1
476 429 1
476 431 1
476 440 1
476 446 1
476 453 1
476 457 1
476 458 1
476 463 1
476 465 1
476 466 1
476 467 1
476 469 1
476 480 1
476 483 1
476 489 1
476 496 1
476 498 1
476 499 1
476 501 1
476 502 1
476 508 1
476 513 1
476 528 1
476 531 1
476 539 1
476 567 1
476 569 1
476 574 1
476 586 1
476 590 1
476 594 1
476 595 1
477 5 1
477 21 1
477 34 1
477 36 1
477 37 1
477 40 1
477 56 1
477 64 1
477 69 1
477 70 1
477 73 1
477 77 1
477 78 1
477 79 1
477 80 1
477 81 1
477 85 1
477 87 1
477 88 1
477 95 1
477 96 1
477 98 1
477 101 1
477 102 1
477 110 1
477 115 1
477 117 1
477 132 1
477 139 1
477 140 1
477 148 1
477 161 1
477 164 1
477 165 1
477 167 1
477 173 1
477 176 1
477 185 1
477 190 1
477 192 1
477 205 1
477 210 1
477 213 1
477 226 1
477 230 1
477 233 1
477 235 1
477 252 1
477 253 1
477 254 1
477 257 1
477 263 1
477 267 1
477 271 1
477 276 1
477 297 1
477 298 1
477 302 1
477 307 1
477 324 1
477 326 1
477 331 1
477 332 1
477 340 1
477 342 1
477 345 1
477 347 1
477 356 1
477 358 1
477 365 1
477 367 1
477 372 1
477 373 1
477 376 1
477 381 1
477 389 1
477 395 1
477 396 1
477 404 1
477 405 1
477 414 1
477 418 1
477 423 1
477 427 1
477 439 1
477 448 1
477 467 1
477 481 1
477 483 1
477 485 1
477 498 1
477 499 1
477 502 1
477 505 1
477 517 1
477 523 1
477 525 1
477 526 1
477 527 1
477 534 1
477 537 1
477 552 1
477 555 1
477 556 1
477 558 1
477 560 1
477 562 1
477 565 1
477 566 1
477 572 1
477 574 1
477 578 1
477 596 1
477 597 1
477 599 1
478 4 1
478 10 1
478 20 1
478 31 1
478 38 1
478 40 1
478 44 1
478 47 1
478 60 1
478 63 1
478 68 1
478 71 1
478 73 1
478 74 1
478 77 1
478 79 1
478 83 1
478 93 1
478 99 1
478 120 1
478 122 1
478 136 1
478 142 1
478 147 1
478 156 1
478 157 1
478 159 1
478 163 1
478 164 1
478 172 1
478 173 1
478 179 1
478 180 1
478 186 1
478 193 1
478 194 1
478 198 1
478 205 1
478 210 1
478 213 1
478 216 1
478 218 1
478 219 1
478 226 1
478 228 1
478 232 1
478 233 1
478 237 1
478 239 1
478 244 1
478 245 1
478 249 1
478 251 1
478 256 1
478 258 1
478 263 1
478 269 1
478 272 1
478 276 1
478 280 1
478 281 1
478 282 1
478 286 1
478 297 1
478 305 1
478 308 1
478 314 1
478 322 1
478 327 1
478 333 1
478 339 1
478 349 1
478 353 1
478 356 1
478 359 1
478 360 1
478 364 1
478 372 1
478 375 1
478 378 1
478 379 1
478 380 1
478 385 1
478 393 1
478 402 1
478 413 1
478 415 1
478 420 1
478 424 1
478 428 1
478 437 1
478 440 1
478 441 1
478 443 1
478 447 1
478 449 1
478 450 1
478 453 1
478 455 1
478 456 1
478 463 1
478 468 1
478 472 1
478 480 1
478 484 1
478 491 1
478 493 1
478 497 1
478 498 1
478 504 1
478 506 1
478 507 1
478 510 1
478 515 1
478 517 1
478 519 1
478 527 1
478 528 1
478 532 1
478 538 1
478 547 1
478 550 1
478 551 1
478 553 1
478 569 1
478 572 1
478 574 1
478 575 1
478 579 1
478 585 1
478 591 1
478 594 1
478 598 1
479 2 1
479 7 1
479 8 1
479 12 1
479 14 1
479 22 1
479 24 1
479 25 1
479 30 1
479 37 1
479 52 1
479 58 1
479 72 1
479 76 1
479 79 1
479 81 1
479 82 1
479 91 1
479 106 1
479 117 1
479 128 1
479 131 1
479 138 1
479 141 1
479 142 1
479 144 1
479 146 1
479 147 1
479 150 1
479 164 1
479 168 1
479 169 1
479 180 1
479 183 1
479 193 1
479 195 1
479 196 1
479 201 1
479 204 1
479 207 1
479 217 1
479 220 1
479 228 1
479 231 1
479 242 1
479 244 1
479 253 1
479 255 1
479 263 1
479 264 1
479 287 1
479 290 1
479 293 1
479 295 1
479 300 1
479 304 1
479 305 1
479 311 1
479 325 1
479 329 1
479 330 1
479 331 1
479 340 1
479 343 1
479 344 1
479 345 1
479 347 1
479 348 1
479 353 1
479 356 1
479 360 1
479 365 1
479 378 1
479 389 1
479 391 1
479 393 1
479 399 1
479 403 1
479 406 1
479 407 1
479 421 1
479 424 1
479 426 1
479 432 1
479 441 1
479 453 1
479 456 1
479 459 1
479 465 1
479 489 1
479 494 1
479 501 1
479 513 1
479 515 1
479 516 1
479 518 1
479 521 1
479 523 1
479 525 1
479 532 1
479 545 1
479 547 1
479 551 1
479 559 1
479 560 1
479 563 1
479 565 1
479 571 1
479 575 1
479 577 1
479 589 1
480 3 1
480 6 1
480 8 1
480 10 1
480 17 1
480 24 1
480 25 1
480 34 1
480 36 1
480 39 1
480 40 1
480 42 1
480 46 1
480 50 1
480 64 1
480 81 1
480 97 1
480 100 1
480 102 1
480 105 1
480 109 1
480 111 1
480 114 1
480 115 1
480 124 1
480 142 1
480 147 1
480 156 1
480 159 1
480 160 1
480 164 1
480 165 1
480 166 1
480 169 1
480 170 1
480 172 1
480 188 1
480 198 1
480 206 1
480 207 1
480 208 1
480 209 1
480 210 1
480 212 1
480 215 1
480 221 1
480 227 1
480 231 1
480 233 1
480 235 1
480 236 1
480 238 1
480 241 1
480 244 1
480 249 1
480 255 1
480 260 1
480 265 1
480 266 1
480 285 1
480 294 1
480 296 1
480 297 1
480 304 1
480 306 1
480 314 1
480 323 1
480 327 1
480 331 1
480 335 1
480 338 1
480 343 1
480 344 1
480 350 1
480 351 1
480 352 1
480 355 1
480 356 1
480 361 1
480 376 1
480 380 1
480 384 1
480 392 1
480 395 1
480 398 1
480 401 1
480 410 1
480 411 1
480 414 1
480 425 1
480 426 1
480 431 1
480 438 1
480 450 1
480 451 1
480 455 1
480 460 1
480 462 1
480 463 1
480 464 1
480 476 1
480 478 1
480 482 1
480 494 1
480 495 1
480 503 1
480 511 1
480 521 1
480 530 1
480 540 1
480 541 1
480 554 1
480 555 1
480 556 1
480 559 1
480 578 1
480 579 1
480 585 1
480 590 1
480 598 1
481 9 1
481 20 1
481 22 1
481 34 1
481 46 1
481 49 1
481 56 1
481 61 1
481 62 1
481 69 1
481 71 1
481 82 1
481 84 1
481 88 1
481 91 1
481 94 1
481 99 1
481 104 1
481 106 1
481 124 1
481 128 1
481 132 1
481 136 1
481 138 1
481 140 1
481 169 1
481 172 1
481 191 1
481 192 1
481 201 1
481 202 1
481 204 1
481 206 1
481 208 1
481 209 1
481 210 1
481 227 1
481 241 1
481 249 1
481 256 1
481 260 1
481 262 1
481 268 1
481 270 1
481 279 1
481 280 1
481 282 1
481 287 1
481 291 1
481 292 1
481 293 1
481 302 1
481 312 1
481 313 1
481 314 1
481 325 1
481 326 1
481 328 1
481 330 1
481 335 1
481 361 1
481 390 1
481 393 1
481 399 1
481 402 1
481 404 1
481 405 1
481 408 1
481 409 1
481 411 1
481 418 1
481 422 1
481 423 1
481 424 1
481 429 1
481 438 1
481 440 1
481 441 1
481 445 1
481 450 1
481 460 1
481 463 1
481 466 1
481 467 1
481 477 1
481 498 1
481 499 1
481 501 1
481 502 1
481 506 1
481 510 1
481 512 1
481 514 1
481 515 1
481 519 1
481 522 1
481 524 1
481 526 1
481 530 1
481 535 1
481 538 1
481 540 1
481 545 1
481 553 1
481 557 1
481 558 1
481 568 1
481 574 1
481 575 1
481 578 1
481 580 1
481 583 1
481 584 1
482 2 1
482 22 1
482 23 1
482 27 1
482 35 1
482 36 1
482 38 1
482 39 1
482 50 1
482 52 1
482 53 1
482 56 1
482 69 1
482 74 1
482 75 1
482 82 1
482 84 1
482 96 1
482 101 1
482 102 1
482 104 1
482 105 1
482 110 1
482 115 1
482 118 1
482 122 1
482 138 1
482 147 1
482 153 1
482 177 1
482 181 1
482 182 1
482 189 1
482 190 1
482 191 1
482 199 1
482 210 1
482 212 1
482 221 1
482 229 1
482 230 1
482 231 1
482 240 1
482 245 1
482 247 1
482 251 1
482 252 1
482 253 1
482 255 1
482 258 1
482 259 1
482 270 1
482 278 1
482 284 1
482 286 1
482 291 1
482 301 1
482 303 1
482 308 1
482 310 1
482 313 1
482 320 1
482 321 1
482 324 1
482 328 1
482 329 1
482 330 1
482 331 1
482 336 1
482 344 1
482 349 1
482 350 1
482 351 1
482 370 1
482 378 1
482 385 1
482 388 1
482 389 1
482 392 1
482 395 1
482 413 1
482 414 1
482 419 1
482 425 1
482 426 1
482 443 1
482 444 1
482 448 1
482 456 1
482 457 1
482 458 1
482 460 1
482 462 1
482 464 1
482 467 1
482 469 1
482 473 1
482 480 1
482 483 1
482 489 1
482 490 1
482 491 1
482 494 1
482 503 1
482 509 1
482 510 1
482 518 1
482 519 1
482 521 1
482 523 1
482 529 1
482 530 1
482 543 1
482 554 1
482 569 1
482 570 1
482 571 1
482 574 1
482 576 1
482 581 1
483 7 1
483 15 1
483 16 1
483 20 1
483 21 1
483 22 1
483 29 1
483 38 1
483 40 1
483 47 1
483 54 1
483 59 1
483 62 1
483 70 1
483 72 1
483 87 1
483 93 1
483 97 1
483 105 1
483 109 1
483 110 1
483 121 1
483 123 1
483 130 1
483 132 1
483 137 1
483 141 1
483 144 1
483 155 1
483 160 1
483 165 1
483 176 1
483 180 1
483 186 1
483 187 1
483 188 1
483 194 1
483 196 1
483 210 1
483 214 1
483 215 1
483 232 1
483 237 1
483 245 1
483 246 1
483 250 1
483 252 1
483 256 1
483 257 1
483 267 1
483 277 1
483 282 1
483 294 1
483 296 1
483 303 1
483 304 1
483 313 1
483 316 1
483 326 1
483 328 1
483 340 1
483 341 1
483 342 1
483 349 1
483 359 1
483 361 1
483 370 1
483 377 1
483 380 1
483 383 1
483 389 1
483 392 1
483 394 1
483 396 1
483 397 1
483 398 1
483 408 1
483 411 1
483 416 1
483 425 1
483 426 1
483 427 1
483 432 1
483 438 1
483 445 1
483 449 1
483 456 1
483 459 1
483 460 1
483 468 1
483 475 1
483 476 1
483 477 1
483 482 1
483 491 1
483 492 1
483 502 1
483 503 1
483 505 1
483 507 1
483 508 1
483 514 1
483 515 1
483 521 1
483 523 1
483 525 1
483 527 1
483 528 1
483 535 1
483 536 1
483 538 1
483 540 1
483 550 1
483 553 1
483 561 1
483 562 1
483 565 1
483 566 1
483 572 1
483 578 1
483 582 1
483 584 1
483 585 1
483 588 1
483 590 1
483 594 1
483 596 1
483 597 1
484 4 1
484 9 1
484 32 1
484 33 1
484 44 1
484 51 1
484 56 1
484 58 1
484 59 1
484 69 1
484 75 1
484 93 1
484 101 1
484 102 1
484 105 1
484 111 1
484 115 1
484 121 1
484 124 1
484 130 1
484 133 1
484 137 1
484 143 1
484 145 1
484 151 1
484 155 1
484 156 1
484 159 1
484 168 1
484 169 1
484 177 1
484 179 1
484 183 1
484 197 1
484 201 1
484 205 1
484 207 1
484 210 1
484 213 1
484 214 1
484 226 1
484 231 1
484 240 1
484 245 1
484 252 1
484 253 1
484 260 1
484 264 1
484 266 1
484 272 1
484 276 1
484 278 1
484 296 1
484 302 1
484 305 1
484 306 1
484 311 1
484 314 1
484 319 1
484 326 1
484 331 1
484 335 1
484 342 1
484 343 1
484 348 1
484 354 1
484 360 1
484 362 1
484 363 1
484 370 1
484 371 1
484 379 1
484 380 1
484 383 1
484 384 1
484 387 1
484 388 1
484 393 1
484 394 1
484 395 1
484 397 1
484 401 1
484 407 1
484 410 1
484 413 1
484 416 1
484 418 1
484 419 1
484 423 1
484 424 1
484 428 1
484 429 1
484 434 1
484 437 1
484 439 1
484 440 1
484 442 1
484 448 1
484 449 1
484 450 1
484 453 1
484 457 1
484 458 1
484 465 1
484 478 1
484 485 1
484 489 1
484 490 1
484 492 1
484 501 1
484 503 1
484 509 1
484 511 1
484 521 1
484 528 1
484 530 1
484 540 1
484 546 1
484 556 1
484 566 1
484 567 1
484 576 1
484 581 1
484 582 1
484 590 1
484 591 1
484 592 1
484 594 1
484 598 1
485 2 1
485 3 1
485 15 1
485 16 1
485 21 1
485 26 1
485 32 1
485 35 1
485 36 1
485 37 1
485 42 1
485 50 1
485 53 1
485 55 1
485 58 1
485 61 1
485 67 1
485 68 1
485 82 1
485 95 1
485 101 1
485 103 1
485 104 1
485 115 1
485 130 1
485 134 1
485 135 1
485 136 1
485 140 1
485 143 1
485 147 1
485 152 1
485 156 1
485 158 1
485 162 1
485 167 1
485 169 1
485 170 1
485 180 1
485 184 1
485 187 1
485 189 1
485 193 1
485 194 1
485 200 1
485 202 1
485 210 1
485 213 1
485 215 1
485 217 1
485 221 1
485 223 1
485 227 1
485 232 1
485 233 1
485 242 1
485 243 1
485 245 1
485 247 1
485 254 1
485 270 1
485 273 1
485 277 1
485 280 1
485 281 1
485 287 1
485 293 1
485 295 1
485 297 1
485 300 1
485 305 1
485 306 1
485 308 1
485 314 1
485 327 1
485 329 1
485 330 1
485 337 1
485 339 1
485 349 1
485 361 1
485 371 1
485 377 1
485 381 1
485 382 1
485 387 1
485 388 1
485 404 1
485 408 1
485 410 1
485 411 1
485 420 1
485 422 1
485 424 1
485 431 1
485 438 1
485 449 1
485 450 1
485 456 1
485 471 1
485 472 1
485 477 1
485 484 1
485 491 1
485 493 1
485 501 1
485 507 1
485 513 1
485 515 1
485 527 1
485 530 1
485 536 1
485 540 1
485 544 1
485 546 1
485 547 1
485 553 1
485 555 1
485 562 1
485 567 1
485 581 1
485 582 1
485 585 1
485 593 1
485 594 1
485 600 1
486 1 1
486 7 1
486 12 1
486 17 1
486 25 1
486 28 1
486 33 1
486 35 1
486 37 1
486 46 1
486 51 1
486 64 1
486 70 1
486 76 1
486 80 1
486 95 1
486 115 1
486 120 1
486 121 1
486 126 1
486 137 1
486 138 1
486 149 1
486 158 1
486 159 1
486 165 1
486 167 1
486 171 1
486 172 1
486 186 1
486 199 1
486 203 1
486 216 1
486 218 1
486 223 1
486 226 1
486 227 1
486 229 1
486 248 1
486 251 1
486 255 1
486 258 1
486 259 1
486 268 1
486 271 1
486 279 1
486 285 1
486 288 1
486 290 1
486 291 1
486 294 1
486 299 1
486 303 1
486 313 1
486 317 1
486 318 1
486 319 1
486 321 1
486 324 1
486 325 1
486 326 1
486 335 1
486 340 1
486 342 1
486 349 1
486 350 1
486 354 1
486 362 1
486 365 1
486 368 1
486 374 1
486 386 1
486 395 1
486 407 1
486 408 1
486 421 1
486 425 1
486 438 1
486 439 1
486 440 1
486 445 1
486 446 1
486 448 1
486 459 1
486 463 1
486 465 1
486 468 1
486 489 1
486 490 1
486 492 1
486 494 1
486 495 1
486 496 1
486 509 1
486 510 1
486 513 1
486 520 1
486 521 1
486 525 1
486 526 1
486 533 1
486 539 1
486 543 1
486 544 1
486 545 1
486 549 1
486 552 1
486 555 1
486 557 1
486 562 1
487 1 1
487 3 1
487 7 1
487 19 1
487 29 1
487 44 1
487 53 1
487 57 1
487 63 1
487 67 1
487 68 1
487 69 1
487 71 1
487 72 1
487 76 1
487 77 1
487 78 1
487 81 1
487 95 1
487 112 1
487 114 1
487 120 1
487 122 1
487 124 1
487 130 1
487 138 1
487 139 1
487 148 1
487 152 1
487 153 1
487 159 1
487 161 1
487 168 1
487 171 1
487 176 1
487 177 1
487 183 1
487 184 1
487 185 1
487 186 1
487 191 1
487 204 1
487 213 1
487 223 1
487 228 1
487 232 1
487 234 1
487 239 1
487 242 1
487 245 1
487 253 1
487 257 1
487 258 1
487 263 1
487 275 1
487 276 1
487 280 1
487 281 1
487 282 1
487 290 1
487 298 1
487 299 1
487 305 1
487 314 1
487 315 1
487 319 1
487 321 1
487 334 1
487 344 1
487 346 1
487 348 1
487 351 1
487 359 1
487 370 1
487 390 1
487 392 1
487 396 1
487 398 1
487 401 1
487 403 1
487 405 1
487 408 1
487 409 1
487 412 1
487 413 1
487 415 1
487 425 1
487 426 1
487 430 1
487 434 1
487 436 1
487 443 1
487 448 1
487 451 1
487 454 1
487 458 1
487 467 1
487 468 1
487 471 1
487 475 1
487 491 1
487 498 1
487 502 1
487 507 1
487 509 1
487 516 1
487 521 1
487 530 1
487 532 1
487 534 1
487 535 1
487 540 1
487 544 1
487 546 1
487 549 1
487 550 1
487 552 1
487 558 1
487 559 1
487 565 1
487 576 1
487 582 1
487 584 1
487 592 1
487 597 1
487 598 1
488 6 1
488 8 1
488 11 1
488 32 1
488 35 1
488 36 1
488 48 1
488 53 1
488 63 1
488 67 1
488 68 1
488 71 1
488 87 1
488 90 1
488 95 1
488 98 1
488 101 1
488 110 1
488 111 1
488 115 1
488 119 1
488 122 1
488 130 1
488 131 1
488 142 1
488 143 1
488 144 1
488 146 1
488 149 1
488 154 1
488 163 1
488 164 1
488 172 1
488 174 1
488 181 1
488 189 1
488 190 1
488 196 1
488 198 1
488 201 1
488 203 1
488 206 1
488 208 1
488 209 1
488 220 1
488 237 1
488 240 1
488 244 1
488 250 1
488 254 1
488 256 1
488 281 1
488 282 1
488 284 1
488 289 1
488 297 1
488 299 1
488 319 1
488 320 1
488 323 1
488 326 1
488 327 1
488 348 1
488 351 1
488 354 1
488 356 1
488 358 1
488 359 1
488 361 1
488 362 1
488 363 1
488 370 1
488 374 1
488 376 1
488 377 1
488 385 1
488 390 1
488 391 1
488 392 1
488 410 1
488 424 1
488 435 1
488 436 1
488 437 1
488 439 1
488 440 1
488 442 1
488 450 1
488 462 1
488 465 1
488 470 1
488 472 1
488 473 1
488 475 1
488 495 1
488 496 1
488 502 1
488 504 1
488 512 1
488 516 1
488 524 1
488 528 1
488 530 1
488 534 1
488 536 1
488 538 1
488 544 1
488 551 1
488 554 1
488 555 1
488 558 1
488 560 1
488 561 1
488 564 1
488 570 1
488 573 1
488 580 1
488 582 1
488 586 1
488 591 1
488 592 1
488 593 1
489 5 1
489 8 1
489 11 1
489 15 1
489 16 1
489 17 1
489 21 1
489 28 1
489 31 1
489 36 1
489 37 1
489 45 1
489 53 1
489 54 1
489 56 1
489 60 1
489 61 1
489 64 1
489 67 1
489 71 1
489 73 1
489 74 1
489 82 1
489 86 1
489 91 1
489 93 1
489 106 1
489 128 1
489 140 1
489 144 1
489 145 1
489 148 1
489 158 1
489 162 1
489 164 1
489 168 1
489 172 1
489 181 1
489 183 1
489 190 1
489 192 1
489 193 1
489 198 1
489 201 1
489 212 1
489 214 1
489 221 1
489 223 1
489 231 1
489 233 1
489 243 1
489 246 1
489 247 1
489 249 1
489 275 1
489 280 1
489 286 1
489 288 1
489 289 1
489 297 1
489 302 1
489 303 1
489 315 1
489 321 1
489 323 1
489 324 1
489 327 1
489 328 1
489 332 1
489 335 1
489 338 1
489 343 1
489 346 1
489 347 1
489 352 1
489 355 1
489 357 1
489 365 1
489 366 1
489 369 1
489 376 1
489 383 1
489 390 1
489 393 1
489 395 1
489 404 1
489 406 1
489 408 1
489 411 1
489 412 1
489 415 1
489 421 1
489 426 1
489 429 1
489 431 1
489 432 1
489 456 1
489 457 1
489 462 1
489 464 1
489 465 1
489 468 1
489 474 1
489 476 1
489 479 1
489 482 1
489 484 1
489 486 1
489 499 1
489 501 1
489 503 1
489 508 1
489 509 1
489 513 1
489 518 1
489 523 1
489 524 1
489 526 1
489 527 1
489 531 1
489 537 1
489 541 1
489 547 1
489 548 1
489 549 1
489 554 1
489 563 1
489 565 1
489 585 1
489 589 1
490 12 1
490 14 1
490 17 1
490 20 1
490 22 1
490 23 1
490 25 1
490 28 1
490 32 1
490 39 1
490 41 1
490 49 1
490 50 1
490 52 1
490 56 1
490 57 1
490 59 1
490 61 1
490 68 1
490 70 1
490 77 1
490 79 1
490 80 1
490 84 1
490 86 1
490 88 1
490 93 1
490 98 1
490 110 1
490 120 1
490 123 1
490 128 1
490 130 1
490 131 1
490 133 1
490 143 1
490 154 1
490 155 1
490 158 1
490 169 1
490 171 1
490 173 1
490 174 1
490 179 1
490 181 1
490 182 1
490 183 1
490 186 1
490 191 1
490 197 1
490 204 1
490 223 1
490 232 1
490 234 1
490 247 1
490 253 1
490 255 1
490 259 1
490 266 1
490 279 1
490 281 1
490 290 1
490 293 1
490 309 1
490 311 1
490 315 1
490 317 1
490 321 1
490 330 1
490 331 1
490 333 1
490 334 1
490 336 1
490 338 1
490 339 1
490 342 1
490 345 1
490 355 1
490 357 1
490 361 1
490 366 1
490 374 1
490 376 1
490 378 1
490 392 1
490 394 1
490 395 1
490 397 1
490 401 1
490 402 1
490 405 1
490 414 1
490 424 1
490 428 1
490 431 1
490 433 1
490 447 1
490 449 1
490 450 1
490 451 1
490 453 1
490 454 1
490 455 1
490 456 1
490 462 1
490 464 1
490 466 1
490 471 1
490 473 1
490 482 1
490 484 1
490 486 1
490 492 1
490 495 1
490 497 1
490 503 1
490 511 1
490 516 1
490 518 1
490 521 1
490 526 1
490 535 1
490 551 1
490 555 1
490 556 1
490 559 1
490 565 1
490 571 1
490 572 1
490 573 1
490 587 1
490 589 1
490 596 1
490 598 1
490 599 1
491 4 1
491 9 1
491 12 1
491 18 1
491 22 1
491 23 1
491 24 1
491 29 1
491 30 1
491 31 1
491 36 1
491 37 1
491 39 1
491 43 1
491 44 1
491 46 1
491 53 1
491 57 1
491 65 1
491 69 1
491 71 1
491 74 1
491 77 1
491 82 1
491 85 1
491 88 1
491 101 1
491 110 1
491 111 1
491 117 1
491 121 1
491 128 1
491 144 1
491 154 1
491 156 1
491 158 1
491 159 1
491 160 1
491 164 1
491 168 1
491 171 1
491 176 1
491 180 1
491 187 1
491 192 1
491 210 1
491 216 1
491 226 1
491 227 1
491 233 1
491 240 1
491 258 1
491 263 1
491 264 1
491 266 1
491 272 1
491 285 1
491 286 1
491 292 1
491 294 1
491 309 1
491 319 1
491 323 1
491 326 1
491 342 1
491 349 1
491 362 1
491 363 1
491 364 1
491 365 1
491 368 1
491 369 1
491 376 1
491 379 1
491 391 1
491 406 1
491 428 1
491 430 1
491 431 1
491 442 1
491 443 1
491 444 1
491 450 1
491 457 1
491 462 1
491 478 1
491 482 1
491 483 1
491 485 1
491 487 1
491 500 1
491 509 1
491 512 1
491 513 1
491 521 1
491 527 1
491 533 1
491 541 1
491 542 1
491 544 1
491 545 1
491 554 1
491 558 1
491 568 1
491 580 1
491 583 1
491 587 1
491 592 1
491 593 1
492 1 1
492 2 1
492 9 1
492 10 1
492 14 1
492 25 1
492 28 1
492 30 1
492 33 1
492 41 1
492 45 1
492 49 1
492 57 1
492 64 1
492 69 1
492 73 1
492 79 1
492 80 1
492 86 1
492 91 1
492 97 1
492 102 1
492 103 1
492 116 1
492 119 1
492 120 1
492 125 1
492 132 1
492 150 1
492 151 1
492 153 1
492 156 1
492 157 1
492 159 1
492 165 1
492 168 1
492 180 1
492 188 1
492 197 1
492 216 1
492 218 1
492 219 1
492 223 1
492 229 1
492 233 1
492 236 1
492 247 1
492 248 1
492 249 1
492 254 1
492 257 1
492 265 1
492 272 1
492 275 1
492 289 1
492 291 1
492 292 1
492 298 1
492 305 1
492 306 1
492 316 1
492 318 1
492 322 1
492 338 1
492 341 1
492 345 1
492 347 1
492 353 1
492 363 1
492 365 1
492 370 1
492 382 1
492 385 1
492 386 1
492 390 1
492 394 1
492 414 1
492 419 1
492 426 1
492 434 1
492 435 1
492 437 1
492 439 1
492 452 1
492 456 1
492 457 1
492 459 1
492 461 1
492 463 1
492 464 1
492 467 1
492 472 1
492 483 1
492 484 1
492 486 1
492 490 1
492 501 1
492 505 1
492 514 1
492 515 1
492 527 1
492 532 1
492 539 1
492 543 1
492 548 1
492 549 1
492 550 1
492 551 1
492 556 1
492 558 1
492 559 1
492 565 1
492 577 1
492 584 1
492 586 1
492 587 1
492 590 1
492 591 1
492 592 1
493 2 1
493 3 1
493 16 1
493 17 1
493 20 1
493 33 1
493 40 1
493 49 1
493 50 1
493 51 1
493 52 1
493 70 1
493 71 1
493 72 1
493 76 1
493 80 1
493 82 1
493 88 1
493 91 1
493 92 1
493 101 1
493 102 1
493 108 1
493 110 1
493 114 1
493 115 1
493 122 1
493 123 1
493 125 1
493 127 1
493 129 1
493 133 1
493 139 1
493 145 1
493 146 1
493 153 1
493 163 1
493 169 1
493 170 1
493 172 1
493 173 1
493 174 1
493 176 1
493 194 1
493 197 1
493 199 1
493 200 1
493 211 1
493 218 1
493 221 1
493 229 1
493 236 1
493 240 1
493 249 1
493 252 1
493 254 1
493 260 1
493 268 1
493 280 1
493 281 1
493 284 1
493 287 1
493 288 1
493 301 1
493 304 1
493 306 1
493 314 1
493 317 1
493 319 1
493 324 1
493 331 1
493 333 1
493 335 1
493 345 1
493 354 1
493 359 1
493 360 1
493 362 1
493 371 1
493 375 1
493 376 1
493 377 1
493 381 1
493 383 1
493 395 1
493 397 1
493 398 1
493 399 1
493 401 1
493 409 1
493 410 1
493 411 1
493 413 1
493 414 1
493 415 1
493 421 1
493 436 1
493 446 1
493 449 1
493 455 1
493 457 1
493 459 1
493 467 1
493 469 1
493 470 1
493 472 1
493 478 1
493 485 1
493 494 1
493 495 1
493 507 1
493 510 1
493 516 1
493 521 1
493 525 1
493 530 1
493 538 1
493 539 1
493 541 1
493 544 1
493 552 1
493 553 1
493 554 1
493 557 1
493 561 1
493 564 1
493 568 1
493 571 1
493 572 1
493 573 1
493 578 1
493 586 1
493 592 1
493 593 1
493 599 1
494 2 1
494 4 1
494 8 1
494 18 1
494 25 1
494 33 1
494 36 1
494 57 1
494 63 1
494 69 1
494 72 1
494 87 1
494 88 1
494 89 1
494 91 1
494 92 1
494 98 1
494 105 1
494 111 1
494 117 1
494 123 1
494 127 1
494 137 1
494 143 1
494 150 1
494 155 1
494 158 1
494 160 1
494 161 1
494 164 1
494 173 1
494 174 1
494 180 1
494 187 1
494 198 1
494 200 1
494 201 1
494 205 1
494 207 1
494 212 1
494 224 1
494 226 1
494 227 1
494 234 1
494 241 1
494 251 1
494 258 1
494 261 1
494 262 1
494 264 1
494 270 1
494 280 1
494 285 1
494 289 1
494 296 1
494 318 1
494 330 1
494 331 1
494 334 1
494 344 1
494 349 1
494 350 1
494 351 1
494 353 1
494 364 1
494 379 1
494 381 1
494 392 1
494 403 1
494 406 1
494 407 1
494 415 1
494 423 1
494 435 1
494 440 1
494 442 1
494 450 1
494 451 1
494 455 1
494 457 1
494 462 1
494 468 1
494 471 1
494 479 1
494 480 1
494 482 1
494 486 1
494 493 1
494 503 1
494 509 1
494 510 1
494 511 1
494 512 1
494 517 1
494 521 1
494 522 1
494 524 1
494 526 1
494 532 1
494 546 1
494 551 1
494 554 1
494 561 1
494 564 1
494 565 1
494 571 1
494 572 1
494 575 1
494 581 1
494 582 1
495 10 1
495 19 1
495 27 1
495 37 1
495 39 1
495 42 1
495 43 1
495 44 1
495 47 1
495 49 1
495 56 1
495 61 1
495 63 1
495 64 1
495 75 1
495 76 1
495 79 1
495 80 1
495 88 1
495 93 1
495 94 1
495 98 1
495 100 1
495 103 1
495 113 1
495 116 1
495 117 1
495 120 1
495 121 1
495 124 1
495 126 1
495 127 1
495 129 1
495 130 1
495 131 1
495 135 1
495 138 1
495 147 1
495 150 1
495 157 1
495 158 1
495 163 1
495 171 1
495 175 1
495 183 1
495 186 1
495 194 1
495 196 1
495 211 1
495 222 1
495 229 1
495 234 1
495 238 1
495 239 1
495 241 1
495 249 1
495 250 1
495 253 1
495 263 1
495 265 1
495 267 1
495 285 1
495 287 1
495 288 1
495 289 1
495 291 1
495 293 1
495 303 1
495 305 1
495 308 1
495 318 1
495 319 1
495 327 1
495 329 1
495 337 1
495 341 1
495 344 1
495 348 1
495 350 1
495 351 1
495 353 1
495 358 1
495 360 1
495 364 1
495 367 1
495 369 1
495 370 1
495 371 1
495 372 1
495 375 1
495 378 1
495 389 1
495 392 1
495 397 1
495 399 1
495 400 1
495 415 1
495 418 1
495 419 1
495 420 1
495 424 1
495 427 1
495 430 1
495 433 1
495 437 1
495 438 1
495 441 1
495 448 1
495 451 1
495 453 1
495 460 1
495 461 1
495 465 1
495 473 1
495 475 1
495 480 1
495 486 1
495 488 1
495 490 1
495 493 1
495 498 1
495 500 1
495 503 1
495 509 1
495 510 1
495 517 1
495 518 1
495 525 1
495 528 1
495 531 1
495 537 1
495 555 1
495 556 1
495 564 1
495 566 1
495 568 1
495 577 1
495 588 1
495 591 1
495 592 1
495 593 1
495 594 1
495 599 1
496 1 1
496 5 1
496 7 1
496 10 1
496 20 1
496 24 1
496 30 1
496 32 1
496 33 1
496 36 1
496 39 1
496 44 1
496 53 1
496 55 1
496 63 1
496 64 1
496 66 1
496 74 1
496 75 1
496 81 1
496 85 1
496 88 1
496 100 1
496 104 1
496 114 1
496 118 1
496 131 1
496 133 1
496 140 1
496 142 1
496 143 1
496 144 1
496 164 1
496 173 1
496 177 1
496 179 1
496 181 1
496 185 1
496 186 1
496 196 1
496 200 1
496 201 1
496 202 1
496 203 1
496 207 1
496 209 1
496 214 1
496 223 1
496 226 1
496 227 1
496 228 1
496 236 1
496 241 1
496 249 1
496 250 1
496 262 1
496 272 1
496 275 1
496 278 1
496 282 1
496 289 1
496 299 1
496 311 1
496 317 1
496 319 1
496 320 1
496 323 1
496 324 1
496 333 1
496 339 1
496 347 1
496 348 1
496 352 1
496 354 1
496 365 1
496 368 1
496 369 1
496 371 1
496 373 1
496 374 1
496 377 1
496 378 1
496 391 1
496 394 1
496 398 1
496 400 1
496 402 1
496 404 1
496 405 1
496 406 1
496 417 1
496 421 1
496 428 1
496 429 1
496 439 1
496 441 1
496 447 1
496 457 1
496 460 1
496 464 1
496 465 1
496 466 1
496 476 1
496 486 1
496 488 1
496 504 1
496 507 1
496 513 1
496 515 1
496 516 1
496 538 1
496 539 1
496 541 1
496 542 1
496 554 1
496 555 1
496 561 1
496 563 1
496 566 1
496 568 1
496 571 1
496 580 1
496 583 1
496 584 1
496 585 1
496 588 1
496 598 1
496 600 1
497 4 1
497 5 1
497 12 1
497 14 1
497 22 1
497 29 1
497 30 1
497 32 1
497 40 1
497 52 1
497 56 1
497 58 1
497 60 1
497 65 1
497 77 1
497 83 1
497 84 1
497 88 1
497 113 1
497 120 1
497 123 1
497 124 1
497 130 1
497 135 1
497 145 1
497 159 1
497 163 1
497 168 1
497 180 1
497 182 1
497 184 1
497 205 1
497 206 1
497 207 1
497 208 1
497 210 1
497 213 1
497 215 1
497 222 1
497 225 1
497 236 1
497 240 1
497 249 1
497 257 1
497 258 1
497 259 1
497 261 1
497 268 1
497 273 1
497 278 1
497 279 1
497 282 1
497 283 1
497 286 1
497 288 1
497 291 1
497 293 1
497 295 1
497 302 1
497 305 1
497 308 1
497 309 1
497 313 1
497 329 1
497 330 1
497 336 1
497 337 1
497 347 1
497 350 1
497 360 1
497 368 1
497 373 1
497 376 1
497 392 1
497 394 1
497 399 1
497 402 1
497 405 1
497 408 1
497 413 1
497 415 1
497 419 1
497 421 1
497 423 1
497 426 1
497 430 1
497 434 1
497 435 1
497 436 1
497 437 1
497 439 1
497 445 1
497 446 1
497 448 1
497 449 1
497 451 1
497 467 1
497 469 1
497 471 1
497 478 1
497 490 1
497 501 1
497 504 1
497 509 1
497 515 1
497 519 1
497 521 1
497 522 1
497 525 1
497 531 1
497 532 1
497 542 1
497 555 1
497 558 1
497 561 1
497 562 1
497 568 1
497 571 1
497 573 1
497 574 1
497 576 1
497 578 1
497 579 1
497 581 1
497 586 1
497 589 1
497 592 1
497 593 1
498 18 1
498 36 1
498 37 1
498 39 1
498 43 1
498 47 1
498 52 1
498 56 1
498 63 1
498 64 1
498 74 1
498 79 1
498 92 1
498 95 1
498 97 1
498 99 1
498 106 1
498 110 1
498 113 1
498 118 1
498 120 1
498 121 1
498 126 1
498 128 1
498 148 1
498 149 1
498 152 1
498 164 1
498 175 1
498 177 1
498 184 1
498 185 1
498 195 1
498 197 1
498 202 1
498 208 1
498 211 1
498 212 1
498 213 1
498 217 1
498 224 1
498 226 1
498 232 1
498 235 1
498 236 1
498 238 1
498 242 1
498 246 1
498 262 1
498 267 1
498 268 1
498 271 1
498 276 1
498 278 1
498 281 1
498 284 1
498 287 1
498 294 1
498 297 1
498 307 1
498 313 1
498 318 1
498 320 1
498 340 1
498 342 1
498 345 1
498 347 1
498 349 1
498 351 1
498 357 1
498 368 1
498 377 1
498 379 1
498 395 1
498 398 1
498 407 1
498 412 1
498 420 1
498 424 1
498 428 1
498 431 1
498 432 1
498 435 1
498 446 1
498 447 1
498 450 1
498 452 1
498 454 1
498 461 1
498 463 1
498 475 1
498 476 1
498 477 1
498 478 1
498 481 1
498 487 1
498 495 1
498 499 1
498 510 1
498 516 1
498 520 1
498 528 1
498 534 1
498 537 1
498 542 1
498 544 1
498 554 1
498 556 1
498 562 1
498 567 1
498 568 1
498 573 1
498 575 1
498 579 1
498 591 1
498 597 1
498 600 1
499 4 1
499 18 1
499 37 1
499 39 1
499 41 1
499 43 1
499 46 1
499 48 1
499 49 1
499 56 1
499 67 1
499 70 1
499 73 1
499 75 1
499 77 1
499 81 1
499 91 1
499 97 1
499 100 1
499 102 1
499 111 1
499 114 1
499 115 1
499 116 1
499 128 1
499 144 1
499 148 1
499 158 1
499 165 1
499 166 1
499 182 1
499 183 1
499 184 1
499 191 1
499 194 1
499 201 1
499 202 1
499 211 1
499 216 1
499 224 1
499 228 1
499 229 1
499 230 1
499 234 1
499 238 1
499 240 1
499 245 1
499 250 1
499 253 1
499 266 1
499 268 1
499 276 1
499 283 1
499 285 1
499 292 1
499 293 1
499 296 1
499 298 1
499 304 1
499 309 1
499 327 1
499 328 1
499 332 1
499 339 1
499 342 1
499 347 1
499 349 1
499 362 1
499 364 1
499 367 1
499 374 1
499 375 1
499 394 1
499 407 1
499 410 1
499 421 1
499 423 1
499 436 1
499 441 1
499 444 1
499 446 1
499 450 1
499 454 1
499 455 1
499 460 1
499 464 1
499 469 1
499 472 1
499 476 1
499 477 1
499 481 1
499 489 1
499 498 1
499 506 1
499 519 1
499 524 1
499 525 1
499 527 1
499 529 1
499 536 1
499 545 1
499 547 1
499 549 1
499 551 1
499 553 1
499 556 1
499 567 1
499 569 1
499 572 1
499 576 1
499 577 1
499 585 1
499 586 1
499 590 1
499 591 1
499 593 1
499 597 1
500 5 1
500 12 1
500 15 1
500 17 1
500 18 1
500 26 1
500 28 1
500 29 1
500 32 1
500 45 1
500 46 1
500 51 1
500 56 1
500 58 1
500 62 1
500 73 1
500 74 1
500 76 1
500 78 1
500 79 1
500 83 1
500 87 1
500 95 1
500 98 1
500 100 1
500 101 1
500 105 1
500 116 1
500 122 1
500 125 1
500 128 1
500 140 1
500 149 1
500 156 1
500 160 1
500 165 1
500 169 1
500 173 1
500 179 1
500 182 1
500 185 1
500 186 1
500 194 1
500 200 1
500 204 1
500 211 1
500 221 1
500 223 1
500 241 1
500 242 1
500 246 1
500 249 1
500 264 1
500 273 1
500 285 1
500 287 1
500 293 1
500 296 1
500 303 1
500 308 1
500 316 1
500 324 1
500 330 1
500 336 1
500 337 1
500 338 1
500 339 1
500 341 1
500 354 1
500 357 1
500 359 1
500 360 1
500 364 1
500 372 1
500 377 1
500 392 1
500 405 1
500 409 1
500 411 1
500 415 1
500 424 1
500 431 1
500 441 1
500 446 1
500 451 1
500 452 1
500 455 1
500 459 1
500 465 1
500 468 1
500 469 1
500 491 1
500 495 1
500 503 1
500 512 1
500 514 1
500 516 1
500 525 1
500 527 1
500 532 1
500 535 1
500 537 1
500 538 1
500 545 1
500 548 1
500 549 1
500 550 1
500 563 1
500 573 1
500 574 1
500 577 1
500 591 1
500 594 1
500 596 1
500 598 1
500 599 1
501 1 1
501 5 1
501 10 1
501 24 1
501 26 1
501 31 1
501 37 1
501 40 1
501 42 1
501 48 1
501 50 1
501 56 1
501 61 1
501 63 1
501 66 1
501 72 1
501 83 1
501 86 1
501 91 1
501 92 1
501 103 1
501 108 1
501 110 1
501 116 1
501 120 1
501 132 1
501 133 1
501 144 1
501 147 1
501 148 1
501 153 1
501 159 1
501 169 1
501 170 1
501 172 1
501 173 1
501 175 1
501 178 1
501 179 1
501 184 1
501 188 1
501 190 1
501 195 1
501 205 1
501 206 1
501 211 1
501 218 1
501 222 1
501 223 1
501 226 1
501 229 1
501 231 1
501 234 1
501 246 1
501 261 1
501 264 1
501 267 1
501 270 1
501 275 1
501 279 1
501 287 1
501 292 1
501 294 1
501 304 1
501 306 1
501 309 1
501 314 1
501 317 1
501 319 1
501 321 1
501 332 1
501 334 1
501 341 1
501 342 1
501 345 1
501 347 1
501 362 1
501 364 1
501 367 1
501 374 1
501 375 1
501 384 1
501 390 1
501 405 1
501 412 1
501 417 1
501 419 1
501 427 1
501 429 1
501 432 1
501 442 1
501 445 1
501 463 1
501 466 1
501 468 1
501 476 1
501 479 1
501 481 1
501 484 1
501 485 1
501 489 1
501 492 1
501 497 1
501 502 1
501 507 1
501 508 1
501 510 1
501 511 1
501 517 1
501 524 1
501 527 1
501 529 1
501 530 1
501 534 1
501 536 1
501 537 1
501 540 1
501 541 1
501 545 1
501 554 1
501 558 1
501 563 1
501 564 1
501 567 1
501 568 1
501 570 1
501 575 1
501 576 1
501 585 1
501 586 1
501 590 1
501 596 1
502 16 1
502 18 1
502 42 1
502 46 1
502 54 1
502 67 1
502 68 1
502 69 1
502 70 1
502 76 1
502 80 1
502 81 1
502 84 1
502 85 1
502 96 1
502 103 1
502 108 1
502 110 1
502 112 1
502 115 1
502 116 1
502 119 1
502 120 1
502 128 1
502 133 1
502 135 1
502 140 1
502 144 1
502 148 1
502 149 1
502 150 1
502 159 1
502 166 1
502 167 1
502 172 1
502 181 1
502 183 1
502 190 1
502 191 1
502 198 1
502 203 1
502 208 1
502 212 1
502 218 1
502 229 1
502 238 1
502 252 1
502 253 1
502 255 1
502 257 1
502 259 1
502 264 1
502 265 1
502 268 1
502 270 1
502 271 1
502 283 1
502 285 1
502 286 1
502 297 1
502 298 1
502 305 1
502 309 1
502 320 1
502 325 1
502 331 1
502 334 1
502 341 1
502 342 1
502 343 1
502 345 1
502 347 1
502 351 1
502 356 1
502 358 1
502 365 1
502 371 1
502 373 1
502 378 1
502 386 1
502 391 1
502 396 1
502 400 1
502 410 1
502 419 1
502 425 1
502 426 1
502 429 1
502 439 1
502 440 1
502 443 1
502 445 1
502 446 1
502 455 1
502 463 1
502 469 1
502 476 1
502 477 1
502 481 1
502 483 1
502 487 1
502 488 1
502 501 1
502 506 1
502 507 1
502 524 1
502 536 1
502 537 1
502 542 1
502 547 1
502 548 1
502 550 1
502 551 1
502 562 1
502 563 1
502 564 1
502 569 1
502 577 1
502 585 1
502 588 1
502 590 1
503 15 1
503 26 1
503 33 1
503 35 1
503 36 1
503 39 1
503 48 1
503 49 1
503 54 1
503 55 1
503 61 1
503 72 1
503 84 1
503 85 1
503 88 1
503 89 1
503 104 1
503 106 1
503 112 1
503 118 1
503 121 1
503 122 1
503 130 1
503 131 1
503 133 1
503 137 1
503 140 1
503 146 1
503 170 1
503 174 1
503 176 1
503 178 1
503 184 1
503 185 1
503 187 1
503 190 1
503 213 1
503 215 1
503 224 1
503 234 1
503 237 1
503 240 1
503 248 1
503 252 1
503 260 1
503 261 1
503 262 1
503 277 1
503 278 1
503 285 1
503 287 1
503 290 1
503 298 1
503 300 1
503 306 1
503 309 1
503 312 1
503 314 1
503 316 1
503 318 1
503 328 1
503 332 1
503 337 1
503 346 1
503 352 1
503 354 1
503 355 1
503 356 1
503 361 1
503 368 1
503 369 1
503 375 1
503 379 1
503 391 1
503 392 1
503 393 1
503 394 1
503 395 1
503 398 1
503 400 1
503 412 1
503 438 1
503 455 1
503 456 1
503 457 1
503 474 1
503 480 1
503 482 1
503 483 1
503 484 1
503 489 1
503 490 1
503 494 1
503 495 1
503 500 1
503 508 1
503 514 1
503 522 1
503 527 1
503 539 1
503 546 1
503 548 1
503 549 1
503 551 1
503 552 1
503 561 1
503 568 1
503 583 1
503 587 1
503 595 1
504 9 1
504 17 1
504 19 1
504 23 1
504 25 1
504 35 1
504 43 1
504 44 1
504 48 1
504 54 1
504 56 1
504 57 1
504 58 1
504 60 1
504 62 1
504 65 1
504 66 1
504 71 1
504 72 1
504 77 1
504 78 1
504 79 1
504 86 1
504 91 1
504 95 1
504 97 1
504 99 1
504 107 1
504 109 1
504 113 1
504 119 1
504 123 1
504 128 1
504 143 1
504 146 1
504 147 1
504 153 1
504 154 1
504 165 1
504 175 1
504 177 1
504 178 1
504 182 1
504 183 1
504 190 1
504 199 1
504 206 1
504 211 1
504 218 1
504 219 1
504 220 1
504 221 1
504 235 1
504 236 1
504 245 1
504 248 1
504 254 1
504 258 1
504 259 1
504 261 1
504 268 1
504 278 1
504 281 1
504 284 1
504 285 1
504 291 1
504 293 1
504 294 1
504 296 1
504 297 1
504 298 1
504 301 1
504 306 1
504 311 1
504 317 1
504 320 1
504 324 1
504 329 1
504 330 1
504 337 1
504 339 1
504 346 1
504 348 1
504 359 1
504 369 1
504 371 1
504 374 1
504 375 1
504 379 1
504 381 1
504 388 1
504 396 1
504 397 1
504 399 1
504 406 1
504 416 1
504 417 1
504 428 1
504 438 1
504 442 1
504 451 1
504 453 1
504 455 1
504 459 1
504 473 1
504 478 1
504 488 1
504 496 1
504 497 1
504 508 1
504 512 1
504 521 1
504 524 1
504 527 1
504 528 1
504 529 1
504 531 1
504 532 1
504 535 1
504 537 1
504 547 1
504 548 1
504 553 1
504 556 1
504 558 1
504 559 1
504 562 1
504 564 1
504 567 1
504 573 1
504 575 1
504 579 1
504 580 1
504 581 1
504 584 1
504 586 1
504 592 1
504 593 1
505 2 1
505 4 1
505 9 1
505 10 1
505 13 1
505 19 1
505 29 1
505 30 1
505 31 1
505 39 1
505 51 1
505 63 1
505 74 1
505 78 1
505 82 1
505 85 1
505 86 1
505 89 1
505 96 1
505 100 1
505 103 1
505 126 1
505 129 1
505 134 1
505 135 1
505 145 1
505 151 1
505 154 1
505 156 1
505 157 1
505 168 1
505 170 1
505 179 1
505 181 1
505 184 1
505 186 1
505 187 1
505 193 1
505 200 1
505 202 1
505 213 1
505 215 1
505 217 1
505 218 1
505 221 1
505 222 1
505 227 1
505 228 1
505 229 1
505 230 1
505 232 1
505 239 1
505 243 1
505 246 1
505 248 1
505 249 1
505 252 1
505 260 1
505 264 1
505 275 1
505 283 1
505 287 1
505 294 1
505 296 1
505 297 1
505 299 1
505 301 1
505 302 1
505 304 1
505 314 1
505 317 1
505 322 1
505 328 1
505 344 1
505 346 1
505 352 1
505 353 1
505 358 1
505 368 1
505 369 1
505 372 1
505 379 1
505 387 1
505 402 1
505 405 1
505 407 1
505 411 1
505 412 1
505 429 1
505 434 1
505 435 1
505 438 1
505 446 1
505 449 1
505 452 1
505 454 1
505 459 1
505 461 1
505 462 1
505 468 1
505 473 1
505 477 1
505 483 1
505 492 1
505 506 1
505 507 1
505 519 1
505 551 1
505 554 1
505 563 1
505 571 1
505 574 1
505 576 1
505 578 1
505 579 1
505 581 1
505 582 1
505 583 1
505 586 1
505 590 1
505 598 1
505 599 1
506 9 1
506 11 1
506 12 1
506 34 1
506 38 1
506 42 1
506 52 1
506 53 1
506 56 1
506 59 1
506 60 1
506 61 1
506 65 1
506 66 1
506 76 1
506 78 1
506 87 1
506 89 1
506 91 1
506 95 1
506 97 1
506 98 1
506 105 1
506 106 1
506 109 1
506 123 1
506 126 1
506 130 1
506 132 1
506 137 1
506 141 1
506 148 1
506 150 1
506 167 1
506 169 1
506 172 1
506 206 1
506 210 1
506 217 1
506 228 1
506 233 1
506 235 1
506 236 1
506 238 1
506 239 1
506 251 1
506 258 1
506 262 1
506 266 1
506 272 1
506 280 1
506 283 1
506 286 1
506 300 1
506 305 1
506 308 1
506 310 1
506 314 1
506 315 1
506 320 1
506 327 1
506 330 1
506 332 1
506 343 1
506 345 1
506 359 1
506 362 1
506 363 1
506 365 1
506 374 1
506 377 1
506 380 1
506 381 1
506 382 1
506 383 1
506 384 1
506 386 1
506 393 1
506 396 1
506 404 1
506 406 1
506 412 1
506 416 1
506 423 1
506 431 1
506 442 1
506 445 1
506 448 1
506 452 1
506 455 1
506 461 1
506 471 1
506 472 1
506 474 1
506 478 1
506 481 1
506 499 1
506 502 1
506 505 1
506 507 1
506 519 1
506 528 1
506 533 1
506 539 1
506 540 1
506 544 1
506 546 1
506 547 1
506 553 1
506 555 1
506 566 1
506 567 1
506 569 1
506 586 1
506 590 1
506 596 1
506 598 1
507 3 1
507 6 1
507 13 1
507 14 1
507 20 1
507 22 1
507 24 1
507 35 1
507 47 1
507 53 1
507 54 1
507 55 1
507 56 1
507 68 1
507 73 1
507 75 1
507 77 1
507 78 1
507 86 1
507 88 1
507 94 1
507 96 1
507 103 1
507 107 1
507 117 1
507 121 1
507 123 1
507 128 1
507 131 1
507 135 1
507 136 1
507 137 1
507 146 1
507 158 1
507 162 1
507 167 1
507 171 1
507 176 1
507 181 1
507 182 1
507 196 1
507 202 1
507 214 1
507 216 1
507 219 1
507 225 1
507 226 1
507 236 1
507 237 1
507 240 1
507 253 1
507 258 1
507 259 1
507 261 1
507 262 1
507 265 1
507 266 1
507 269 1
507 275 1
507 276 1
507 280 1
507 285 1
507 291 1
507 296 1
507 305 1
507 308 1
507 311 1
507 317 1
507 325 1
507 328 1
507 333 1
507 336 1
507 337 1
507 338 1
507 350 1
507 351 1
507 352 1
507 354 1
507 369 1
507 371 1
507 378 1
507 379 1
507 385 1
507 387 1
507 390 1
507 391 1
507 394 1
507 397 1
507 402 1
507 418 1
507 421 1
507 432 1
507 445 1
507 466 1
507 470 1
507 471 1
507 472 1
507 474 1
507 478 1
507 483 1
507 485 1
507 487 1
507 493 1
507 496 1
507 501 1
507 502 1
507 505 1
507 506 1
507 509 1
507 521 1
507 524 1
507 526 1
507 528 1
507 531 1
507 534 1
507 542 1
507 547 1
507 552 1
507 558 1
507 564 1
507 567 1
507 568 1
507 572 1
507 573 1
507 574 1
507 575 1
507 582 1
507 585 1
507 587 1
507 590 1
507 598 1
507 599 1
508 4 1
508 8 1
508 13 1
508 15 1
508 18 1
508 20 1
508 21 1
508 30 1
508 43 1
508 47 1
508 56 1
508 59 1
508 63 1
508 65 1
508 76 1
508 82 1
508 88 1
508 94 1
508 99 1
508 104 1
508 114 1
508 116 1
508 117 1
508 118 1
508 126 1
508 134 1
508 135 1
508 136 1
508 137 1
508 140 1
508 150 1
508 156 1
508 164 1
508 166 1
508 171 1
508 175 1
508 179 1
508 181 1
508 196 1
508 201 1
508 204 1
508 210 1
508 215 1
508 226 1
508 235 1
508 236 1
508 237 1
508 246 1
508 247 1
508 248 1
508 257 1
508 267 1
508 270 1
508 278 1
508 292 1
508 293 1
508 299 1
508 301 1
508 307 1
508 309 1
508 316 1
508 321 1
508 322 1
508 336 1
508 337 1
508 342 1
508 344 1
508 364 1
508 375 1
508 377 1
508 388 1
508 393 1
508 395 1
508 405 1
508 406 1
508 408 1
508 412 1
508 422 1
508 423 1
508 424 1
508 442 1
508 447 1
508 451 1
508 464 1
508 469 1
508 470 1
508 476 1
508 483 1
508 489 1
508 501 1
508 503 1
508 504 1
508 511 1
508 514 1
508 517 1
508 518 1
508 524 1
508 529 1
508 531 1
508 532 1
508 539 1
508 552 1
508 554 1
508 556 1
508 561 1
508 564 1
508 577 1
508 582 1
508 584 1
508 587 1
508 588 1
508 591 1
508 598 1
508 600 1
509 8 1
509 24 1
509 26 1
509 29 1
509 31 1
509 33 1
509 35 1
509 46 1
509 49 1
509 53 1
509 55 1
509 57 1
509 60 1
509 68 1
509 72 1
509 73 1
509 75 1
509 82 1
509 87 1
509 90 1
509 98 1
509 101 1
509 102 1
509 104 1
509 105 1
509 115 1
509 122 1
509 124 1
509 132 1
509 138 1
509 139 1
509 140 1
509 151 1
509 156 1
509 159 1
509 166 1
509 171 1
509 173 1
509 189 1
509 191 1
509 195 1
509 202 1
509 204 1
509 206 1
509 208 1
509 210 1
509 214 1
509 218 1
509 235 1
509 252 1
509 265 1
509 268 1
509 269 1
509 280 1
509 294 1
509 296 1
509 297 1
509 304 1
509 308 1
509 310 1
509 311 1
509 312 1
509 313 1
509 323 1
509 337 1
509 345 1
509 350 1
509 360 1
509 361 1
509 378 1
509 392 1
509 397 1
509 401 1
509 404 1
509 408 1
509 412 1
509 423 1
509 427 1
509 428 1
509 429 1
509 432 1
509 436 1
509 438 1
509 445 1
509 451 1
509 452 1
509 453 1
509 454 1
509 470 1
509 471 1
509 473 1
509 482 1
509 484 1
509 486 1
509 487 1
509 489 1
509 491 1
509 494 1
509 495 1
509 497 1
509 507 1
509 512 1
509 517 1
509 530 1
509 534 1
509 559 1
509 569 1
509 571 1
509 572 1
509 575 1
509 579 1
509 582 1
509 588 1
510 2 1
510 4 1
510 18 1
510 20 1
510 23 1
510 29 1
510 30 1
510 31 1
510 32 1
510 44 1
510 47 1
510 48 1
510 50 1
510 56 1
510 63 1
510 65 1
510 67 1
510 72 1
510 73 1
510 75 1
510 79 1
510 82 1
510 83 1
510 93 1
510 94 1
510 113 1
510 125 1
510 128 1
510 131 1
510 132 1
510 137 1
510 138 1
510 141 1
510 149 1
510 152 1
510 165 1
510 175 1
510 178 1
510 179 1
510 180 1
510 191 1
510 194 1
510 196 1
510 206 1
510 211 1
510 214 1
510 222 1
510 225 1
510 229 1
510 232 1
510 236 1
510 242 1
510 252 1
510 258 1
510 261 1
510 264 1
510 267 1
510 273 1
510 274 1
510 291 1
510 294 1
510 297 1
510 301 1
510 308 1
510 310 1
510 314 1
510 325 1
510 327 1
510 335 1
510 338 1
510 353 1
510 360 1
510 366 1
510 372 1
510 377 1
510 383 1
510 384 1
510 391 1
510 400 1
510 402 1
510 403 1
510 407 1
510 408 1
510 416 1
510 433 1
510 435 1
510 441 1
510 448 1
510 449 1
510 451 1
510 461 1
510 462 1
510 464 1
510 465 1
510 472 1
510 473 1
510 478 1
510 481 1
510 482 1
510 486 1
510 493 1
510 494 1
510 495 1
510 498 1
510 501 1
510 512 1
510 514 1
510 521 1
510 530 1
510 544 1
510 550 1
510 552 1
510 555 1
510 556 1
510 557 1
510 565 1
510 569 1
510 573 1
510 574 1
510 579 1
510 581 1
510 584 1
510 592 1
510 599 1
511 5 1
511 7 1
511 11 1
511 17 1
511 21 1
511 22 1
511 23 1
511 26 1
511 35 1
511 39 1
511 44 1
511 48 1
511 51 1
511 60 1
511 64 1
511 74 1
511 76 1
511 89 1
511 90 1
511 98 1
511 102 1
511 105 1
511 108 1
511 127 1
511 128 1
511 130 1
511 136 1
511 138 1
511 146 1
511 147 1
511 149 1
511 156 1
511 160 1
511 171 1
511 197 1
511 202 1
511 203 1
511 204 1
511 206 1
511 207 1
511 211 1
511 212 1
511 219 1
511 227 1
511 228 1
511 229 1
511 240 1
511 242 1
511 245 1
511 248 1
511 252 1
511 254 1
511 255 1
511 258 1
511 262 1
511 265 1
511 268 1
511 275 1
511 282 1
511 288 1
511 296 1
511 299 1
511 301 1
511 302 1
511 305 1
511 311 1
511 318 1
511 320 1
511 325 1
511 327 1
511 331 1
511 340 1
511 342 1
511 359 1
511 365 1
511 367 1
511 369 1
511 370 1
511 372 1
511 381 1
511 382 1
511 389 1
511 391 1
511 397 1
511 398 1
511 400 1
511 412 1
511 413 1
511 415 1
511 418 1
511 419 1
511 421 1
511 423 1
511 428 1
511 430 1
511 435 1
511 442 1
511 449 1
511 450 1
511 452 1
511 453 1
511 455 1
511 456 1
511 457 1
511 466 1
511 475 1
511 480 1
511 484 1
511 490 1
511 494 1
511 501 1
511 508 1
511 522 1
511 530 1
511 538 1
511 551 1
511 562 1
511 564 1
511 567 1
511 569 1
511 573 1
511 575 1
511 580 1
511 581 1
511 583 1
511 585 1
511 595 1
512 6 1
512 9 1
512 10 1
512 19 1
512 24 1
512 39 1
512 44 1
512 55 1
512 59 1
512 61 1
512 68 1
512 74 1
512 77 1
512 81 1
512 84 1
512 85 1
512 89 1
512 97 1
512 99 1
512 103 1
512 104 1
512 112 1
512 122 1
512 129 1
512 147 1
512 150 1
512 160 1
512 162 1
512 165 1
512 168 1
512 178 1
512 182 1
512 186 1
512 194 1
512 198 1
512 202 1
512 204 1
512 208 1
512 214 1
512 236 1
512 240 1
512 246 1
512 255 1
512 274 1
512 278 1
512 280 1
512 287 1
512 291 1
512 293 1
512 295 1
512 322 1
512 324 1
512 339 1
512 341 1
512 343 1
512 345 1
512 346 1
512 349 1
512 364 1
512 368 1
512 371 1
512 372 1
512 375 1
512 376 1
512 381 1
512 383 1
512 386 1
512 397 1
512 425 1
512 426 1
512 433 1
512 439 1
512 444 1
512 448 1
512 453 1
512 454 1
512 460 1
512 465 1
512 470 1
512 481 1
512 488 1
512 491 1
512 494 1
512 500 1
512 504 1
512 509 1
512 510 1
512 517 1
512 521 1
512 524 1
512 527 1
512 533 1
512 534 1
512 537 1
512 538 1
512 545 1
512 548 1
512 555 1
512 556 1
512 557 1
512 559 1
512 562 1
512 575 1
512 576 1
512 596 1
512 599 1
513 5 1
513 12 1
513 15 1
513 25 1
513 31 1
513 36 1
513 46 1
513 49 1
513 53 1
513 55 1
513 60 1
513 61 1
513 64 1
513 70 1
513 71 1
513 75 1
513 83 1
513 84 1
513 87 1
513 94 1
513 100 1
513 106 1
513 117 1
513 118 1
513 129 1
513 135 1
513 137 1
513 142 1
513 152 1
513 156 1
513 161 1
513 168 1
513 175 1
513 178 1
513 179 1
513 184 1
513 203 1
513 205 1
513 207 1
513 209 1
513 214 1
513 215 1
513 217 1
513 218 1
513 231 1
513 240 1
513 241 1
513 244 1
513 248 1
513 251 1
513 254 1
513 258 1
513 263 1
513 265 1
513 270 1
513 275 1
513 277 1
513 284 1
513 285 1
513 291 1
513 299 1
513 311 1
513 313 1
513 319 1
513 320 1
513 335 1
513 336 1
513 341 1
513 342 1
513 343 1
513 363 1
513 378 1
513 379 1
513 383 1
513 386 1
513 391 1
513 398 1
513 399 1
513 407 1
513 433 1
513 438 1
513 440 1
513 443 1
513 450 1
513 460 1
513 462 1
513 464 1
513 465 1
513 468 1
513 471 1
513 475 1
513 476 1
513 479 1
513 485 1
513 486 1
513 489 1
513 491 1
513 496 1
513 516 1
513 521 1
513 532 1
513 540 1
513 543 1
513 547 1
513 553 1
513 575 1
513 577 1
513 583 1
513 584 1
513 590 1
513 600 1
514 5 1
514 6 1
514 12 1
514 15 1
514 21 1
514 23 1
514 27 1
514 50 1
514 58 1
514 62 1
514 68 1
514 70 1
514 75 1
514 81 1
514 84 1
514 86 1
514 89 1
514 93 1
514 101 1
514 108 1
514 114 1
514 118 1
514 128 1
514 133 1
514 134 1
514 139 1
514 141 1
514 143 1
514 144 1
514 148 1
514 150 1
514 154 1
514 166 1
514 174 1
514 175 1
514 176 1
514 178 1
514 183 1
514 193 1
514 195 1
514 198 1
514 200 1
514 211 1
514 212 1
514 215 1
514 223 1
514 227 1
514 229 1
514 234 1
514 247 1
514 252 1
514 258 1
514 271 1
514 285 1
514 289 1
514 290 1
514 291 1
514 293 1
514 294 1
514 299 1
514 304 1
514 313 1
514 316 1
514 323 1
514 324 1
514 325 1
514 331 1
514 332 1
514 335 1
514 349 1
514 356 1
514 363 1
514 369 1
514 374 1
514 376 1
514 377 1
514 387 1
514 390 1
514 393 1
514 408 1
514 410 1
514 411 1
514 413 1
514 433 1
514 435 1
514 436 1
514 440 1
514 442 1
514 448 1
514 450 1
514 453 1
514 454 1
514 462 1
514 467 1
514 470 1
514 472 1
514 474 1
514 481 1
514 483 1
514 492 1
514 500 1
514 503 1
514 508 1
514 510 1
514 524 1
514 536 1
514 539 1
514 542 1
514 544 1
514 548 1
514 555 1
514 557 1
514 564 1
514 566 1
514 570 1
514 573 1
514 577 1
514 579 1
514 580 1
514 588 1
514 592 1
515 3 1
515 9 1
515 10 1
515 12 1
515 24 1
515 29 1
515 32 1
515 38 1
515 42 1
515 43 1
515 49 1
515 54 1
515 61 1
515 66 1
515 83 1
515 86 1
515 94 1
515 96 1
515 98 1
515 107 1
515 108 1
515 113 1
515 119 1
515 121 1
515 125 1
515 131 1
515 133 1
515 138 1
515 140 1
515 142 1
515 147 1
515 148 1
515 154 1
515 166 1
515 169 1
515 173 1
515 189 1
515 194 1
515 195 1
515 196 1
515 201 1
515 211 1
515 214 1
515 233 1
515 243 1
515 251 1
515 266 1
515 275 1
515 279 1
515 280 1
515 284 1
515 286 1
515 287 1
515 289 1
515 290 1
515 297 1
515 298 1
515 302 1
515 303 1
515 314 1
515 315 1
515 317 1
515 328 1
515 330 1
515 349 1
515 351 1
515 358 1
515 365 1
515 367 1
515 370 1
515 374 1
515 386 1
515 388 1
515 391 1
515 397 1
515 401 1
515 406 1
515 415 1
515 422 1
515 424 1
515 431 1
515 434 1
515 437 1
515 440 1
515 441 1
515 445 1
515 446 1
515 450 1
515 454 1
515 459 1
515 464 1
515 470 1
515 478 1
515 479 1
515 481 1
515 483 1
515 485 1
515 492 1
515 496 1
515 497 1
515 519 1
515 521 1
515 524 1
515 525 1
515 527 1
515 535 1
515 557 1
515 559 1
515 562 1
515 564 1
515 567 1
515 580 1
515 590 1
515 596 1
516 3 1
516 6 1
516 9 1
516 15 1
516 23 1
516 25 1
516 34 1
516 35 1
516 43 1
516 47 1
516 53 1
516 54 1
516 56 1
516 57 1
516 61 1
516 72 1
516 73 1
516 75 1
516 79 1
516 82 1
516 83 1
516 87 1
516 89 1
516 95 1
516 99 1
516 106 1
516 107 1
516 108 1
516 111 1
516 126 1
516 134 1
516 136 1
516 141 1
516 149 1
516 157 1
516 166 1
516 171 1
516 177 1
516 178 1
516 180 1
516 190 1
516 211 1
516 217 1
516 223 1
516 225 1
516 227 1
516 242 1
516 245 1
516 250 1
516 251 1
516 257 1
516 263 1
516 277 1
516 279 1
516 281 1
516 287 1
516 293 1
516 294 1
516 295 1
516 298 1
516 299 1
516 300 1
516 302 1
516 304 1
516 311 1
516 312 1
516 321 1
516 327 1
516 350 1
516 353 1
516 355 1
516 358 1
516 360 1
516 362 1
516 365 1
516 371 1
516 378 1
516 384 1
516 385 1
516 389 1
516 390 1
516 392 1
516 396 1
516 400 1
516 417 1
516 419 1
516 420 1
516 427 1
516 441 1
516 442 1
516 444 1
516 445 1
516 447 1
516 455 1
516 456 1
516 462 1
516 464 1
516 473 1
516 475 1
516 479 1
516 487 1
516 488 1
516 490 1
516 493 1
516 496 1
516 498 1
516 500 1
516 513 1
516 523 1
516 525 1
516 534 1
516 537 1
516 540 1
516 554 1
516 567 1
516 576 1
516 581 1
516 600 1
517 2 1
517 4 1
517 13 1
517 15 1
517 16 1
517 19 1
517 22 1
517 26 1
517 27 1
517 29 1
517 35 1
517 38 1
517 47 1
517 49 1
517 59 1
517 70 1
517 72 1
517 81 1
517 97 1
517 98 1
517 102 1
517 103 1
517 104 1
517 105 1
517 108 1
517 126 1
517 131 1
517 152 1
517 160 1
517 163 1
517 166 1
517 168 1
517 170 1
517 177 1
517 180 1
517 183 1
517 186 1
517 190 1
517 195 1
517 198 1
517 206 1
517 215 1
517 216 1
517 217 1
517 223 1
517 225 1
517 229 1
517 231 1
517 239 1
517 242 1
517 243 1
517 246 1
517 251 1
517 258 1
517 283 1
517 284 1
517 288 1
517 298 1
517 302 1
517 309 1
517 314 1
517 319 1
517 326 1
517 327 1
517 330 1
517 336 1
517 346 1
517 348 1
517 351 1
517 356 1
517 359 1
517 361 1
517 366 1
517 378 1
517 388 1
517 415 1
517 424 1
517 431 1
517 437 1
517 438 1
517 446 1
517 455 1
517 460 1
517 464 1
517 470 1
517 477 1
517 478 1
517 494 1
517 495 1
517 501 1
517 508 1
517 509 1
517 512 1
517 528 1
517 530 1
517 532 1
517 536 1
517 537 1
517 543 1
517 553 1
517 554 1
517 555 1
517 560 1
517 567 1
517 570 1
517 581 1
517 583 1
518 11 1
518 25 1
518 29 1
518 40 1
518 51 1
518 60 1
518 65 1
518 66 1
518 67 1
518 74 1
518 75 1
518 77 1
518 78 1
518 80 1
518 81 1
518 87 1
518 91 1
518 102 1
518 103 1
518 104 1
518 105 1
518 108 1
518 111 1
518 118 1
518 122 1
518 131 1
518 132 1
518 135 1
518 139 1
518 141 1
518 148 1
518 151 1
518 154 1
518 155 1
518 167 1
518 169 1
518 173 1
518 174 1
518 183 1
518 191 1
518 192 1
518 196 1
518 197 1
518 205 1
518 207 1
518 209 1
518 218 1
518 220 1
518 223 1
518 224 1
518 227 1
518 236 1
518 238 1
518 240 1
518 255 1
518 262 1
518 264 1
518 267 1
518 272 1
518 274 1
518 278 1
518 283 1
518 285 1
518 296 1
518 300 1
518 305 1
518 307 1
518 323 1
518 324 1
518 325 1
518 329 1
518 330 1
518 331 1
518 337 1
518 338 1
518 339 1
518 343 1
518 349 1
518 357 1
518 358 1
518 361 1
518 363 1
518 366 1
518 369 1
518 371 1
518 375 1
518 380 1
518 395 1
518 408 1
518 422 1
518 423 1
518 429 1
518 441 1
518 444 1
518 447 1
518 449 1
518 459 1
518 464 1
518 470 1
518 472 1
518 479 1
518 482 1
518 489 1
518 490 1
518 495 1
518 508 1
518 526 1
518 542 1
518 545 1
518 546 1
518 561 1
518 571 1
518 575 1
518 585 1
518 588 1
518 589 1
518 590 1
518 591 1
518 600 1
519 4 1
519 7 1
519 13 1
519 17 1
519 19 1
519 26 1
519 30 1
519 35 1
519 36 1
519 50 1
519 53 1
519 58 1
519 69 1
519 71 1
519 78 1
519 80 1
519 81 1
519 83 1
519 84 1
519 88 1
519 96 1
519 104 1
519 115 1
519 120 1
519 122 1
519 127 1
519 130 1
519 132 1
519 149 1
519 150 1
519 159 1
519 160 1
519 177 1
519 183 1
519 185 1
519 190 1
519 191 1
519 193 1
519 197 1
519 200 1
519 203 1
519 212 1
519 215 1
519 216 1
519 218 1
519 222 1
519 224 1
519 233 1
519 234 1
519 249 1
519 250 1
519 261 1
519 270 1
519 276 1
519 282 1
519 291 1
519 293 1
519 297 1
519 298 1
519 306 1
519 318 1
519 319 1
519 324 1
519 330 1
519 331 1
519 346 1
519 355 1
519 356 1
519 367 1
519 368 1
519 371 1
519 384 1
519 386 1
519 391 1
519 402 1
519 404 1
519 409 1
519 411 1
519 420 1
519 423 1
519 425 1
519 434 1
519 441 1
519 461 1
519 469 1
519 471 1
519 474 1
519 478 1
519 481 1
519 482 1
519 497 1
519 499 1
519 505 1
519 506 1
519 515 1
519 523 1
519 528 1
519 529 1
519 534 1
519 536 1
519 543 1
519 544 1
519 549 1
519 564 1
519 569 1
519 570 1
519 577 1
519 579 1
519 582 1
519 586 1
519 589 1
519 591 1
520 2 1
520 3 1
520 5 1
520 7 1
520 15 1
520 16 1
520 18 1
520 19 1
520 20 1
520 23 1
520 30 1
520 31 1
520 32 1
520 42 1
520 43 1
520 45 1
520 46 1
520 47 1
520 56 1
520 58 1
520 63 1
520 65 1
520 70 1
520 71 1
520 76 1
520 79 1
520 83 1
520 88 1
520 93 1
520 104 1
520 107 1
520 121 1
520 123 1
520 129 1
520 131 1
520 140 1
520 141 1
520 144 1
520 145 1
520 146 1
520 148 1
520 156 1
520 157 1
520 163 1
520 165 1
520 170 1
520 173 1
520 175 1
520 177 1
520 178 1
520 182 1
520 183 1
520 189 1
520 193 1
520 197 1
520 201 1
520 208 1
520 210 1
520 213 1
520 224 1
520 225 1
520 227 1
520 242 1
520 244 1
520 246 1
520 248 1
520 249 1
520 251 1
520 258 1
520 269 1
520 275 1
520 276 1
520 280 1
520 281 1
520 282 1
520 284 1
520 286 1
520 295 1
520 296 1
520 303 1
520 312 1
520 320 1
520 333 1
520 341 1
520 347 1
520 348 1
520 353 1
520 357 1
520 361 1
520 362 1
520 364 1
520 371 1
520 380 1
520 382 1
520 383 1
520 389 1
520 404 1
520 405 1
520 408 1
520 413 1
520 423 1
520 424 1
520 432 1
520 444 1
520 445 1
520 448 1
520 449 1
520 466 1
520 470 1
520 471 1
520 486 1
520 498 1
520 522 1
520 527 1
520 529 1
520 535 1
520 540 1
520 544 1
520 546 1
520 548 1
520 553 1
520 556 1
520 557 1
520 560 1
520 563 1
520 569 1
520 571 1
520 575 1
520 576 1
520 577 1
520 585 1
520 590 1
520 592 1
520 593 1
520 596 1
520 599 1
521 8 1
521 10 1
521 17 1
521 20 1
521 25 1
521 33 1
521 42 1
521 44 1
521 45 1
521 48 1
521 49 1
521 60 1
521 62 1
521 63 1
521 82 1
521 87 1
521 88 1
521 106 1
521 119 1
521 128 1
521 132 1
521 139 1
521 142 1
521 143 1
521 155 1
521 162 1
521 167 1
521 168 1
521 172 1
521 179 1
521 180 1
521 183 1
521 193 1
521 199 1
521 200 1
521 204 1
521 209 1
521 210 1
521 212 1
521 213 1
521 220 1
521 229 1
521 236 1
521 239 1
521 242 1
521 253 1
521 258 1
521 264 1
521 265 1
521 270 1
521 273 1
521 284 1
521 288 1
521 289 1
521 290 1
521 291 1
521 296 1
521 300 1
521 305 1
521 312 1
521 313 1
521 314 1
521 318 1
521 324 1
521 331 1
521 375 1
521 381 1
521 382 1
521 385 1
521 386 1
521 387 1
521 390 1
521 405 1
521 422 1
521 423 1
521 430 1
521 432 1
521 433 1
521 435 1
521 440 1
521 441 1
521 447 1
521 449 1
521 450 1
521 454 1
521 457 1
521 463 1
521 466 1
521 467 1
521 471 1
521 472 1
521 474 1
521 479 1
521 480 1
521 482 1
521 483 1
521 484 1
521 486 1
521 487 1
521 490 1
521 491 1
521 493 1
521 494 1
521 497 1
521 504 1
521 507 1
521 510 1
521 512 1
521 513 1
521 515 1
521 523 1
521 524 1
521 525 1
521 531 1
521 532 1
521 535 1
521 536 1
521 538 1
521 551 1
521 552 1
521 554 1
521 557 1
521 567 1
521 568 1
521 580 1
521 581 1
521 584 1
521 585 1
521 589 1
521 591 1
521 595 1
521 599 1
521 600 1
522 31 1
522 32 1
522 36 1
522 39 1
522 46 1
522 50 1
522 61 1
522 63 1
522 64 1
522 71 1
522 88 1
522 93 1
522 95 1
522 98 1
522 101 1
522 102 1
522 108 1
522 119 1
522 126 1
522 135 1
522 141 1
522 146 1
522 152 1
522 154 1
522 157 1
522 159 1
522 166 1
522 168 1
522 170 1
522 173 1
522 182 1
522 184 1
522 188 1
522 191 1
522 193 1
522 195 1
522 198 1
522 206 1
522 213 1
522 215 1
522 217 1
522 221 1
522 225 1
522 232 1
522 235 1
522 239 1
522 240 1
522 241 1
522 243 1
522 250 1
522 258 1
522 260 1
522 264 1
522 271 1
522 280 1
522 281 1
522 283 1
522 289 1
522 290 1
522 291 1
522 297 1
522 304 1
522 309 1
522 313 1
522 319 1
522 320 1
522 324 1
522 327 1
522 330 1
522 332 1
522 333 1
522 335 1
522 338 1
522 339 1
522 340 1
522 347 1
522 348 1
522 351 1
522 361 1
522 380 1
522 392 1
522 393 1
522 409 1
522 413 1
522 417 1
522 428 1
522 434 1
522 449 1
522 451 1
522 481 1
522 494 1
522 497 1
522 503 1
522 511 1
522 520 1
522 525 1
522 537 1
522 539 1
522 540 1
522 543 1
522 550 1
522 552 1
522 553 1
522 555 1
522 556 1
522 558 1
522 568 1
522 570 1
522 575 1
522 577 1
522 578 1
522 582 1
522 584 1
522 590 1
522 600 1
523 5 1
523 7 1
523 8 1
523 12 1
523 15 1
523 28 1
523 35 1
523 42 1
523 44 1
523 45 1
523 49 1
523 51 1
523 54 1
523 60 1
523 78 1
523 84 1
523 87 1
523 90 1
523 97 1
523 103 1
523 107 1
523 121 1
523 126 1
523 142 1
523 145 1
523 147 1
523 149 1
523 152 1
523 153 1
523 156 1
523 164 1
523 167 1
523 169 1
523 189 1
523 190 1
523 194 1
523 195 1
523 197 1
523 210 1
523 221 1
523 222 1
523 231 1
523 235 1
523 237 1
523 239 1
523 240 1
523 247 1
523 253 1
523 257 1
523 262 1
523 265 1
523 266 1
523 273 1
523 276 1
523 280 1
523 282 1
523 286 1
523 292 1
523 293 1
523 299 1
523 302 1
523 303 1
523 308 1
523 312 1
523 315 1
523 331 1
523 348 1
523 359 1
523 365 1
523 373 1
523 381 1
523 382 1
523 383 1
523 388 1
523 389 1
523 395 1
523 400 1
523 420 1
523 423 1
523 425 1
523 427 1
523 442 1
523 456 1
523 466 1
523 477 1
523 479 1
523 482 1
523 483 1
523 489 1
523 516 1
523 519 1
523 521 1
523 533 1
523 535 1
523 537 1
523 540 1
523 544 1
523 545 1
523 548 1
523 556 1
523 558 1
523 559 1
523 560 1
523 561 1
523 566 1
523 573 1
523 578 1
523 580 1
523 582 1
523 585 1
523 587 1
523 594 1
523 595 1
523 596 1
524 3 1
524 11 1
524 13 1
524 14 1
524 15 1
524 19 1
524 20 1
524 24 1
524 37 1
524 39 1
524 42 1
524 45 1
524 55 1
524 56 1
524 62 1
524 66 1
524 67 1
524 72 1
524 80 1
524 83 1
524 96 1
524 102 1
524 104 1
524 106 1
524 112 1
524 113 1
524 115 1
524 116 1
524 117 1
524 125 1
524 133 1
524 134 1
524 135 1
524 136 1
524 145 1
524 148 1
524 151 1
524 153 1
524 155 1
524 157 1
524 165 1
524 169 1
524 170 1
524 175 1
524 177 1
524 186 1
524 189 1
524 190 1
524 196 1
524 197 1
524 199 1
524 201 1
524 208 1
524 212 1
524 217 1
524 227 1
524 230 1
524 235 1
524 241 1
524 243 1
524 246 1
524 247 1
524 252 1
524 254 1
524 256 1
524 261 1
524 269 1
524 270 1
524 273 1
524 281 1
524 285 1
524 286 1
524 290 1
524 295 1
524 300 1
524 306 1
524 307 1
524 313 1
524 318 1
524 324 1
524 326 1
524 327 1
524 329 1
524 348 1
524 375 1
524 384 1
524 388 1
524 390 1
524 399 1
524 404 1
524 407 1
524 417 1
524 420 1
524 424 1
524 429 1
524 431 1
524 436 1
524 439 1
524 442 1
524 450 1
524 453 1
524 464 1
524 474 1
524 481 1
524 488 1
524 489 1
524 494 1
524 499 1
524 501 1
524 502 1
524 504 1
524 507 1
524 508 1
524 512 1
524 514 1
524 515 1
524 521 1
524 525 1
524 531 1
524 532 1
524 542 1
524 545 1
524 546 1
524 548 1
524 553 1
524 560 1
524 565 1
524 566 1
524 569 1
524 571 1
524 572 1
524 579 1
524 586 1
524 587 1
524 589 1
524 599 1
524 600 1
525 6 1
525 25 1
525 29 1
525 30 1
525 31 1
525 34 1
525 38 1
525 39 1
525 41 1
525 42 1
525 43 1
525 54 1
525 56 1
525 57 1
525 61 1
525 72 1
525 73 1
525 74 1
525 76 1
525 80 1
525 91 1
525 93 1
525 126 1
525 130 1
525 134 1
525 135 1
525 136 1
525 143 1
525 149 1
525 155 1
525 157 1
525 170 1
525 177 1
525 180 1
525 196 1
525 199 1
525 201 1
525 202 1
525 213 1
525 218 1
525 219 1
525 221 1
525 234 1
525 244 1
525 246 1
525 248 1
525 254 1
525 255 1
525 259 1
525 264 1
525 269 1
525 281 1
525 285 1
525 293 1
525 298 1
525 314 1
525 317 1
525 329 1
525 332 1
525 334 1
525 336 1
525 338 1
525 339 1
525 349 1
525 352 1
525 355 1
525 357 1
525 367 1
525 369 1
525 371 1
525 381 1
525 384 1
525 385 1
525 388 1
525 390 1
525 401 1
525 402 1
525 405 1
525 409 1
525 412 1
525 419 1
525 430 1
525 436 1
525 438 1
525 440 1
525 443 1
525 454 1
525 456 1
525 459 1
525 475 1
525 477 1
525 479 1
525 483 1
525 486 1
525 493 1
525 495 1
525 497 1
525 499 1
525 500 1
525 515 1
525 516 1
525 521 1
525 522 1
525 524 1
525 527 1
525 547 1
525 555 1
525 564 1
525 566 1
525 568 1
525 571 1
525 572 1
525 575 1
525 582 1
525 584 1
525 593 1
525 594 1
526 1 1
526 3 1
526 6 1
526 7 1
526 23 1
526 27 1
526 29 1
526 36 1
526 39 1
526 41 1
526 43 1
526 48 1
526 52 1
526 59 1
526 64 1
526 67 1
526 72 1
526 82 1
526 84 1
526 87 1
526 88 1
526 97 1
526 101 1
526 115 1
526 119 1
526 126 1
526 130 1
526 138 1
526 143 1
526 162 1
526 165 1
526 166 1
526 168 1
526 171 1
526 175 1
526 180 1
526 181 1
526 189 1
526 192 1
526 205 1
526 208 1
526 212 1
526 220 1
526 225 1
526 232 1
526 240 1
526 241 1
526 242 1
526 247 1
526 249 1
526 259 1
526 262 1
526 267 1
526 276 1
526 279 1
526 282 1
526 285 1
526 291 1
526 293 1
526 306 1
526 310 1
526 316 1
526 322 1
526 326 1
526 328 1
526 335 1
526 355 1
526 358 1
526 360 1
526 372 1
526 383 1
526 384 1
526 385 1
526 386 1
526 390 1
526 393 1
526 394 1
526 401 1
526 407 1
526 409 1
526 411 1
526 413 1
526 415 1
526 417 1
526 425 1
526 437 1
526 444 1
526 445 1
526 447 1
526 453 1
526 454 1
526 459 1
526 462 1
526 471 1
526 472 1
526 477 1
526 481 1
526 486 1
526 489 1
526 490 1
526 494 1
526 507 1
526 518 1
526 529 1
526 537 1
526 540 1
526 549 1
526 550 1
526 552 1
526 554 1
526 557 1
526 558 1
526 561 1
526 564 1
526 566 1
526 569 1
526 576 1
526 577 1
526 587 1
526 589 1
526 592 1
526 599 1
527 8 1
527 11 1
527 15 1
527 23 1
527 32 1
527 33 1
527 36 1
527 40 1
527 45 1
527 50 1
527 55 1
527 63 1
527 65 1
527 69 1
527 71 1
527 72 1
527 80 1
527 83 1
527 85 1
527 113 1
527 118 1
527 119 1
527 132 1
527 137 1
527 140 1
527 145 1
527 147 1
527 148 1
527 151 1
527 153 1
527 156 1
527 157 1
527 158 1
527 160 1
527 164 1
527 190 1
527 192 1
527 203 1
527 211 1
527 220 1
527 223 1
527 226 1
527 237 1
527 239 1
527 250 1
527 251 1
527 252 1
527 259 1
527 262 1
527 266 1
527 267 1
527 270 1
527 272 1
527 282 1
527 284 1
527 285 1
527 286 1
527 288 1
527 289 1
527 290 1
527 304 1
527 306 1
527 307 1
527 319 1
527 320 1
527 321 1
527 327 1
527 328 1
527 332 1
527 341 1
527 343 1
527 345 1
527 346 1
527 348 1
527 366 1
527 368 1
527 373 1
527 383 1
527 384 1
527 386 1
527 388 1
527 396 1
527 397 1
527 417 1
527 419 1
527 440 1
527 443 1
527 444 1
527 453 1
527 463 1
527 464 1
527 466 1
527 477 1
527 478 1
527 483 1
527 485 1
527 489 1
527 491 1
527 492 1
527 499 1
527 500 1
527 501 1
527 503 1
527 504 1
527 512 1
527 515 1
527 520 1
527 525 1
527 528 1
527 532 1
527 542 1
527 543 1
527 546 1
527 550 1
527 561 1
527 566 1
527 568 1
527 571 1
527 572 1
527 573 1
527 578 1
527 584 1
527 594 1
527 599 1
528 1 1
528 6 1
528 7 1
528 15 1
528 29 1
528 33 1
528 34 1
528 36 1
528 39 1
528 41 1
528 42 1
528 47 1
528 48 1
528 50 1
528 54 1
528 69 1
528 70 1
528 73 1
528 74 1
528 76 1
528 77 1
528 94 1
528 102 1
528 105 1
528 117 1
528 127 1
528 130 1
528 131 1
528 138 1
528 140 1
528 158 1
528 164 1
528 166 1
528 170 1
528 171 1
528 178 1
528 186 1
528 193 1
528 194 1
528 197 1
528 202 1
528 203 1
528 215 1
528 219 1
528 223 1
528 226 1
528 231 1
528 237 1
528 267 1
528 271 1
528 283 1
528 288 1
528 289 1
528 293 1
528 294 1
528 301 1
528 321 1
528 328 1
528 337 1
528 346 1
528 355 1
528 367 1
528 371 1
528 373 1
528 378 1
528 381 1
528 392 1
528 393 1
528 402 1
528 403 1
528 406 1
528 409 1
528 417 1
528 428 1
528 434 1
528 444 1
528 455 1
528 457 1
528 460 1
528 463 1
528 466 1
528 469 1
528 475 1
528 476 1
528 478 1
528 483 1
528 484 1
528 488 1
528 495 1
528 498 1
528 504 1
528 506 1
528 507 1
528 517 1
528 519 1
528 527 1
528 530 1
528 532 1
528 534 1
528 535 1
528 539 1
528 556 1
528 564 1
528 568 1
528 570 1
528 573 1
528 574 1
528 575 1
528 576 1
528 583 1
528 586 1
528 592 1
528 597 1
529 2 1
529 5 1
529 8 1
529 15 1
529 16 1
529 28 1
529 35 1
529 36 1
529 42 1
529 43 1
529 44 1
529 45 1
529 46 1
529 60 1
529 62 1
529 67 1
529 68 1
529 70 1
529 73 1
529 76 1
529 82 1
529 83 1
529 88 1
529 97 1
529 98 1
529 99 1
529 110 1
529 113 1
529 114 1
529 115 1
529 118 1
529 125 1
529 126 1
529 127 1
529 144 1
529 153 1
529 155 1
529 177 1
529 179 1
529 186 1
529 195 1
529 196 1
529 197 1
529 200 1
529 209 1
529 216 1
529 219 1
529 225 1
529 229 1
529 234 1
529 236 1
529 237 1
529 238 1
529 240 1
529 245 1
529 246 1
529 254 1
529 257 1
529 267 1
529 270 1
529 272 1
529 277 1
529 278 1
529 281 1
529 283 1
529 297 1
529 298 1
529 304 1
529 305 1
529 309 1
529 310 1
529 347 1
529 348 1
529 350 1
529 364 1
529 374 1
529 384 1
529 391 1
529 398 1
529 413 1
529 416 1
529 426 1
529 429 1
529 437 1
529 444 1
529 453 1
529 460 1
529 463 1
529 472 1
529 482 1
529 499 1
529 501 1
529 504 1
529 508 1
529 519 1
529 520 1
529 526 1
529 533 1
529 534 1
529 539 1
529 541 1
529 545 1
529 556 1
529 563 1
529 567 1
529 571 1
529 575 1
529 582 1
529 585 1
529 592 1
529 600 1
530 8 1
530 10 1
530 11 1
530 12 1
530 15 1
530 16 1
530 21 1
530 26 1
530 28 1
530 31 1
530 32 1
530 34 1
530 47 1
530 52 1
530 54 1
530 55 1
530 58 1
530 60 1
530 62 1
530 68 1
530 74 1
530 79 1
530 80 1
530 81 1
530 87 1
530 113 1
530 116 1
530 120 1
530 121 1
530 129 1
530 130 1
530 140 1
530 141 1
530 142 1
530 149 1
530 151 1
530 156 1
530 157 1
530 170 1
530 178 1
530 182 1
530 183 1
530 196 1
530 197 1
530 216 1
530 219 1
530 224 1
530 226 1
530 230 1
530 235 1
530 237 1
530 252 1
530 253 1
530 264 1
530 268 1
530 275 1
530 283 1
530 288 1
530 291 1
530 301 1
530 304 1
530 313 1
530 315 1
530 318 1
530 320 1
530 326 1
530 327 1
530 335 1
530 337 1
530 341 1
530 355 1
530 365 1
530 375 1
530 385 1
530 398 1
530 405 1
530 414 1
530 422 1
530 429 1
530 433 1
530 452 1
530 453 1
530 454 1
530 462 1
530 466 1
530 480 1
530 481 1
530 482 1
530 484 1
530 485 1
530 487 1
530 488 1
530 493 1
530 501 1
530 509 1
530 510 1
530 511 1
530 517 1
530 528 1
530 531 1
530 532 1
530 543 1
530 544 1
530 554 1
530 564 1
530 565 1
530 568 1
530 570 1
530 571 1
530 574 1
530 585 1
530 591 1
530 593 1
530 599 1
531 5 1
531 13 1
531 14 1
531 26 1
531 32 1
531 40 1
531 44 1
531 45 1
531 50 1
531 57 1
531 59 1
531 64 1
531 66 1
531 68 1
531 69 1
531 74 1
531 81 1
531 83 1
531 87 1
531 88 1
531 96 1
531 97 1
531 102 1
531 110 1
531 115 1
531 116 1
531 117 1
531 118 1
531 119 1
531 128 1
531 129 1
531 130 1
531 140 1
531 145 1
531 150 1
531 152 1
531 154 1
531 158 1
531 160 1
531 162 1
531 165 1
531 167 1
531 177 1
531 178 1
531 183 1
531 186 1
531 190 1
531 196 1
531 197 1
531 198 1
531 208 1
531 214 1
531 217 1
531 221 1
531 229 1
531 247 1
531 248 1
531 255 1
531 258 1
531 261 1
531 263 1
531 266 1
531 270 1
531 272 1
531 273 1
531 276 1
531 289 1
531 290 1
531 297 1
531 307 1
531 316 1
531 317 1
531 319 1
531 322 1
531 328 1
531 333 1
531 335 1
531 337 1
531 340 1
531 344 1
531 346 1
531 351 1
531 352 1
531 355 1
531 357 1
531 364 1
531 368 1
531 369 1
531 370 1
531 375 1
531 377 1
531 384 1
531 385 1
531 388 1
531 389 1
531 390 1
531 391 1
531 396 1
531 403 1
531 411 1
531 413 1
531 424 1
531 429 1
531 433 1
531 435 1
531 443 1
531 446 1
531 454 1
531 456 1
531 462 1
531 464 1
531 471 1
531 472 1
531 476 1
531 489 1
531 495 1
531 497 1
531 504 1
531 507 1
531 508 1
531 521 1
531 524 1
531 530 1
531 539 1
531 543 1
531 546 1
531 553 1
531 556 1
531 558 1
531 559 1
531 578 1
531 579 1
531 581 1
531 596 1
531 598 1
531 599 1
532 12 1
532 30 1
532 43 1
532 46 1
532 52 1
532 54 1
532 58 1
532 69 1
532 81 1
532 105 1
532 107 1
532 109 1
532 111 1
532 118 1
532 119 1
532 120 1
532 125 1
532 127 1
532 129 1
532 133 1
532 141 1
532 147 1
532 149 1
532 152 1
532 153 1
532 154 1
532 156 1
532 162 1
532 163 1
532 177 1
532 184 1
532 185 1
532 187 1
532 188 1
532 204 1
532 206 1
532 213 1
532 214 1
532 218 1
532 221 1
532 226 1
532 229 1
532 230 1
532 234 1
532 241 1
532 242 1
532 243 1
532 244 1
532 247 1
532 259 1
532 268 1
532 273 1
532 282 1
532 288 1
532 291 1
532 292 1
532 293 1
532 303 1
532 304 1
532 306 1
532 308 1
532 311 1
532 313 1
532 314 1
532 325 1
532 335 1
532 337 1
532 344 1
532 345 1
532 349 1
532 352 1
532 353 1
532 356 1
532 357 1
532 362 1
532 371 1
532 372 1
532 374 1
532 382 1
532 387 1
532 390 1
532 396 1
532 397 1
532 400 1
532 401 1
532 402 1
532 403 1
532 416 1
532 421 1
532 425 1
532 432 1
532 439 1
532 442 1
532 443 1
532 445 1
532 456 1
532 459 1
532 462 1
532 466 1
532 469 1
532 474 1
532 478 1
532 479 1
532 487 1
532 492 1
532 494 1
532 497 1
532 500 1
532 504 1
532 508 1
532 513 1
532 517 1
532 521 1
532 524 1
532 527 1
532 528 1
532 530 1
532 533 1
532 535 1
532 536 1
532 541 1
532 542 1
532 556 1
532 562 1
532 566 1
532 576 1
532 579 1
532 593 1
532 595 1
533 1 1
533 6 1
533 20 1
533 24 1
533 30 1
533 41 1
533 49 1
533 54 1
533 62 1
533 70 1
533 71 1
533 81 1
533 92 1
533 97 1
533 101 1
533 102 1
533 109 1
533 119 1
533 121 1
533 124 1
533 134 1
533 142 1
533 143 1
533 144 1
533 155 1
533 161 1
533 162 1
533 171 1
533 181 1
533 182 1
533 183 1
533 194 1
533 198 1
533 201 1
533 206 1
533 210 1
533 213 1
533 223 1
533 226 1
533 233 1
533 239 1
533 247 1
533 250 1
533 253 1
533 255 1
533 258 1
533 260 1
533 261 1
533 262 1
533 265 1
533 271 1
533 272 1
533 273 1
533 277 1
533 284 1
533 286 1
533 294 1
533 297 1
533 299 1
533 300 1
533 307 1
533 308 1
533 315 1
533 320 1
533 321 1
533 327 1
533 329 1
533 336 1
533 341 1
533 350 1
533 360 1
533 370 1
533 384 1
533 386 1
533 389 1
533 396 1
533 399 1
533 415 1
533 419 1
533 420 1
533 430 1
533 435 1
533 439 1
533 440 1
533 443 1
533 444 1
533 451 1
533 456 1
533 457 1
533 462 1
533 464 1
533 468 1
533 472 1
533 473 1
533 486 1
533 491 1
533 506 1
533 512 1
533 523 1
533 529 1
533 532 1
533 534 1
533 535 1
533 540 1
533 545 1
533 558 1
533 565 1
533 570 1
533 575 1
533 583 1
533 596 1
533 599 1
533 600 1
534 6 1
534 8 1
534 12 1
534 20 1
534 22 1
534 24 1
534 26 1
534 29 1
534 31 1
534 34 1
534 36 1
534 44 1
534 47 1
534 52 1
534 53 1
534 66 1
534 67 1
534 68 1
534 69 1
534 70 1
534 85 1
534 90 1
534 92 1
534 93 1
534 94 1
534 97 1
534 102 1
534 104 1
534 121 1
534 124 1
534 137 1
534 154 1
534 159 1
534 160 1
534 161 1
534 162 1
534 172 1
534 173 1
534 181 1
534 189 1
534 198 1
534 200 1
534 213 1
534 223 1
534 243 1
534 250 1
534 251 1
534 255 1
534 268 1
534 269 1
534 273 1
534 275 1
534 290 1
534 300 1
534 301 1
534 302 1
534 313 1
534 321 1
534 322 1
534 330 1
534 331 1
534 334 1
534 342 1
534 354 1
534 356 1
534 359 1
534 364 1
534 376 1
534 379 1
534 381 1
534 389 1
534 392 1
534 394 1
534 395 1
534 398 1
534 400 1
534 404 1
534 405 1
534 407 1
534 409 1
534 413 1
534 427 1
534 429 1
534 446 1
534 456 1
534 464 1
534 472 1
534 474 1
534 477 1
534 487 1
534 488 1
534 498 1
534 501 1
534 507 1
534 509 1
534 512 1
534 516 1
534 519 1
534 528 1
534 529 1
534 533 1
534 535 1
534 538 1
534 541 1
534 543 1
534 544 1
534 551 1
534 552 1
534 553 1
534 560 1
534 561 1
534 562 1
534 564 1
534 572 1
534 574 1
534 576 1
534 577 1
534 588 1
534 591 1
534 592 1
534 593 1
535 18 1
535 19 1
535 22 1
535 23 1
535 30 1
535 31 1
535 32 1
535 33 1
535 42 1
535 49 1
535 50 1
535 53 1
535 65 1
535 66 1
535 85 1
535 89 1
535 107 1
535 119 1
535 121 1
535 122 1
535 125 1
535 128 1
535 146 1
535 151 1
535 153 1
535 155 1
535 165 1
535 172 1
535 175 1
535 183 1
535 189 1
535 191 1
535 194 1
535 198 1
535 205 1
535 208 1
535 212 1
535 232 1
535 236 1
535 241 1
535 243 1
535 255 1
535 269 1
535 271 1
535 287 1
535 291 1
535 292 1
535 294 1
535 299 1
535 302 1
535 304 1
535 306 1
535 309 1
535 313 1
535 321 1
535 323 1
535 328 1
535 354 1
535 360 1
535 372 1
535 373 1
535 378 1
535 379 1
535 382 1
535 385 1
535 393 1
535 398 1
535 402 1
535 403 1
535 404 1
535 417 1
535 420 1
535 432 1
535 439 1
535 443 1
535 462 1
535 463 1
535 465 1
535 471 1
535 472 1
535 481 1
535 483 1
535 487 1
535 490 1
535 500 1
535 504 1
535 515 1
535 520 1
535 521 1
535 523 1
535 528 1
535 532 1
535 533 1
535 534 1
535 536 1
535 550 1
535 561 1
535 562 1
535 569 1
535 573 1
535 575 1
535 576 1
535 580 1
535 587 1
535 589 1
535 590 1
536 6 1
536 7 1
536 10 1
536 20 1
536 22 1
536 32 1
536 33 1
536 39 1
536 41 1
536 43 1
536 49 1
536 53 1
536 56 1
536 58 1
536 61 1
536 70 1
536 74 1
536 76 1
536 93 1
536 95 1
536 108 1
536 119 1
536 120 1
536 122 1
536 130 1
536 136 1
536 141 1
536 155 1
536 171 1
536 172 1
536 194 1
536 198 1
536 201 1
536 205 1
536 208 1
536 212 1
536 225 1
536 227 1
536 245 1
536 252 1
536 258 1
536 278 1
536 279 1
536 281 1
536 287 1
536 291 1
536 300 1
536 302 1
536 305 1
536 306 1
536 308 1
536 313 1
536 316 1
536 318 1
536 323 1
536 331 1
536 332 1
536 333 1
536 338 1
536 341 1
536 344 1
536 345 1
536 348 1
536 349 1
536 358 1
536 374 1
536 381 1
536 387 1
536 389 1
536 397 1
536 398 1
536 399 1
536 400 1
536 406 1
536 413 1
536 416 1
536 418 1
536 422 1
536 428 1
536 440 1
536 452 1
536 453 1
536 458 1
536 459 1
536 465 1
536 466 1
536 468 1
536 473 1
536 483 1
536 485 1
536 488 1
536 499 1
536 501 1
536 502 1
536 514 1
536 517 1
536 519 1
536 521 1
536 532 1
536 535 1
536 537 1
536 544 1
536 558 1
536 570 1
536 582 1
536 585 1
536 598 1
537 10 1
537 17 1
537 18 1
537 22 1
537 23 1
537 24 1
537 28 1
537 32 1
537 33 1
537 37 1
537 38 1
537 43 1
537 48 1
537 49 1
537 50 1
537 56 1
537 71 1
537 80 1
537 82 1
537 83 1
537 89 1
537 92 1
537 107 1
537 111 1
537 112 1
537 113 1
537 120 1
537 123 1
537 126 1
537 127 1
537 128 1
537 129 1
537 140 1
537 142 1
537 157 1
537 160 1
537 161 1
537 162 1
537 163 1
537 166 1
537 168 1
537 170 1
537 173 1
537 176 1
537 187 1
537 188 1
537 189 1
537 190 1
537 197 1
537 206 1
537 214 1
537 215 1
537 216 1
537 225 1
537 226 1
537 231 1
537 233 1
537 237 1
537 242 1
537 244 1
537 246 1
537 247 1
537 249 1
537 250 1
537 252 1
537 255 1
537 260 1
537 261 1
537 264 1
537 283 1
537 287 1
537 293 1
537 294 1
537 297 1
537 299 1
537 304 1
537 305 1
537 306 1
537 311 1
537 328 1
537 329 1
537 332 1
537 350 1
537 353 1
537 354 1
537 355 1
537 358 1
537 364 1
537 368 1
537 374 1
537 379 1
537 383 1
537 384 1
537 387 1
537 389 1
537 391 1
537 394 1
537 395 1
537 409 1
537 417 1
537 422 1
537 427 1
537 428 1
537 437 1
537 438 1
537 441 1
537 448 1
537 452 1
537 456 1
537 457 1
537 460 1
537 461 1
537 465 1
537 475 1
537 477 1
537 489 1
537 495 1
537 498 1
537 500 1
537 501 1
537 502 1
537 504 1
537 512 1
537 516 1
537 517 1
537 522 1
537 523 1
537 526 1
537 536 1
537 548 1
537 550 1
537 561 1
537 565 1
537 570 1
537 572 1
537 576 1
537 581 1
537 587 1
537 589 1
537 592 1
537 600 1
538 6 1
538 14 1
538 16 1
538 18 1
538 21 1
538 25 1
538 30 1
538 45 1
538 48 1
538 52 1
538 56 1
538 58 1
538 79 1
538 83 1
538 90 1
538 92 1
538 94 1
538 96 1
538 105 1
538 107 1
538 108 1
538 110 1
538 114 1
538 119 1
538 121 1
538 122 1
538 126 1
538 127 1
538 130 1
538 132 1
538 136 1
538 140 1
538 141 1
538 142 1
538 164 1
538 168 1
538 170 1
538 176 1
538 179 1
538 186 1
538 193 1
538 194 1
538 197 1
538 199 1
538 200 1
538 203 1
538 209 1
538 218 1
538 225 1
538 226 1
538 227 1
538 245 1
538 253 1
538 258 1
538 262 1
538 270 1
538 273 1
538 282 1
538 289 1
538 293 1
538 295 1
538 296 1
538 297 1
538 299 1
538 300 1
538 308 1
538 310 1
538 312 1
538 333 1
538 335 1
538 344 1
538 348 1
538 349 1
538 355 1
538 356 1
538 361 1
538 371 1
538 375 1
538 378 1
538 387 1
538 389 1
538 391 1
538 397 1
538 402 1
538 412 1
538 413 1
538 414 1
538 423 1
538 446 1
538 447 1
538 448 1
538 456 1
538 466 1
538 471 1
538 472 1
538 474 1
538 478 1
538 481 1
538 483 1
538 488 1
538 493 1
538 496 1
538 500 1
538 511 1
538 512 1
538 521 1
538 534 1
538 540 1
538 549 1
538 553 1
538 558 1
538 564 1
538 579 1
538 583 1
538 585 1
538 587 1
538 593 1
539 4 1
539 9 1
539 14 1
539 16 1
539 17 1
539 19 1
539 21 1
539 23 1
539 30 1
539 36 1
539 41 1
539 45 1
539 57 1
539 71 1
539 73 1
539 74 1
539 80 1
539 81 1
539 87 1
539 89 1
539 90 1
539 96 1
539 99 1
539 100 1
539 102 1
539 103 1
539 105 1
539 109 1
539 112 1
539 114 1
539 119 1
539 126 1
539 128 1
539 130 1
539 146 1
539 150 1
539 151 1
539 152 1
539 153 1
539 154 1
539 157 1
539 162 1
539 167 1
539 171 1
539 177 1
539 199 1
539 200 1
539 203 1
539 206 1
539 207 1
539 209 1
539 211 1
539 214 1
539 218 1
539 222 1
539 223 1
539 230 1
539 232 1
539 252 1
539 259 1
539 260 1
539 261 1
539 265 1
539 269 1
539 272 1
539 284 1
539 286 1
539 290 1
539 294 1
539 299 1
539 301 1
539 304 1
539 313 1
539 316 1
539 319 1
539 322 1
539 328 1
539 330 1
539 336 1
539 350 1
539 352 1
539 353 1
539 358 1
539 360 1
539 370 1
539 376 1
539 379 1
539 388 1
539 395 1
539 396 1
539 400 1
539 402 1
539 418 1
539 419 1
539 427 1
539 442 1
539 444 1
539 448 1
539 463 1
539 465 1
539 467 1
539 473 1
539 474 1
539 475 1
539 476 1
539 486 1
539 492 1
539 493 1
539 496 1
539 503 1
539 506 1
539 508 1
539 514 1
539 522 1
539 528 1
539 529 1
539 531 1
539 540 1
539 541 1
539 543 1
539 555 1
539 557 1
539 566 1
539 572 1
539 575 1
539 578 1
539 579 1
539 584 1
539 593 1
539 599 1
539 600 1
540 9 1
540 16 1
540 17 1
540 27 1
540 29 1
540 30 1
540 32 1
540 33 1
540 36 1
540 37 1
540 38 1
540 47 1
540 48 1
540 50 1
540 54 1
540 59 1
540 64 1
540 65 1
540 66 1
540 72 1
540 83 1
540 84 1
540 85 1
540 90 1
540 94 1
540 96 1
540 103 1
540 106 1
540 112 1
540 113 1
540 115 1
540 119 1
540 124 1
540 127 1
540 130 1
540 134 1
540 138 1
540 140 1
540 150 1
540 156 1
540 157 1
540 173 1
540 174 1
540 175 1
540 188 1
540 189 1
540 190 1
540 200 1
540 206 1
540 212 1
540 215 1
540 216 1
540 224 1
540 232 1
540 238 1
540 248 1
540 251 1
540 252 1
540 257 1
540 262 1
540 265 1
540 282 1
540 284 1
540 295 1
540 301 1
540 307 1
540 308 1
540 310 1
540 319 1
540 322 1
540 323 1
540 326 1
540 328 1
540 329 1
540 341 1
540 348 1
540 352 1
540 353 1
540 371 1
540 373 1
540 376 1
540 378 1
540 379 1
540 381 1
540 383 1
540 394 1
540 395 1
540 403 1
540 407 1
540 409 1
540 410 1
540 411 1
540 417 1
540 420 1
540 424 1
540 425 1
540 427 1
540 447 1
540 456 1
540 458 1
540 465 1
540 466 1
540 467 1
540 480 1
540 481 1
540 483 1
540 484 1
540 485 1
540 487 1
540 501 1
540 506 1
540 513 1
540 516 1
540 520 1
540 522 1
540 523 1
540 526 1
540 533 1
540 538 1
540 539 1
540 548 1
540 556 1
540 560 1
540 564 1
540 568 1
540 577 1
540 580 1
540 581 1
540 585 1
540 588 1
540 590 1
540 596 1
540 597 1
541 6 1
541 7 1
541 12 1
541 19 1
541 28 1
541 32 1
541 44 1
541 46 1
541 51 1
541 61 1
541 63 1
541 72 1
541 79 1
541 81 1
541 84 1
541 92 1
541 93 1
541 100 1
541 101 1
541 106 1
541 107 1
541 110 1
541 111 1
541 112 1
541 120 1
541 133 1
541 140 1
541 141 1
541 142 1
541 144 1
541 145 1
541 154 1
541 156 1
541 158 1
541 161 1
541 176 1
541 179 1
541 184 1
541 218 1
541 239 1
541 250 1
541 252 1
541 253 1
541 283 1
541 288 1
541 289 1
541 302 1
541 304 1
541 309 1
541 316 1
541 322 1
541 326 1
541 334 1
541 350 1
541 353 1
541 356 1
541 357 1
541 359 1
541 360 1
541 375 1
541 379 1
541 383 1
541 385 1
541 391 1
541 393 1
541 395 1
541 402 1
541 427 1
541 428 1
541 441 1
541 442 1
541 444 1
541 455 1
541 458 1
541 466 1
541 467 1
541 469 1
541 480 1
541 489 1
541 491 1
541 493 1
541 496 1
541 501 1
541 529 1
541 532 1
541 534 1
541 539 1
541 543 1
541 546 1
541 552 1
541 562 1
541 564 1
541 577 1
541 579 1
541 582 1
541 583 1
541 600 1
542 3 1
542 6 1
542 16 1
542 17 1
542 19 1
542 24 1
542 32 1
542 37 1
542 39 1
542 41 1
542 43 1
542 44 1
542 48 1
542 55 1
542 65 1
542 77 1
542 79 1
542 80 1
542 81 1
542 84 1
542 93 1
542 95 1
542 101 1
542 102 1
542 106 1
542 111 1
542 114 1
542 126 1
542 129 1
542 131 1
542 135 1
542 140 1
542 141 1
542 151 1
542 166 1
542 169 1
542 170 1
542 174 1
542 175 1
542 176 1
542 180 1
542 185 1
542 200 1
542 214 1
542 216 1
542 217 1
542 220 1
542 221 1
542 234 1
542 247 1
542 250 1
542 252 1
542 253 1
542 260 1
542 279 1
542 282 1
542 285 1
542 291 1
542 292 1
542 310 1
542 314 1
542 316 1
542 319 1
542 327 1
542 330 1
542 334 1
542 335 1
542 336 1
542 338 1
542 347 1
542 354 1
542 367 1
542 372 1
542 374 1
542 378 1
542 380 1
542 385 1
542 386 1
542 388 1
542 406 1
542 407 1
542 409 1
542 410 1
542 416 1
542 429 1
542 431 1
542 434 1
542 435 1
542 437 1
542 438 1
542 445 1
542 448 1
542 462 1
542 464 1
542 471 1
542 472 1
542 475 1
542 491 1
542 496 1
542 497 1
542 498 1
542 502 1
542 507 1
542 514 1
542 518 1
542 524 1
542 527 1
542 532 1
542 546 1
542 550 1
542 555 1
542 556 1
542 557 1
542 560 1
542 562 1
542 567 1
542 577 1
542 579 1
542 590 1
542 593 1
542 599 1
543 3 1
543 5 1
543 11 1
543 15 1
543 17 1
543 23 1
543 27 1
543 28 1
543 33 1
543 37 1
543 39 1
543 51 1
543 54 1
543 71 1
543 78 1
543 79 1
543 80 1
543 82 1
543 86 1
543 87 1
543 90 1
543 100 1
543 103 1
543 104 1
543 105 1
543 126 1
543 129 1
543 132 1
543 164 1
543 165 1
543 171 1
543 178 1
543 179 1
543 195 1
543 196 1
543 200 1
543 206 1
543 209 1
543 210 1
543 213 1
543 219 1
543 223 1
543 225 1
543 230 1
543 238 1
543 243 1
543 246 1
543 247 1
543 250 1
543 251 1
543 254 1
543 256 1
543 266 1
543 270 1
543 280 1
543 290 1
543 291 1
543 295 1
543 296 1
543 301 1
543 302 1
543 303 1
543 314 1
543 320 1
543 322 1
543 324 1
543 326 1
543 337 1
543 339 1
543 342 1
543 345 1
543 352 1
543 360 1
543 366 1
543 370 1
543 374 1
543 376 1
543 377 1
543 378 1
543 386 1
543 390 1
543 392 1
543 394 1
543 397 1
543 406 1
543 420 1
543 423 1
543 424 1
543 429 1
543 430 1
543 431 1
543 432 1
543 434 1
543 440 1
543 451 1
543 459 1
543 460 1
543 467 1
543 469 1
543 473 1
543 474 1
543 482 1
543 486 1
543 492 1
543 513 1
543 517 1
543 519 1
543 522 1
543 527 1
543 530 1
543 531 1
543 534 1
543 539 1
543 541 1
543 546 1
543 548 1
543 555 1
543 557 1
543 558 1
543 563 1
543 565 1
543 566 1
543 572 1
543 586 1
543 589 1
543 595 1
544 1 1
544 9 1
544 20 1
544 25 1
544 27 1
544 35 1
544 38 1
544 42 1
544 53 1
544 54 1
544 61 1
544 62 1
544 68 1
544 76 1
544 84 1
544 85 1
544 88 1
544 89 1
544 91 1
544 94 1
544 97 1
544 103 1
544 106 1
544 109 1
544 115 1
544 117 1
544 119 1
544 120 1
544 138 1
544 143 1
544 155 1
544 157 1
544 159 1
544 160 1
544 167 1
544 175 1
544 177 1
544 187 1
544 188 1
544 195 1
544 208 1
544 210 1
544 220 1
544 223 1
544 231 1
544 233 1
544 234 1
544 236 1
544 239 1
544 252 1
544 258 1
544 260 1
544 271 1
544 276 1
544 280 1
544 282 1
544 284 1
544 301 1
544 302 1
544 305 1
544 309 1
544 311 1
544 314 1
544 318 1
544 326 1
544 327 1
544 329 1
544 337 1
544 338 1
544 340 1
544 346 1
544 348 1
544 353 1
544 356 1
544 361 1
544 362 1
544 369 1
544 371 1
544 373 1
544 378 1
544 387 1
544 393 1
544 394 1
544 405 1
544 413 1
544 416 1
544 426 1
544 428 1
544 429 1
544 432 1
544 434 1
544 436 1
544 438 1
544 446 1
544 447 1
544 451 1
544 462 1
544 485 1
544 486 1
544 487 1
544 488 1
544 491 1
544 493 1
544 498 1
544 506 1
544 510 1
544 514 1
544 519 1
544 520 1
544 523 1
544 530 1
544 534 1
544 536 1
544 547 1
544 548 1
544 550 1
544 551 1
544 553 1
544 556 1
544 561 1
544 563 1
544 565 1
544 566 1
544 578 1
544 583 1
544 584 1
544 585 1
544 588 1
544 590 1
544 598 1
544 599 1
545 3 1
545 7 1
545 8 1
545 27 1
545 28 1
545 30 1
545 36 1
545 38 1
545 39 1
545 40 1
545 42 1
545 46 1
545 49 1
545 52 1
545 58 1
545 60 1
545 64 1
545 73 1
545 74 1
545 83 1
545 87 1
545 95 1
545 99 1
545 100 1
545 103 1
545 104 1
545 113 1
545 115 1
545 116 1
545 117 1
545 122 1
545 125 1
545 126 1
545 130 1
545 131 1
545 154 1
545 161 1
545 167 1
545 186 1
545 189 1
545 194 1
545 195 1
545 200 1
545 201 1
545 205 1
545 211 1
545 213 1
545 217 1
545 225 1
545 228 1
545 232 1
545 234 1
545 239 1
545 241 1
545 251 1
545 252 1
545 253 1
545 256 1
545 259 1
545 265 1
545 267 1
545 280 1
545 284 1
545 285 1
545 286 1
545 301 1
545 303 1
545 305 1
545 310 1
545 314 1
545 319 1
545 323 1
545 327 1
545 329 1
545 345 1
545 350 1
545 351 1
545 356 1
545 365 1
545 370 1
545 371 1
545 373 1
545 377 1
545 382 1
545 386 1
545 394 1
545 398 1
545 403 1
545 407 1
545 408 1
545 409 1
545 414 1
545 415 1
545 416 1
545 419 1
545 424 1
545 426 1
545 431 1
545 433 1
545 434 1
545 443 1
545 444 1
545 445 1
545 446 1
545 449 1
545 467 1
545 468 1
545 474 1
545 479 1
545 481 1
545 486 1
545 491 1
545 499 1
545 500 1
545 501 1
545 512 1
545 518 1
545 523 1
545 524 1
545 529 1
545 533 1
545 549 1
545 556 1
545 558 1
545 559 1
545 569 1
545 571 1
545 576 1
545 582 1
545 584 1
545 586 1
545 589 1
545 597 1
546 4 1
546 7 1
546 8 1
546 20 1
546 24 1
546 25 1
546 31 1
546 32 1
546 35 1
546 36 1
546 37 1
546 41 1
546 48 1
546 55 1
546 57 1
546 60 1
546 62 1
546 64 1
546 69 1
546 78 1
546 81 1
546 84 1
546 86 1
546 93 1
546 98 1
546 99 1
546 111 1
546 118 1
546 129 1
546 133 1
546 139 1
546 147 1
546 168 1
546 171 1
546 173 1
546 176 1
546 177 1
546 178 1
546 179 1
546 181 1
546 183 1
546 191 1
546 194 1
546 196 1
546 202 1
546 206 1
546 218 1
546 231 1
546 239 1
546 242 1
546 246 1
546 248 1
546 252 1
546 253 1
546 254 1
546 269 1
546 273 1
546 280 1
546 298 1
546 306 1
546 316 1
546 322 1
546 324 1
546 325 1
546 328 1
546 332 1
546 338 1
546 343 1
546 345 1
546 351 1
546 356 1
546 358 1
546 367 1
546 371 1
546 373 1
546 379 1
546 380 1
546 382 1
546 383 1
546 387 1
546 388 1
546 406 1
546 414 1
546 429 1
546 451 1
546 453 1
546 457 1
546 461 1
546 464 1
546 473 1
546 484 1
546 485 1
546 487 1
546 494 1
546 503 1
546 506 1
546 518 1
546 520 1
546 524 1
546 527 1
546 531 1
546 541 1
546 542 1
546 543 1
546 555 1
546 559 1
546 561 1
546 562 1
546 563 1
546 565 1
546 568 1
546 573 1
546 578 1
546 579 1
546 581 1
546 583 1
546 584 1
546 586 1
546 599 1
547 7 1
547 8 1
547 26 1
547 31 1
547 36 1
547 37 1
547 38 1
547 55 1
547 56 1
547 65 1
547 74 1
547 79 1
547 83 1
547 87 1
547 98 1
547 99 1
547 104 1
547 105 1
547 107 1
547 117 1
547 118 1
547 134 1
547 136 1
547 142 1
547 154 1
547 156 1
547 159 1
547 178 1
547 184 1
547 185 1
547 194 1
547 201 1
547 202 1
547 206 1
547 214 1
547 218 1
547 219 1
547 221 1
547 223 1
547 229 1
547 230 1
547 239 1
547 260 1
547 266 1
547 273 1
547 275 1
547 277 1
547 280 1
547 283 1
547 295 1
547 304 1
547 306 1
547 320 1
547 322 1
547 323 1
547 324 1
547 325 1
547 330 1
547 331 1
547 336 1
547 343 1
547 348 1
547 353 1
547 358 1
547 367 1
547 373 1
547 374 1
547 377 1
547 385 1
547 391 1
547 395 1
547 400 1
547 402 1
547 415 1
547 421 1
547 431 1
547 436 1
547 439 1
547 446 1
547 454 1
547 456 1
547 461 1
547 462 1
547 464 1
547 470 1
547 475 1
547 478 1
547 479 1
547 485 1
547 489 1
547 499 1
547 502 1
547 504 1
547 506 1
547 507 1
547 513 1
547 525 1
547 544 1
547 549 1
547 551 1
547 570 1
547 575 1
547 577 1
547 581 1
547 583 1
547 588 1
547 589 1
547 593 1
547 595 1
547 596 1
547 597 1
547 598 1
547 599 1
547 600 1
548 3 1
548 9 1
548 16 1
548 19 1
548 40 1
548 41 1
548 42 1
548 49 1
548 60 1
548 67 1
548 71 1
548 72 1
548 75 1
548 78 1
548 84 1
548 86 1
548 91 1
548 100 1
548 102 1
548 103 1
548 104 1
548 105 1
548 109 1
548 116 1
548 126 1
548 127 1
548 130 1
548 138 1
548 144 1
548 145 1
548 149 1
548 152 1
548 155 1
548 158 1
548 163 1
548 164 1
548 173 1
548 188 1
548 209 1
548 213 1
548 214 1
548 217 1
548 224 1
548 225 1
548 227 1
548 229 1
548 231 1
548 240 1
548 243 1
548 245 1
548 247 1
548 251 1
548 254 1
548 257 1
548 265 1
548 267 1
548 279 1
548 280 1
548 283 1
548 286 1
548 289 1
548 302 1
548 325 1
548 334 1
548 342 1
548 344 1
548 345 1
548 350 1
548 357 1
548 368 1
548 374 1
548 378 1
548 396 1
548 397 1
548 398 1
548 411 1
548 415 1
548 416 1
548 419 1
548 420 1
548 426 1
548 447 1
548 456 1
548 458 1
548 461 1
548 462 1
548 489 1
548 492 1
548 500 1
548 502 1
548 503 1
548 504 1
548 512 1
548 514 1
548 520 1
548 523 1
548 524 1
548 537 1
548 540 1
548 543 1
548 544 1
548 549 1
548 553 1
548 560 1
548 567 1
548 568 1
548 576 1
548 578 1
548 581 1
548 583 1
548 588 1
548 589 1
548 594 1
548 596 1
549 5 1
549 8 1
549 12 1
549 15 1
549 29 1
549 33 1
549 35 1
549 38 1
549 42 1
549 45 1
549 46 1
549 47 1
549 48 1
549 50 1
549 56 1
549 60 1
549 71 1
549 75 1
549 76 1
549 85 1
549 88 1
549 89 1
549 91 1
549 97 1
549 101 1
549 107 1
549 141 1
549 144 1
549 151 1
549 160 1
549 161 1
549 164 1
549 173 1
549 179 1
549 188 1
549 189 1
549 204 1
549 207 1
549 217 1
549 219 1
549 226 1
549 235 1
549 237 1
549 238 1
549 243 1
549 253 1
549 254 1
549 258 1
549 266 1
549 269 1
549 270 1
549 280 1
549 284 1
549 290 1
549 292 1
549 294 1
549 295 1
549 300 1
549 305 1
549 307 1
549 315 1
549 316 1
549 317 1
549 321 1
549 325 1
549 335 1
549 338 1
549 342 1
549 364 1
549 370 1
549 376 1
549 385 1
549 394 1
549 398 1
549 399 1
549 414 1
549 416 1
549 420 1
549 425 1
549 427 1
549 432 1
549 442 1
549 448 1
549 460 1
549 462 1
549 486 1
549 487 1
549 489 1
549 492 1
549 499 1
549 500 1
549 503 1
549 519 1
549 526 1
549 538 1
549 545 1
549 547 1
549 548 1
549 552 1
549 555 1
549 561 1
549 566 1
549 572 1
549 573 1
549 575 1
549 578 1
549 599 1
550 9 1
550 10 1
550 29 1
550 32 1
550 38 1
550 40 1
550 41 1
550 57 1
550 63 1
550 65 1
550 81 1
550 82 1
550 89 1
550 91 1
550 93 1
550 94 1
550 102 1
550 106 1
550 107 1
550 113 1
550 114 1
550 122 1
550 126 1
550 128 1
550 131 1
550 133 1
550 135 1
550 138 1
550 147 1
550 150 1
550 152 1
550 153 1
550 164 1
550 166 1
550 167 1
550 177 1
550 178 1
550 184 1
550 190 1
550 192 1
550 193 1
550 197 1
550 203 1
550 210 1
550 211 1
550 212 1
550 214 1
550 216 1
550 221 1
550 222 1
550 229 1
550 230 1
550 236 1
550 241 1
550 246 1
550 248 1
550 250 1
550 252 1
550 269 1
550 288 1
550 292 1
550 306 1
550 314 1
550 317 1
550 322 1
550 328 1
550 335 1
550 337 1
550 342 1
550 361 1
550 366 1
550 369 1
550 374 1
550 381 1
550 382 1
550 385 1
550 392 1
550 397 1
550 399 1
550 408 1
550 426 1
550 428 1
550 429 1
550 431 1
550 432 1
550 437 1
550 449 1
550 450 1
550 456 1
550 458 1
550 459 1
550 461 1
550 462 1
550 463 1
550 465 1
550 471 1
550 473 1
550 474 1
550 478 1
550 483 1
550 487 1
550 492 1
550 500 1
550 502 1
550 510 1
550 522 1
550 526 1
550 527 1
550 535 1
550 537 1
550 542 1
550 544 1
550 561 1
550 563 1
550 592 1
551 4 1
551 10 1
551 19 1
551 22 1
551 34 1
551 35 1
551 36 1
551 39 1
551 45 1
551 48 1
551 50 1
551 51 1
551 54 1
551 55 1
551 64 1
551 65 1
551 74 1
551 87 1
551 96 1
551 104 1
551 110 1
551 112 1
551 114 1
551 117 1
551 121 1
551 123 1
551 127 1
551 130 1
551 131 1
551 134 1
551 136 1
551 138 1
551 153 1
551 164 1
551 165 1
551 180 1
551 182 1
551 183 1
551 189 1
551 192 1
551 200 1
551 201 1
551 209 1
551 221 1
551 223 1
551 227 1
551 229 1
551 238 1
551 248 1
551 257 1
551 259 1
551 261 1
551 267 1
551 270 1
551 293 1
551 296 1
551 297 1
551 300 1
551 304 1
551 306 1
551 307 1
551 313 1
551 316 1
551 317 1
551 320 1
551 322 1
551 326 1
551 328 1
551 330 1
551 334 1
551 342 1
551 344 1
551 345 1
551 350 1
551 351 1
551 358 1
551 365 1
551 366 1
551 372 1
551 381 1
551 382 1
551 390 1
551 398 1
551 402 1
551 405 1
551 407 1
551 416 1
551 424 1
551 426 1
551 428 1
551 429 1
551 436 1
551 438 1
551 441 1
551 446 1
551 452 1
551 462 1
551 465 1
551 466 1
551 467 1
551 468 1
551 478 1
551 479 1
551 488 1
551 490 1
551 492 1
551 494 1
551 499 1
551 502 1
551 503 1
551 505 1
551 511 1
551 521 1
551 534 1
551 544 1
551 547 1
551 554 1
551 557 1
551 560 1
551 565 1
551 573 1
551 581 1
551 585 1
551 586 1
551 588 1
551 591 1
551 596 1
552 5 1
552 11 1
552 13 1
552 17 1
552 19 1
552 28 1
552 31 1
552 38 1
552 44 1
552 48 1
552 52 1
552 61 1
552 65 1
552 73 1
552 84 1
552 85 1
552 86 1
552 92 1
552 96 1
552 98 1
552 102 1
552 112 1
552 117 1
552 136 1
552 138 1
552 142 1
552 149 1
552 172 1
552 176 1
552 180 1
552 183 1
552 186 1
552 201 1
552 210 1
552 215 1
552 220 1
552 221 1
552 223 1
552 225 1
552 228 1
552 236 1
552 251 1
552 252 1
552 260 1
552 277 1
552 287 1
552 288 1
552 293 1
552 304 1
552 306 1
552 316 1
552 345 1
552 353 1
552 356 1
552 363 1
552 377 1
552 378 1
552 379 1
552 380 1
552 381 1
552 384 1
552 385 1
552 389 1
552 392 1
552 401 1
552 403 1
552 405 1
552 408 1
552 410 1
552 412 1
552 414 1
552 415 1
552 418 1
552 419 1
552 424 1
552 437 1
552 448 1
552 454 1
552 455 1
552 462 1
552 463 1
552 466 1
552 473 1
552 475 1
552 477 1
552 486 1
552 487 1
552 493 1
552 503 1
552 507 1
552 508 1
552 510 1
552 521 1
552 522 1
552 526 1
552 534 1
552 541 1
552 549 1
552 554 1
552 557 1
552 558 1
552 567 1
552 571 1
552 577 1
552 580 1
552 588 1
552 590 1
552 595 1
552 599 1
553 5 1
553 6 1
553 15 1
553 21 1
553 26 1
553 35 1
553 37 1
553 38 1
553 50 1
553 63 1
553 71 1
553 72 1
553 76 1
553 77 1
553 78 1
553 80 1
553 89 1
553 90 1
553 93 1
553 94 1
553 100 1
553 101 1
553 102 1
553 104 1
553 107 1
553 109 1
553 111 1
553 114 1
553 115 1
553 119 1
553 123 1
553 125 1
553 130 1
553 138 1
553 141 1
553 152 1
553 153 1
553 156 1
553 157 1
553 162 1
553 171 1
553 174 1
553 175 1
553 176 1
553 181 1
553 195 1
553 197 1
553 198 1
553 200 1
553 206 1
553 207 1
553 212 1
553 214 1
553 224 1
553 231 1
553 238 1
553 240 1
553 242 1
553 243 1
553 244 1
553 250 1
553 251 1
553 252 1
553 256 1
553 257 1
553 263 1
553 265 1
553 272 1
553 285 1
553 304 1
553 306 1
553 314 1
553 315 1
553 324 1
553 328 1
553 329 1
553 331 1
553 336 1
553 337 1
553 343 1
553 344 1
553 345 1
553 346 1
553 356 1
553 364 1
553 366 1
553 372 1
553 376 1
553 377 1
553 379 1
553 384 1
553 389 1
553 402 1
553 404 1
553 409 1
553 410 1
553 416 1
553 418 1
553 425 1
553 433 1
553 436 1
553 439 1
553 445 1
553 458 1
553 460 1
553 466 1
553 470 1
553 471 1
553 474 1
553 475 1
553 478 1
553 481 1
553 483 1
553 485 1
553 493 1
553 499 1
553 504 1
553 506 1
553 513 1
553 517 1
553 520 1
553 522 1
553 524 1
553 531 1
553 534 1
553 538 1
553 544 1
553 548 1
553 561 1
553 571 1
553 577 1
553 578 1
553 579 1
553 582 1
553 594 1
553 595 1
554 2 1
554 8 1
554 15 1
554 16 1
554 23 1
554 24 1
554 33 1
554 35 1
554 39 1
554 44 1
554 52 1
554 56 1
554 63 1
554 70 1
554 74 1
554 77 1
554 79 1
554 85 1
554 86 1
554 87 1
554 101 1
554 107 1
554 116 1
554 130 1
554 138 1
554 142 1
554 147 1
554 164 1
554 174 1
554 182 1
554 187 1
554 191 1
554 192 1
554 201 1
554 212 1
554 224 1
554 237 1
554 238 1
554 242 1
554 244 1
554 260 1
554 270 1
554 272 1
554 280 1
554 282 1
554 283 1
554 288 1
554 292 1
554 293 1
554 302 1
554 306 1
554 309 1
554 313 1
554 318 1
554 325 1
554 326 1
554 328 1
554 333 1
554 337 1
554 342 1
554 345 1
554 349 1
554 356 1
554 373 1
554 382 1
554 393 1
554 395 1
554 398 1
554 402 1
554 405 1
554 425 1
554 428 1
554 431 1
554 435 1
554 442 1
554 443 1
554 447 1
554 457 1
554 462 1
554 480 1
554 482 1
554 488 1
554 489 1
554 491 1
554 493 1
554 494 1
554 496 1
554 498 1
554 501 1
554 505 1
554 508 1
554 516 1
554 517 1
554 521 1
554 526 1
554 530 1
554 551 1
554 552 1
554 555 1
554 559 1
554 560 1
554 572 1
554 573 1
554 577 1
554 579 1
554 580 1
554 592 1
554 594 1
554 598 1
555 8 1
555 17 1
555 45 1
555 47 1
555 49 1
555 52 1
555 53 1
555 67 1
555 69 1
555 71 1
555 73 1
555 89 1
555 90 1
555 92 1
555 94 1
555 103 1
555 104 1
555 109 1
555 114 1
555 115 1
555 126 1
555 131 1
555 133 1
555 154 1
555 159 1
555 167 1
555 171 1
555 172 1
555 175 1
555 180 1
555 181 1
555 188 1
555 196 1
555 201 1
555 202 1
555 204 1
555 206 1
555 207 1
555 209 1
555 210 1
555 222 1
555 225 1
555 230 1
555 231 1
555 233 1
555 243 1
555 249 1
555 251 1
555 256 1
555 258 1
555 268 1
555 274 1
555 280 1
555 281 1
555 287 1
555 299 1
555 301 1
555 302 1
555 307 1
555 313 1
555 314 1
555 321 1
555 325 1
555 328 1
555 332 1
555 339 1
555 349 1
555 352 1
555 354 1
555 359 1
555 362 1
555 376 1
555 382 1
555 394 1
555 401 1
555 419 1
555 426 1
555 427 1
555 429 1
555 437 1
555 438 1
555 440 1
555 442 1
555 448 1
555 449 1
555 451 1
555 463 1
555 466 1
555 468 1
555 469 1
555 470 1
555 477 1
555 480 1
555 485 1
555 486 1
555 488 1
555 490 1
555 495 1
555 496 1
555 497 1
555 506 1
555 510 1
555 512 1
555 514 1
555 517 1
555 522 1
555 525 1
555 539 1
555 542 1
555 543 1
555 546 1
555 549 1
555 554 1
555 556 1
555 559 1
555 573 1
555 575 1
555 576 1
555 579 1
555 583 1
555 586 1
555 591 1
555 596 1
556 7 1
556 13 1
556 14 1
556 16 1
556 25 1
556 30 1
556 32 1
556 35 1
556 42 1
556 51 1
556 52 1
556 59 1
556 62 1
556 74 1
556 77 1
556 78 1
556 79 1
556 89 1
556 94 1
556 106 1
556 107 1
556 112 1
556 120 1
556 134 1
556 135 1
556 145 1
556 147 1
556 148 1
556 149 1
556 158 1
556 161 1
556 164 1
556 168 1
556 169 1
556 173 1
556 184 1
556 186 1
556 187 1
556 205 1
556 212 1
556 220 1
556 244 1
556 245 1
556 248 1
556 250 1
556 255 1
556 260 1
556 261 1
556 268 1
556 270 1
556 271 1
556 272 1
556 275 1
556 279 1
556 281 1
556 288 1
556 290 1
556 297 1
556 300 1
556 309 1
556 311 1
556 312 1
556 320 1
556 321 1
556 323 1
556 327 1
556 329 1
556 331 1
556 332 1
556 334 1
556 339 1
556 344 1
556 347 1
556 361 1
556 362 1
556 363 1
556 364 1
556 368 1
556 370 1
556 375 1
556 377 1
556 378 1
556 384 1
556 390 1
556 391 1
556 403 1
556 414 1
556 417 1
556 418 1
556 422 1
556 432 1
556 438 1
556 440 1
556 441 1
556 444 1
556 447 1
556 449 1
556 451 1
556 464 1
556 466 1
556 472 1
556 475 1
556 477 1
556 480 1
556 484 1
556 490 1
556 492 1
556 495 1
556 498 1
556 499 1
556 504 1
556 508 1
556 510 1
556 512 1
556 520 1
556 522 1
556 523 1
556 528 1
556 529 1
556 531 1
556 532 1
556 540 1
556 542 1
556 544 1
556 545 1
556 555 1
556 564 1
556 565 1
556 569 1
556 573 1
556 583 1
556 584 1
556 586 1
556 587 1
556 588 1
556 593 1
557 1 1
557 4 1
557 8 1
557 10 1
557 12 1
557 13 1
557 19 1
557 21 1
557 25 1
557 26 1
557 33 1
557 44 1
557 49 1
557 52 1
557 56 1
557 68 1
557 69 1
557 78 1
557 81 1
557 82 1
557 83 1
557 84 1
557 86 1
557 94 1
557 99 1
557 110 1
557 113 1
557 115 1
557 119 1
557 124 1
557 134 1
557 141 1
557 144 1
557 151 1
557 153 1
557 165 1
557 168 1
557 169 1
557 171 1
557 180 1
557 181 1
557 190 1
557 195 1
557 206 1
557 207 1
557 211 1
557 218 1
557 229 1
557 231 1
557 236 1
557 237 1
557 242 1
557 243 1
557 244 1
557 246 1
557 251 1
557 252 1
557 261 1
557 267 1
557 271 1
557 275 1
557 278 1
557 279 1
557 281 1
557 282 1
557 283 1
557 285 1
557 292 1
557 294 1
557 299 1
557 304 1
557 322 1
557 329 1
557 351 1
557 355 1
557 360 1
557 361 1
557 363 1
557 365 1
557 372 1
557 382 1
557 385 1
557 386 1
557 388 1
557 397 1
557 398 1
557 405 1
557 408 1
557 414 1
557 416 1
557 417 1
557 423 1
557 425 1
557 428 1
557 438 1
557 440 1
557 443 1
557 446 1
557 452 1
557 463 1
557 467 1
557 471 1
557 481 1
557 486 1
557 493 1
557 510 1
557 512 1
557 514 1
557 515 1
557 520 1
557 521 1
557 526 1
557 539 1
557 542 1
557 543 1
557 551 1
557 552 1
557 559 1
557 562 1
557 565 1
557 570 1
557 571 1
557 580 1
557 581 1
557 584 1
557 585 1
557 590 1
557 591 1
557 593 1
557 599 1
558 1 1
558 21 1
558 28 1
558 38 1
558 40 1
558 48 1
558 49 1
558 50 1
558 53 1
558 57 1
558 61 1
558 72 1
558 78 1
558 83 1
558 91 1
558 95 1
558 101 1
558 111 1
558 116 1
558 121 1
558 129 1
558 130 1
558 131 1
558 149 1
558 160 1
558 163 1
558 165 1
558 167 1
558 170 1
558 171 1
558 177 1
558 178 1
558 180 1
558 188 1
558 194 1
558 195 1
558 204 1
558 208 1
558 227 1
558 239 1
558 240 1
558 243 1
558 245 1
558 260 1
558 267 1
558 269 1
558 281 1
558 283 1
558 292 1
558 293 1
558 294 1
558 297 1
558 302 1
558 316 1
558 320 1
558 321 1
558 323 1
558 325 1
558 327 1
558 330 1
558 333 1
558 334 1
558 339 1
558 341 1
558 345 1
558 366 1
558 368 1
558 372 1
558 377 1
558 378 1
558 381 1
558 386 1
558 388 1
558 395 1
558 397 1
558 398 1
558 400 1
558 401 1
558 404 1
558 409 1
558 413 1
558 415 1
558 418 1
558 425 1
558 426 1
558 429 1
558 447 1
558 451 1
558 473 1
558 477 1
558 481 1
558 487 1
558 488 1
558 491 1
558 492 1
558 497 1
558 501 1
558 504 1
558 507 1
558 522 1
558 523 1
558 526 1
558 531 1
558 533 1
558 536 1
558 538 1
558 543 1
558 545 1
558 552 1
558 560 1
558 563 1
558 566 1
558 570 1
558 575 1
558 579 1
558 584 1
558 585 1
558 597 1
559 4 1
559 9 1
559 11 1
559 17 1
559 18 1
559 19 1
559 27 1
559 29 1
559 31 1
559 34 1
559 54 1
559 59 1
559 60 1
559 62 1
559 64 1
559 73 1
559 78 1
559 80 1
559 81 1
559 86 1
559 91 1
559 92 1
559 95 1
559 105 1
559 106 1
559 110 1
559 121 1
559 122 1
559 130 1
559 134 1
559 139 1
559 144 1
559 149 1
559 151 1
559 155 1
559 165 1
559 170 1
559 174 1
559 176 1
559 177 1
559 179 1
559 180 1
559 186 1
559 189 1
559 214 1
559 215 1
559 216 1
559 222 1
559 228 1
559 232 1
559 237 1
559 238 1
559 239 1
559 253 1
559 256 1
559 257 1
559 259 1
559 263 1
559 265 1
559 268 1
559 269 1
559 279 1
559 283 1
559 295 1
559 301 1
559 302 1
559 306 1
559 309 1
559 317 1
559 320 1
559 333 1
559 336 1
559 342 1
559 343 1
559 344 1
559 350 1
559 351 1
559 357 1
559 358 1
559 361 1
559 366 1
559 367 1
559 371 1
559 374 1
559 379 1
559 395 1
559 398 1
559 400 1
559 418 1
559 420 1
559 421 1
559 431 1
559 434 1
559 436 1
559 440 1
559 447 1
559 459 1
559 460 1
559 463 1
559 466 1
559 469 1
559 479 1
559 480 1
559 487 1
559 490 1
559 492 1
559 504 1
559 509 1
559 512 1
559 515 1
559 523 1
559 531 1
559 545 1
559 546 1
559 554 1
559 555 1
559 557 1
559 560 1
559 563 1
559 568 1
559 575 1
559 586 1
559 587 1
559 589 1
559 591 1
560 1 1
560 3 1
560 4 1
560 9 1
560 19 1
560 20 1
560 21 1
560 25 1
560 27 1
560 28 1
560 38 1
560 44 1
560 54 1
560 57 1
560 62 1
560 69 1
560 70 1
560 81 1
560 84 1
560 88 1
560 89 1
560 97 1
560 100 1
560 104 1
560 109 1
560 110 1
560 116 1
560 124 1
560 148 1
560 151 1
560 156 1
560 159 1
560 169 1
560 171 1
560 179 1
560 192 1
560 195 1
560 196 1
560 200 1
560 201 1
560 204 1
560 208 1
560 209 1
560 211 1
560 220 1
560 225 1
560 231 1
560 238 1
560 239 1
560 251 1
560 254 1
560 264 1
560 267 1
560 270 1
560 271 1
560 283 1
560 286 1
560 292 1
560 297 1
560 301 1
560 312 1
560 314 1
560 316 1
560 317 1
560 320 1
560 322 1
560 324 1
560 330 1
560 350 1
560 352 1
560 354 1
560 364 1
560 366 1
560 367 1
560 372 1
560 387 1
560 390 1
560 392 1
560 400 1
560 401 1
560 410 1
560 412 1
560 417 1
560 422 1
560 428 1
560 431 1
560 444 1
560 445 1
560 446 1
560 452 1
560 453 1
560 456 1
560 467 1
560 477 1
560 479 1
560 488 1
560 517 1
560 520 1
560 523 1
560 524 1
560 534 1
560 540 1
560 542 1
560 548 1
560 551 1
560 554 1
560 558 1
560 559 1
560 563 1
560 573 1
560 576 1
560 588 1
560 593 1
560 597 1
561 14 1
561 15 1
561 21 1
561 25 1
561 31 1
561 34 1
561 36 1
561 37 1
561 38 1
561 40 1
561 41 1
561 42 1
561 46 1
561 49 1
561 63 1
561 68 1
561 71 1
561 77 1
561 81 1
561 92 1
561 95 1
561 97 1
561 102 1
561 103 1
561 105 1
561 106 1
561 110 1
561 121 1
561 124 1
561 127 1
561 128 1
561 132 1
561 133 1
561 135 1
561 136 1
561 143 1
561 144 1
561 152 1
561 155 1
561 162 1
561 164 1
561 175 1
561 178 1
561 180 1
561 183 1
561 186 1
561 192 1
561 193 1
561 204 1
561 217 1
561 218 1
561 219 1
561 225 1
561 237 1
561 242 1
561 243 1
561 247 1
561 249 1
561 250 1
561 251 1
561 253 1
561 254 1
561 255 1
561 256 1
561 266 1
561 277 1
561 284 1
561 290 1
561 294 1
561 301 1
561 305 1
561 306 1
561 313 1
561 314 1
561 321 1
561 344 1
561 347 1
561 356 1
561 361 1
561 364 1
561 365 1
561 369 1
561 372 1
561 378 1
561 397 1
561 402 1
561 410 1
561 411 1
561 415 1
561 417 1
561 422 1
561 424 1
561 434 1
561 435 1
561 438 1
561 446 1
561 452 1
561 454 1
561 459 1
561 465 1
561 466 1
561 469 1
561 473 1
561 474 1
561 475 1
561 483 1
561 488 1
561 493 1
561 494 1
561 496 1
561 497 1
561 503 1
561 508 1
561 518 1
561 523 1
561 526 1
561 527 1
561 534 1
561 535 1
561 537 1
561 544 1
561 546 1
561 549 1
561 550 1
561 553 1
561 563 1
561 568 1
561 575 1
561 578 1
561 582 1
561 584 1
561 593 1
561 599 1
562 12 1
562 16 1
562 25 1
562 27 1
562 35 1
562 38 1
562 44 1
562 48 1
562 57 1
562 73 1
562 75 1
562 78 1
562 80 1
562 82 1
562 84 1
562 87 1
562 88 1
562 94 1
562 106 1
562 111 1
562 112 1
562 116 1
562 118 1
562 126 1
562 132 1
562 134 1
562 136 1
562 141 1
562 155 1
562 169 1
562 175 1
562 180 1
562 181 1
562 185 1
562 188 1
562 191 1
562 192 1
562 198 1
562 200 1
562 207 1
562 215 1
562 216 1
562 217 1
562 222 1
562 229 1
562 232 1
562 234 1
562 237 1
562 238 1
562 239 1
562 249 1
562 261 1
562 269 1
562 273 1
562 275 1
562 280 1
562 281 1
562 286 1
562 289 1
562 293 1
562 296 1
562 299 1
562 320 1
562 322 1
562 323 1
562 334 1
562 336 1
562 340 1
562 343 1
562 345 1
562 348 1
562 353 1
562 364 1
562 368 1
562 374 1
562 380 1
562 381 1
562 386 1
562 397 1
562 404 1
562 406 1
562 428 1
562 441 1
562 447 1
562 454 1
562 477 1
562 483 1
562 485 1
562 486 1
562 497 1
562 498 1
562 502 1
562 504 1
562 511 1
562 512 1
562 515 1
562 532 1
562 534 1
562 535 1
562 541 1
562 542 1
562 546 1
562 557 1
562 572 1
562 574 1
562 576 1
563 1 1
563 12 1
563 13 1
563 19 1
563 23 1
563 25 1
563 32 1
563 34 1
563 43 1
563 47 1
563 53 1
563 60 1
563 62 1
563 74 1
563 76 1
563 77 1
563 86 1
563 90 1
563 93 1
563 106 1
563 107 1
563 111 1
563 134 1
563 138 1
563 139 1
563 147 1
563 157 1
563 158 1
563 162 1
563 163 1
563 169 1
563 178 1
563 193 1
563 194 1
563 203 1
563 206 1
563 214 1
563 222 1
563 224 1
563 230 1
563 243 1
563 244 1
563 250 1
563 251 1
563 252 1
563 260 1
563 261 1
563 271 1
563 275 1
563 278 1
563 291 1
563 299 1
563 303 1
563 304 1
563 312 1
563 317 1
563 321 1
563 322 1
563 324 1
563 327 1
563 330 1
563 351 1
563 352 1
563 354 1
563 366 1
563 370 1
563 372 1
563 374 1
563 388 1
563 391 1
563 399 1
563 401 1
563 409 1
563 418 1
563 420 1
563 425 1
563 437 1
563 441 1
563 447 1
563 450 1
563 453 1
563 467 1
563 474 1
563 479 1
563 489 1
563 496 1
563 500 1
563 501 1
563 502 1
563 505 1
563 520 1
563 529 1
563 543 1
563 544 1
563 546 1
563 550 1
563 558 1
563 559 1
563 560 1
563 561 1
563 574 1
563 580 1
563 583 1
563 589 1
563 599 1
564 3 1
564 26 1
564 27 1
564 28 1
564 39 1
564 49 1
564 51 1
564 58 1
564 68 1
564 70 1
564 71 1
564 73 1
564 81 1
564 85 1
564 89 1
564 98 1
564 99 1
564 102 1
564 104 1
564 111 1
564 114 1
564 119 1
564 121 1
564 124 1
564 130 1
564 134 1
564 137 1
564 143 1
564 148 1
564 151 1
564 152 1
564 169 1
564 175 1
564 180 1
564 183 1
564 186 1
564 189 1
564 197 1
564 198 1
564 203 1
564 226 1
564 239 1
564 241 1
564 242 1
564 250 1
564 263 1
564 264 1
564 265 1
564 269 1
564 275 1
564 278 1
564 281 1
564 286 1
564 293 1
564 295 1
564 306 1
564 311 1
564 314 1
564 320 1
564 323 1
564 327 1
564 330 1
564 331 1
564 335 1
564 341 1
564 345 1
564 347 1
564 349 1
564 351 1
564 353 1
564 357 1
564 361 1
564 363 1
564 364 1
564 366 1
564 367 1
564 368 1
564 371 1
564 377 1
564 391 1
564 399 1
564 403 1
564 406 1
564 407 1
564 409 1
564 413 1
564 416 1
564 434 1
564 439 1
564 458 1
564 460 1
564 463 1
564 488 1
564 493 1
564 494 1
564 495 1
564 501 1
564 502 1
564 504 1
564 507 1
564 508 1
564 511 1
564 514 1
564 515 1
564 519 1
564 525 1
564 526 1
564 528 1
564 530 1
564 534 1
564 538 1
564 540 1
564 541 1
564 556 1
564 595 1
565 2 1
565 7 1
565 30 1
565 36 1
565 45 1
565 48 1
565 49 1
565 52 1
565 62 1
565 64 1
565 68 1
565 69 1
565 73 1
565 78 1
565 86 1
565 94 1
565 99 1
565 100 1
565 102 1
565 104 1
565 105 1
565 116 1
565 125 1
565 129 1
565 135 1
565 137 1
565 145 1
565 153 1
565 156 1
565 158 1
565 166 1
565 173 1
565 176 1
565 178 1
565 190 1
565 192 1
565 193 1
565 194 1
565 201 1
565 204 1
565 209 1
565 211 1
565 214 1
565 217 1
565 225 1
565 227 1
565 236 1
565 239 1
565 240 1
565 251 1
565 260 1
565 261 1
565 262 1
565 270 1
565 275 1
565 280 1
565 285 1
565 294 1
565 301 1
565 304 1
565 308 1
565 318 1
565 320 1
565 324 1
565 327 1
565 330 1
565 339 1
565 343 1
565 347 1
565 348 1
565 355 1
565 356 1
565 360 1
565 362 1
565 368 1
565 378 1
565 387 1
565 388 1
565 401 1
565 402 1
565 404 1
565 423 1
565 434 1
565 438 1
565 439 1
565 443 1
565 457 1
565 461 1
565 470 1
565 473 1
565 477 1
565 479 1
565 483 1
565 487 1
565 489 1
565 490 1
565 492 1
565 494 1
565 510 1
565 524 1
565 530 1
565 533 1
565 537 1
565 543 1
565 544 1
565 546 1
565 551 1
565 556 1
565 557 1
565 576 1
565 581 1
565 594 1
566 2 1
566 3 1
566 4 1
566 5 1
566 6 1
566 11 1
566 15 1
566 19 1
566 23 1
566 27 1
566 41 1
566 42 1
566 52 1
566 55 1
566 56 1
566 64 1
566 70 1
566 72 1
566 74 1
566 82 1
566 84 1
566 89 1
566 98 1
566 99 1
566 104 1
566 108 1
566 113 1
566 125 1
566 133 1
566 145 1
566 147 1
566 155 1
566 156 1
566 158 1
566 159 1
566 160 1
566 161 1
566 163 1
566 164 1
566 167 1
566 169 1
566 196 1
566 200 1
566 202 1
566 209 1
566 212 1
566 215 1
566 222 1
566 229 1
566 233 1
566 241 1
566 243 1
566 252 1
566 257 1
566 269 1
566 273 1
566 274 1
566 277 1
566 282 1
566 289 1
566 300 1
566 303 1
566 310 1
566 312 1
566 313 1
566 314 1
566 315 1
566 316 1
566 317 1
566 321 1
566 328 1
566 333 1
566 338 1
566 344 1
566 350 1
566 358 1
566 363 1
566 366 1
566 373 1
566 376 1
566 389 1
566 390 1
566 392 1
566 397 1
566 398 1
566 401 1
566 409 1
566 413 1
566 414 1
566 415 1
566 424 1
566 430 1
566 444 1
566 449 1
566 450 1
566 453 1
566 454 1
566 456 1
566 457 1
566 466 1
566 473 1
566 477 1
566 483 1
566 484 1
566 495 1
566 496 1
566 506 1
566 514 1
566 523 1
566 524 1
566 525 1
566 526 1
566 527 1
566 532 1
566 539 1
566 543 1
566 544 1
566 549 1
566 558 1
566 567 1
566 568 1
566 572 1
566 574 1
566 581 1
566 590 1
566 598 1
566 600 1
567 14 1
567 16 1
567 21 1
567 29 1
567 35 1
567 39 1
567 41 1
567 42 1
567 48 1
567 50 1
567 51 1
567 55 1
567 67 1
567 80 1
567 86 1
567 93 1
567 99 1
567 100 1
567 116 1
567 120 1
567 141 1
567 146 1
567 157 1
567 158 1
567 160 1
567 171 1
567 172 1
567 178 1
567 183 1
567 190 1
567 206 1
567 213 1
567 221 1
567 226 1
567 227 1
567 230 1
567 267 1
567 271 1
567 273 1
567 279 1
567 286 1
567 287 1
567 298 1
567 299 1
567 301 1
567 303 1
567 304 1
567 306 1
567 310 1
567 317 1
567 318 1
567 331 1
567 346 1
567 348 1
567 353 1
567 362 1
567 370 1
567 372 1
567 380 1
567 384 1
567 385 1
567 386 1
567 395 1
567 396 1
567 400 1
567 401 1
567 402 1
567 405 1
567 406 1
567 408 1
567 416 1
567 419 1
567 434 1
567 436 1
567 443 1
567 444 1
567 447 1
567 455 1
567 457 1
567 460 1
567 462 1
567 464 1
567 476 1
567 484 1
567 485 1
567 498 1
567 499 1
567 501 1
567 504 1
567 506 1
567 507 1
567 511 1
567 515 1
567 516 1
567 517 1
567 521 1
567 529 1
567 542 1
567 548 1
567 552 1
567 566 1
567 572 1
567 575 1
567 577 1
567 581 1
567 583 1
567 586 1
567 587 1
567 591 1
568 5 1
568 17 1
568 34 1
568 39 1
568 44 1
568 46 1
568 48 1
568 55 1
568 70 1
568 73 1
568 76 1
568 90 1
568 93 1
568 95 1
568 96 1
568 97 1
568 106 1
568 114 1
568 116 1
568 119 1
568 122 1
568 132 1
568 133 1
568 143 1
568 145 1
568 147 1
568 152 1
568 154 1
568 155 1
568 157 1
568 159 1
568 161 1
568 164 1
568 165 1
568 168 1
568 177 1
568 179 1
568 197 1
568 198 1
568 201 1
568 210 1
568 222 1
568 223 1
568 224 1
568 225 1
568 229 1
568 236 1
568 237 1
568 243 1
568 244 1
568 245 1
568 252 1
568 260 1
568 266 1
568 267 1
568 270 1
568 272 1
568 276 1
568 278 1
568 279 1
568 282 1
568 285 1
568 287 1
568 290 1
568 292 1
568 293 1
568 296 1
568 298 1
568 301 1
568 314 1
568 315 1
568 320 1
568 327 1
568 332 1
568 333 1
568 338 1
568 347 1
568 349 1
568 357 1
568 363 1
568 372 1
568 374 1
568 385 1
568 396 1
568 401 1
568 420 1
568 426 1
568 431 1
568 432 1
568 440 1
568 442 1
568 448 1
568 449 1
568 450 1
568 451 1
568 456 1
568 467 1
568 470 1
568 472 1
568 481 1
568 491 1
568 493 1
568 495 1
568 496 1
568 497 1
568 498 1
568 501 1
568 503 1
568 507 1
568 521 1
568 522 1
568 525 1
568 527 1
568 528 1
568 530 1
568 540 1
568 546 1
568 548 1
568 559 1
568 561 1
568 566 1
568 570 1
568 588 1
568 591 1
569 11 1
569 16 1
569 18 1
569 25 1
569 31 1
569 42 1
569 65 1
569 67 1
569 71 1
569 73 1
569 74 1
569 79 1
569 94 1
569 96 1
569 126 1
569 129 1
569 130 1
569 134 1
569 144 1
569 147 1
569 151 1
569 153 1
569 168 1
569 172 1
569 177 1
569 183 1
569 186 1
569 191 1
569 195 1
569 198 1
569 203 1
569 204 1
569 205 1
569 211 1
569 213 1
569 217 1
569 218 1
569 227 1
569 229 1
569 258 1
569 259 1
569 261 1
569 265 1
569 266 1
569 274 1
569 275 1
569 277 1
569 288 1
569 293 1
569 304 1
569 311 1
569 319 1
569 320 1
569 324 1
569 336 1
569 337 1
569 350 1
569 352 1
569 356 1
569 358 1
569 365 1
569 366 1
569 374 1
569 396 1
569 401 1
569 409 1
569 413 1
569 418 1
569 421 1
569 436 1
569 443 1
569 448 1
569 474 1
569 476 1
569 478 1
569 482 1
569 499 1
569 502 1
569 506 1
569 509 1
569 510 1
569 511 1
569 519 1
569 520 1
569 524 1
569 526 1
569 535 1
569 545 1
569 556 1
569 570 1
569 572 1
569 575 1
569 576 1
569 583 1
569 591 1
569 594 1
570 1 1
570 13 1
570 15 1
570 19 1
570 23 1
570 25 1
570 32 1
570 33 1
570 48 1
570 60 1
570 68 1
570 76 1
570 78 1
570 80 1
570 85 1
570 86 1
570 107 1
570 108 1
570 121 1
570 122 1
570 124 1
570 127 1
570 132 1
570 133 1
570 138 1
570 143 1
570 146 1
570 151 1
570 155 1
570 166 1
570 170 1
570 174 1
570 186 1
570 187 1
570 193 1
570 197 1
570 201 1
570 209 1
570 211 1
570 212 1
570 216 1
570 217 1
570 218 1
570 222 1
570 226 1
570 233 1
570 239 1
570 247 1
570 252 1
570 253 1
570 255 1
570 256 1
570 258 1
570 264 1
570 267 1
570 271 1
570 275 1
570 276 1
570 278 1
570 283 1
570 289 1
570 296 1
570 300 1
570 303 1
570 312 1
570 316 1
570 320 1
570 325 1
570 328 1
570 329 1
570 335 1
570 346 1
570 347 1
570 352 1
570 356 1
570 357 1
570 374 1
570 378 1
570 379 1
570 382 1
570 390 1
570 396 1
570 399 1
570 401 1
570 405 1
570 409 1
570 411 1
570 415 1
570 416 1
570 417 1
570 421 1
570 429 1
570 433 1
570 439 1
570 440 1
570 444 1
570 448 1
570 451 1
570 452 1
570 458 1
570 459 1
570 465 1
570 466 1
570 471 1
570 474 1
570 475 1
570 482 1
570 488 1
570 501 1
570 514 1
570 517 1
570 519 1
570 522 1
570 528 1
570 530 1
570 533 1
570 536 1
570 537 1
570 547 1
570 557 1
570 558 1
570 568 1
570 569 1
570 577 1
570 598 1
571 1 1
571 11 1
571 16 1
571 19 1
571 34 1
571 36 1
571 39 1
571 42 1
571 45 1
571 55 1
571 56 1
571 58 1
571 63 1
571 66 1
571 71 1
571 72 1
571 75 1
571 76 1
571 82 1
571 83 1
571 89 1
571 96 1
571 101 1
571 107 1
571 110 1
571 122 1
571 125 1
571 128 1
571 135 1
571 140 1
571 149 1
571 150 1
571 154 1
571 163 1
571 165 1
571 178 1
571 187 1
571 189 1
571 196 1
571 198 1
571 204 1
571 212 1
571 220 1
571 224 1
571 229 1
571 240 1
571 245 1
571 247 1
571 253 1
571 256 1
571 266 1
571 278 1
571 285 1
571 293 1
571 294 1
571 299 1
571 307 1
571 313 1
571 318 1
571 319 1
571 330 1
571 344 1
571 365 1
571 368 1
571 371 1
571 373 1
571 377 1
571 378 1
571 379 1
571 385 1
571 402 1
571 405 1
571 406 1
571 418 1
571 425 1
571 434 1
571 443 1
571 451 1
571 453 1
571 455 1
571 463 1
571 467 1
571 469 1
571 479 1
571 482 1
571 490 1
571 493 1
571 494 1
571 496 1
571 497 1
571 505 1
571 509 1
571 518 1
571 520 1
571 524 1
571 525 1
571 527 1
571 529 1
571 530 1
571 545 1
571 552 1
571 553 1
571 557 1
571 575 1
571 600 1
572 1 1
572 2 1
572 5 1
572 8 1
572 20 1
572 27 1
572 28 1
572 36 1
572 38 1
572 40 1
572 54 1
572 57 1
572 59 1
572 62 1
572 65 1
572 66 1
572 71 1
572 73 1
572 75 1
572 79 1
572 82 1
572 83 1
572 88 1
572 94 1
572 102 1
572 107 1
572 112 1
572 114 1
572 117 1
572 123 1
572 125 1
572 131 1
572 137 1
572 148 1
572 149 1
572 152 1
572 155 1
572 160 1
572 162 1
572 172 1
572 174 1
572 180 1
572 183 1
572 191 1
572 195 1
572 198 1
572 205 1
572 210 1
572 231 1
572 236 1
572 243 1
572 245 1
572 251 1
572 252 1
572 255 1
572 256 1
572 260 1
572 264 1
572 267 1
572 284 1
572 291 1
572 299 1
572 305 1
572 309 1
572 312 1
572 321 1
572 323 1
572 336 1
572 353 1
572 363 1
572 366 1
572 378 1
572 379 1
572 382 1
572 385 1
572 393 1
572 394 1
572 407 1
572 426 1
572 437 1
572 438 1
572 446 1
572 449 1
572 450 1
572 451 1
572 454 1
572 462 1
572 464 1
572 465 1
572 468 1
572 471 1
572 472 1
572 477 1
572 478 1
572 483 1
572 490 1
572 493 1
572 494 1
572 499 1
572 507 1
572 509 1
572 524 1
572 525 1
572 527 1
572 534 1
572 537 1
572 539 1
572 543 1
572 549 1
572 554 1
572 562 1
572 566 1
572 567 1
572 569 1
572 573 1
572 574 1
572 577 1
572 579 1
572 594 1
572 598 1
573 2 1
573 7 1
573 13 1
573 21 1
573 23 1
573 28 1
573 29 1
573 32 1
573 33 1
573 35 1
573 38 1
573 39 1
573 41 1
573 43 1
573 46 1
573 56 1
573 69 1
573 71 1
573 78 1
573 114 1
573 115 1
573 117 1
573 118 1
573 130 1
573 131 1
573 141 1
573 142 1
573 148 1
573 158 1
573 159 1
573 162 1
573 163 1
573 166 1
573 173 1
573 186 1
573 188 1
573 191 1
573 193 1
573 196 1
573 197 1
573 206 1
573 207 1
573 209 1
573 210 1
573 216 1
573 236 1
573 245 1
573 252 1
573 255 1
573 256 1
573 257 1
573 262 1
573 267 1
573 272 1
573 273 1
573 280 1
573 289 1
573 291 1
573 295 1
573 300 1
573 309 1
573 317 1
573 319 1
573 322 1
573 324 1
573 331 1
573 334 1
573 337 1
573 338 1
573 339 1
573 342 1
573 346 1
573 347 1
573 349 1
573 350 1
573 351 1
573 356 1
573 357 1
573 366 1
573 368 1
573 369 1
573 371 1
573 376 1
573 379 1
573 394 1
573 405 1
573 407 1
573 413 1
573 418 1
573 421 1
573 422 1
573 424 1
573 427 1
573 432 1
573 437 1
573 444 1
573 446 1
573 451 1
573 454 1
573 457 1
573 461 1
573 473 1
573 474 1
573 488 1
573 490 1
573 493 1
573 497 1
573 498 1
573 500 1
573 504 1
573 507 1
573 510 1
573 511 1
573 514 1
573 523 1
573 527 1
573 528 1
573 535 1
573 546 1
573 549 1
573 551 1
573 554 1
573 555 1
573 556 1
573 560 1
573 572 1
573 574 1
573 575 1
573 581 1
573 591 1
573 600 1
574 5 1
574 11 1
574 15 1
574 21 1
574 22 1
574 23 1
574 27 1
574 29 1
574 52 1
574 53 1
574 59 1
574 61 1
574 74 1
574 78 1
574 80 1
574 89 1
574 105 1
574 107 1
574 108 1
574 115 1
574 117 1
574 118 1
574 122 1
574 125 1
574 129 1
574 131 1
574 137 1
574 145 1
574 156 1
574 166 1
574 168 1
574 170 1
574 175 1
574 185 1
574 196 1
574 198 1
574 204 1
574 206 1
574 207 1
574 208 1
574 210 1
574 216 1
574 223 1
574 224 1
574 225 1
574 231 1
574 236 1
574 256 1
574 263 1
574 264 1
574 273 1
574 287 1
574 290 1
574 295 1
574 304 1
574 305 1
574 310 1
574 320 1
574 330 1
574 331 1
574 337 1
574 350 1
574 366 1
574 376 1
574 382 1
574 385 1
574 390 1
574 397 1
574 399 1
574 411 1
574 420 1
574 425 1
574 437 1
574 447 1
574 451 1
574 459 1
574 461 1
574 469 1
574 470 1
574 476 1
574 477 1
574 478 1
574 481 1
574 482 1
574 497 1
574 500 1
574 505 1
574 507 1
574 510 1
574 528 1
574 530 1
574 534 1
574 562 1
574 563 1
574 566 1
574 572 1
574 573 1
574 585 1
574 595 1
574 599 1
575 3 1
575 9 1
575 11 1
575 12 1
575 18 1
575 28 1
575 33 1
575 42 1
575 43 1
575 47 1
575 55 1
575 56 1
575 62 1
575 71 1
575 73 1
575 76 1
575 78 1
575 84 1
575 88 1
575 94 1
575 100 1
575 101 1
575 105 1
575 110 1
575 114 1
575 116 1
575 118 1
575 126 1
575 130 1
575 133 1
575 134 1
575 135 1
575 138 1
575 139 1
575 144 1
575 159 1
575 164 1
575 168 1
575 188 1
575 189 1
575 195 1
575 197 1
575 199 1
575 201 1
575 215 1
575 221 1
575 224 1
575 226 1
575 228 1
575 231 1
575 235 1
575 237 1
575 243 1
575 251 1
575 267 1
575 278 1
575 286 1
575 294 1
575 298 1
575 315 1
575 319 1
575 329 1
575 330 1
575 332 1
575 337 1
575 353 1
575 362 1
575 372 1
575 378 1
575 382 1
575 385 1
575 387 1
575 398 1
575 403 1
575 404 1
575 408 1
575 409 1
575 413 1
575 417 1
575 420 1
575 421 1
575 424 1
575 426 1
575 427 1
575 429 1
575 430 1
575 433 1
575 438 1
575 448 1
575 458 1
575 460 1
575 467 1
575 478 1
575 479 1
575 481 1
575 494 1
575 498 1
575 501 1
575 504 1
575 507 1
575 509 1
575 511 1
575 512 1
575 513 1
575 518 1
575 520 1
575 522 1
575 525 1
575 528 1
575 529 1
575 533 1
575 535 1
575 539 1
575 547 1
575 549 1
575 555 1
575 558 1
575 559 1
575 561 1
575 567 1
575 569 1
575 571 1
575 573 1
575 582 1
575 584 1
575 596 1
576 7 1
576 8 1
576 14 1
576 23 1
576 28 1
576 36 1
576 38 1
576 48 1
576 71 1
576 90 1
576 103 1
576 111 1
576 115 1
576 121 1
576 124 1
576 127 1
576 130 1
576 137 1
576 145 1
576 147 1
576 148 1
576 152 1
576 153 1
576 156 1
576 167 1
576 169 1
576 170 1
576 171 1
576 176 1
576 182 1
576 184 1
576 187 1
576 191 1
576 193 1
576 216 1
576 218 1
576 233 1
576 234 1
576 239 1
576 242 1
576 244 1
576 245 1
576 251 1
576 252 1
576 253 1
576 263 1
576 267 1
576 269 1
576 275 1
576 285 1
576 289 1
576 293 1
576 301 1
576 303 1
576 321 1
576 323 1
576 327 1
576 328 1
576 329 1
576 334 1
576 340 1
576 342 1
576 345 1
576 348 1
576 359 1
576 361 1
576 365 1
576 383 1
576 385 1
576 388 1
576 392 1
576 393 1
576 395 1
576 399 1
576 400 1
576 403 1
576 407 1
576 413 1
576 414 1
576 425 1
576 426 1
576 430 1
576 432 1
576 447 1
576 450 1
576 453 1
576 459 1
576 468 1
576 474 1
576 475 1
576 482 1
576 484 1
576 487 1
576 497 1
576 499 1
576 501 1
576 505 1
576 512 1
576 516 1
576 520 1
576 526 1
576 528 1
576 532 1
576 534 1
576 535 1
576 537 1
576 545 1
576 548 1
576 555 1
576 560 1
576 562 1
576 565 1
576 569 1
576 578 1
576 588 1
576 594 1
576 596 1
576 597 1
577 4 1
577 5 1
577 6 1
577 9 1
577 25 1
577 30 1
577 33 1
577 37 1
577 40 1
577 42 1
577 43 1
577 44 1
577 49 1
577 54 1
577 59 1
577 61 1
577 63 1
577 74 1
577 75 1
577 82 1
577 112 1
577 120 1
577 132 1
577 133 1
577 143 1
577 150 1
577 155 1
577 157 1
577 158 1
577 160 1
577 162 1
577 165 1
577 170 1
577 175 1
577 178 1
577 179 1
577 182 1
577 187 1
577 188 1
577 189 1
577 193 1
577 197 1
577 199 1
577 202 1
577 213 1
577 214 1
577 218 1
577 220 1
577 222 1
577 224 1
577 233 1
577 235 1
577 241 1
577 244 1
577 256 1
577 263 1
577 265 1
577 272 1
577 273 1
577 275 1
577 282 1
577 287 1
577 291 1
577 303 1
577 319 1
577 320 1
577 325 1
577 326 1
577 335 1
577 345 1
577 351 1
577 355 1
577 356 1
577 360 1
577 368 1
577 370 1
577 371 1
577 380 1
577 386 1
577 387 1
577 390 1
577 392 1
577 394 1
577 396 1
577 405 1
577 406 1
577 409 1
577 410 1
577 414 1
577 422 1
577 425 1
577 428 1
577 430 1
577 437 1
577 445 1
577 446 1
577 447 1
577 462 1
577 469 1
577 472 1
577 479 1
577 492 1
577 495 1
577 499 1
577 500 1
577 502 1
577 508 1
577 513 1
577 514 1
577 519 1
577 520 1
577 522 1
577 526 1
577 534 1
577 540 1
577 541 1
577 542 1
577 547 1
577 552 1
577 553 1
577 554 1
577 567 1
577 570 1
577 572 1
577 587 1
577 592 1
578 2 1
578 4 1
578 19 1
578 26 1
578 31 1
578 36 1
578 37 1
578 40 1
578 41 1
578 44 1
578 52 1
578 55 1
578 59 1
578 60 1
578 67 1
578 71 1
578 73 1
578 79 1
578 87 1
578 89 1
578 97 1
578 98 1
578 107 1
578 112 1
578 116 1
578 119 1
578 120 1
578 123 1
578 127 1
578 138 1
578 143 1
578 147 1
578 150 1
578 151 1
578 153 1
578 155 1
578 157 1
578 161 1
578 162 1
578 168 1
578 169 1
578 175 1
578 178 1
578 185 1
578 186 1
578 199 1
578 205 1
578 206 1
578 209 1
578 219 1
578 220 1
578 225 1
578 233 1
578 234 1
578 240 1
578 243 1
578 245 1
578 248 1
578 251 1
578 252 1
578 255 1
578 258 1
578 260 1
578 261 1
578 265 1
578 268 1
578 273 1
578 274 1
578 277 1
578 280 1
578 282 1
578 285 1
578 287 1
578 289 1
578 290 1
578 299 1
578 307 1
578 310 1
578 325 1
578 327 1
578 328 1
578 329 1
578 334 1
578 337 1
578 343 1
578 350 1
578 352 1
578 356 1
578 357 1
578 360 1
578 375 1
578 382 1
578 384 1
578 401 1
578 409 1
578 410 1
578 415 1
578 416 1
578 417 1
578 419 1
578 420 1
578 434 1
578 435 1
578 436 1
578 437 1
578 439 1
578 442 1
578 454 1
578 460 1
578 461 1
578 465 1
578 471 1
578 473 1
578 477 1
578 480 1
578 481 1
578 483 1
578 493 1
578 497 1
578 505 1
578 522 1
578 523 1
578 527 1
578 531 1
578 539 1
578 544 1
578 546 1
578 548 1
578 549 1
578 553 1
578 561 1
578 576 1
578 582 1
578 584 1
578 585 1
578 588 1
578 593 1
579 2 1
579 8 1
579 10 1
579 18 1
579 19 1
579 22 1
579 23 1
579 27 1
579 29 1
579 42 1
579 51 1
579 54 1
579 57 1
579 61 1
579 62 1
579 66 1
579 69 1
579 73 1
579 92 1
579 100 1
579 101 1
579 108 1
579 110 1
579 114 1
579 121 1
579 123 1
579 124 1
579 127 1
579 146 1
579 153 1
579 160 1
579 161 1
579 168 1
579 171 1
579 177 1
579 178 1
579 190 1
579 206 1
579 209 1
579 210 1
579 212 1
579 217 1
579 221 1
579 233 1
579 243 1
579 247 1
579 250 1
579 251 1
579 263 1
579 276 1
579 286 1
579 289 1
579 299 1
579 307 1
579 310 1
579 314 1
579 318 1
579 320 1
579 329 1
579 332 1
579 333 1
579 337 1
579 338 1
579 351 1
579 352 1
579 354 1
579 365 1
579 371 1
579 377 1
579 384 1
579 389 1
579 392 1
579 395 1
579 396 1
579 397 1
579 409 1
579 416 1
579 418 1
579 432 1
579 434 1
579 437 1
579 439 1
579 451 1
579 455 1
579 462 1
579 463 1
579 466 1
579 468 1
579 469 1
579 478 1
579 480 1
579 497 1
579 498 1
579 504 1
579 505 1
579 509 1
579 510 1
579 514 1
579 519 1
579 524 1
579 531 1
579 532 1
579 538 1
579 539 1
579 541 1
579 542 1
579 546 1
579 553 1
579 554 1
579 555 1
579 558 1
579 572 1
579 588 1
579 591 1
580 4 1
580 21 1
580 23 1
580 33 1
580 34 1
580 37 1
580 45 1
580 54 1
580 57 1
580 58 1
580 60 1
580 66 1
580 82 1
580 87 1
580 88 1
580 89 1
580 94 1
580 104 1
580 106 1
580 114 1
580 115 1
580 128 1
580 132 1
580 136 1
580 138 1
580 145 1
580 146 1
580 152 1
580 158 1
580 160 1
580 168 1
580 172 1
580 174 1
580 195 1
580 202 1
580 211 1
580 216 1
580 228 1
580 229 1
580 238 1
580 255 1
580 263 1
580 273 1
580 276 1
580 281 1
580 288 1
580 294 1
580 307 1
580 310 1
580 313 1
580 314 1
580 316 1
580 323 1
580 325 1
580 328 1
580 336 1
580 338 1
580 343 1
580 344 1
580 351 1
580 357 1
580 361 1
580 363 1
580 370 1
580 380 1
580 391 1
580 393 1
580 400 1
580 401 1
580 402 1
580 404 1
580 406 1
580 412 1
580 421 1
580 438 1
580 449 1
580 459 1
580 460 1
580 470 1
580 471 1
580 473 1
580 481 1
580 488 1
580 491 1
580 496 1
580 504 1
580 511 1
580 514 1
580 515 1
580 521 1
580 523 1
580 535 1
580 540 1
580 552 1
580 554 1
580 557 1
580 563 1
580 582 1
580 583 1
580 589 1
580 595 1
580 596 1
580 598 1
581 6 1
581 8 1
581 9 1
581 18 1
581 23 1
581 26 1
581 27 1
581 28 1
581 29 1
581 32 1
581 35 1
581 38 1
581 39 1
581 41 1
581 42 1
581 43 1
581 44 1
581 52 1
581 55 1
581 58 1
581 62 1
581 77 1
581 89 1
581 104 1
581 126 1
581 127 1
581 130 1
581 137 1
581 138 1
581 151 1
581 152 1
581 156 1
581 170 1
581 186 1
581 191 1
581 194 1
581 196 1
581 200 1
581 205 1
581 213 1
581 216 1
581 217 1
581 219 1
581 220 1
581 222 1
581 224 1
581 227 1
581 229 1
581 231 1
581 234 1
581 241 1
581 244 1
581 246 1
581 248 1
581 249 1
581 256 1
581 257 1
581 258 1
581 262 1
581 265 1
581 274 1
581 279 1
581 282 1
581 289 1
581 298 1
581 306 1
581 308 1
581 310 1
581 322 1
581 327 1
581 328 1
581 337 1
581 340 1
581 357 1
581 358 1
581 366 1
581 368 1
581 370 1
581 371 1
581 372 1
581 375 1
581 379 1
581 385 1
581 389 1
581 390 1
581 396 1
581 400 1
581 406 1
581 408 1
581 415 1
581 418 1
581 422 1
581 433 1
581 434 1
581 435 1
581 438 1
581 439 1
581 446 1
581 452 1
581 467 1
581 471 1
581 472 1
581 475 1
581 482 1
581 484 1
581 485 1
581 494 1
581 497 1
581 504 1
581 505 1
581 510 1
581 511 1
581 516 1
581 517 1
581 521 1
581 531 1
581 537 1
581 540 1
581 546 1
581 547 1
581 548 1
581 551 1
581 557 1
581 565 1
581 566 1
581 567 1
581 573 1
582 1 1
582 6 1
582 13 1
582 14 1
582 17 1
582 20 1
582 26 1
582 27 1
582 38 1
582 69 1
582 70 1
582 74 1
582 89 1
582 107 1
582 110 1
582 115 1
582 116 1
582 118 1
582 120 1
582 127 1
582 129 1
582 130 1
582 140 1
582 141 1
582 150 1
582 155 1
582 159 1
582 160 1
582 164 1
582 169 1
582 171 1
582 176 1
582 187 1
582 192 1
582 194 1
582 196 1
582 198 1
582 199 1
582 201 1
582 203 1
582 206 1
582 210 1
582 230 1
582 231 1
582 232 1
582 237 1
582 244 1
582 246 1
582 253 1
582 255 1
582 257 1
582 260 1
582 261 1
582 270 1
582 277 1
582 281 1
582 282 1
582 285 1
582 288 1
582 295 1
582 302 1
582 307 1
582 319 1
582 323 1
582 325 1
582 327 1
582 330 1
582 332 1
582 334 1
582 336 1
582 341 1
582 343 1
582 348 1
582 350 1
582 355 1
582 363 1
582 367 1
582 386 1
582 391 1
582 392 1
582 399 1
582 401 1
582 402 1
582 407 1
582 409 1
582 412 1
582 421 1
582 422 1
582 424 1
582 434 1
582 437 1
582 441 1
582 448 1
582 449 1
582 452 1
582 453 1
582 460 1
582 465 1
582 483 1
582 484 1
582 485 1
582 487 1
582 488 1
582 494 1
582 505 1
582 507 1
582 508 1
582 509 1
582 519 1
582 522 1
582 523 1
582 525 1
582 529 1
582 536 1
582 541 1
582 545 1
582 553 1
582 561 1
582 575 1
582 578 1
582 580 1
583 7 1
583 21 1
583 23 1
583 27 1
583 35 1
583 38 1
583 46 1
583 48 1
583 49 1
583 52 1
583 54 1
583 58 1
583 60 1
583 61 1
583 65 1
583 67 1
583 68 1
583 69 1
583 70 1
583 72 1
583 74 1
583 79 1
583 83 1
583 88 1
583 102 1
583 103 1
583 106 1
583 113 1
583 118 1
583 122 1
583 128 1
583 133 1
583 134 1
583 144 1
583 151 1
583 161 1
583 168 1
583 176 1
583 191 1
583 196 1
583 198 1
583 200 1
583 201 1
583 212 1
583 213 1
583 235 1
583 237 1
583 240 1
583 244 1
583 248 1
583 254 1
583 260 1
583 263 1
583 271 1
583 274 1
583 277 1
583 285 1
583 296 1
583 297 1
583 301 1
583 306 1
583 310 1
583 315 1
583 316 1
583 318 1
583 323 1
583 339 1
583 342 1
583 343 1
583 345 1
583 353 1
583 358 1
583 359 1
583 367 1
583 370 1
583 372 1
583 373 1
583 380 1
583 381 1
583 383 1
583 384 1
583 398 1
583 401 1
583 405 1
583 407 1
583 409 1
583 426 1
583 432 1
583 433 1
583 440 1
583 441 1
583 442 1
583 446 1
583 449 1
583 451 1
583 452 1
583 461 1
583 463 1
583 468 1
583 469 1
583 473 1
583 474 1
583 475 1
583 481 1
583 491 1
583 496 1
583 503 1
583 505 1
583 511 1
583 513 1
583 517 1
583 528 1
583 533 1
583 538 1
583 541 1
583 544 1
583 546 1
583 547 1
583 548 1
583 555 1
583 556 1
583 563 1
583 567 1
583 569 1
583 580 1
583 584 1
583 589 1
583 596 1
584 1 1
584 8 1
584 19 1
584 20 1
584 33 1
584 35 1
584 36 1
584 37 1
584 48 1
584 52 1
584 75 1
584 93 1
584 98 1
584 99 1
584 106 1
584 111 1
584 112 1
584 115 1
584 118 1
584 119 1
584 120 1
584 141 1
584 147 1
584 148 1
584 149 1
584 154 1
584 156 1
584 166 1
584 170 1
584 173 1
584 181 1
584 209 1
584 214 1
584 215 1
584 223 1
584 238 1
584 240 1
584 241 1
584 244 1
584 252 1
584 262 1
584 271 1
584 273 1
584 291 1
584 295 1
584 300 1
584 301 1
584 311 1
584 312 1
584 314 1
584 315 1
584 331 1
584 334 1
584 337 1
584 343 1
584 347 1
584 357 1
584 361 1
584 366 1
584 375 1
584 380 1
584 384 1
584 386 1
584 391 1
584 403 1
584 408 1
584 410 1
584 413 1
584 415 1
584 416 1
584 423 1
584 425 1
584 426 1
584 432 1
584 433 1
584 434 1
584 436 1
584 438 1
584 442 1
584 444 1
584 455 1
584 460 1
584 463 1
584 469 1
584 481 1
584 483 1
584 487 1
584 492 1
584 496 1
584 504 1
584 508 1
584 510 1
584 513 1
584 521 1
584 522 1
584 525 1
584 527 1
584 539 1
584 544 1
584 545 1
584 546 1
584 556 1
584 557 1
584 558 1
584 561 1
584 575 1
584 578 1
584 583 1
584 588 1
584 589 1
584 590 1
584 591 1
584 597 1
584 600 1
585 4 1
585 10 1
585 13 1
585 15 1
585 20 1
585 23 1
585 24 1
585 27 1
585 31 1
585 32 1
585 37 1
585 38 1
585 47 1
585 48 1
585 53 1
585 55 1
585 56 1
585 57 1
585 66 1
585 69 1
585 76 1
585 78 1
585 90 1
585 92 1
585 96 1
585 98 1
585 100 1
585 108 1
585 116 1
585 118 1
585 123 1
585 130 1
585 141 1
585 142 1
585 160 1
585 164 1
585 173 1
585 177 1
585 185 1
585 194 1
585 201 1
585 202 1
585 207 1
585 216 1
585 222 1
585 225 1
585 227 1
585 229 1
585 233 1
585 238 1
585 241 1
585 242 1
585 255 1
585 260 1
585 261 1
585 271 1
585 276 1
585 277 1
585 278 1
585 280 1
585 282 1
585 284 1
585 287 1
585 296 1
585 322 1
585 324 1
585 327 1
585 338 1
585 349 1
585 350 1
585 355 1
585 357 1
585 360 1
585 362 1
585 363 1
585 365 1
585 369 1
585 370 1
585 375 1
585 378 1
585 381 1
585 384 1
585 389 1
585 392 1
585 397 1
585 400 1
585 405 1
585 407 1
585 409 1
585 411 1
585 417 1
585 418 1
585 419 1
585 425 1
585 428 1
585 442 1
585 448 1
585 462 1
585 463 1
585 464 1
585 468 1
585 469 1
585 478 1
585 480 1
585 483 1
585 485 1
585 489 1
585 496 1
585 499 1
585 501 1
585 502 1
585 507 1
585 511 1
585 518 1
585 520 1
585 521 1
585 523 1
585 529 1
585 530 1
585 536 1
585 538 1
585 540 1
585 544 1
585 551 1
585 557 1
585 558 1
585 574 1
585 578 1
585 588 1
585 589 1
585 592 1
585 595 1
586 2 1
586 13 1
586 16 1
586 20 1
586 28 1
586 29 1
586 30 1
586 35 1
586 39 1
586 43 1
586 45 1
586 47 1
586 49 1
586 55 1
586 62 1
586 64 1
586 66 1
586 71 1
586 72 1
586 86 1
586 89 1
586 91 1
586 96 1
586 102 1
586 104 1
586 105 1
586 106 1
586 116 1
586 121 1
586 124 1
586 126 1
586 131 1
586 139 1
586 144 1
586 145 1
586 146 1
586 150 1
586 154 1
586 156 1
586 165 1
586 166 1
586 168 1
586 179 1
586 187 1
586 202 1
586 211 1
586 216 1
586 218 1
586 225 1
586 227 1
586 229 1
586 230 1
586 238 1
586 242 1
586 249 1
586 250 1
586 258 1
586 265 1
586 273 1
586 285 1
586 289 1
586 301 1
586 302 1
586 306 1
586 310 1
586 321 1
586 338 1
586 340 1
586 344 1
586 345 1
586 347 1
586 352 1
586 359 1
586 362 1
586 365 1
586 367 1
586 373 1
586 375 1
586 381 1
586 386 1
586 388 1
586 389 1
586 390 1
586 402 1
586 405 1
586 407 1
586 415 1
586 417 1
586 427 1
586 433 1
586 434 1
586 441 1
586 442 1
586 443 1
586 446 1
586 454 1
586 459 1
586 464 1
586 476 1
586 488 1
586 492 1
586 493 1
586 497 1
586 499 1
586 501 1
586 504 1
586 505 1
586 506 1
586 519 1
586 524 1
586 528 1
586 543 1
586 545 1
586 546 1
586 551 1
586 555 1
586 556 1
586 559 1
586 567 1
586 593 1
586 594 1
587 4 1
587 5 1
587 8 1
587 14 1
587 21 1
587 25 1
587 32 1
587 40 1
587 57 1
587 61 1
587 63 1
587 64 1
587 74 1
587 75 1
587 76 1
587 88 1
587 100 1
587 102 1
587 103 1
587 104 1
587 106 1
587 108 1
587 111 1
587 118 1
587 123 1
587 124 1
587 126 1
587 127 1
587 134 1
587 138 1
587 141 1
587 148 1
587 152 1
587 154 1
587 160 1
587 162 1
587 181 1
587 184 1
587 196 1
587 200 1
587 213 1
587 218 1
587 219 1
587 221 1
587 224 1
587 229 1
587 240 1
587 241 1
587 249 1
587 250 1
587 255 1
587 261 1
587 263 1
587 279 1
587 290 1
587 301 1
587 303 1
587 309 1
587 318 1
587 319 1
587 327 1
587 329 1
587 331 1
587 338 1
587 341 1
587 342 1
587 344 1
587 345 1
587 351 1
587 358 1
587 364 1
587 367 1
587 368 1
587 370 1
587 375 1
587 379 1
587 381 1
587 382 1
587 385 1
587 396 1
587 408 1
587 415 1
587 416 1
587 420 1
587 427 1
587 434 1
587 435 1
587 439 1
587 443 1
587 444 1
587 445 1
587 453 1
587 457 1
587 461 1
587 462 1
587 464 1
587 471 1
587 490 1
587 491 1
587 492 1
587 503 1
587 507 1
587 508 1
587 523 1
587 524 1
587 526 1
587 535 1
587 537 1
587 538 1
587 556 1
587 559 1
587 567 1
587 577 1
588 1 1
588 3 1
588 19 1
588 26 1
588 27 1
588 29 1
588 34 1
588 36 1
588 39 1
588 40 1
588 57 1
588 58 1
588 61 1
588 74 1
588 81 1
588 82 1
588 87 1
588 89 1
588 91 1
588 94 1
588 96 1
588 100 1
588 105 1
588 106 1
588 109 1
588 143 1
588 146 1
588 148 1
588 160 1
588 170 1
588 172 1
588 181 1
588 185 1
588 186 1
588 187 1
588 190 1
588 194 1
588 197 1
588 200 1
588 207 1
588 208 1
588 211 1
588 219 1
588 228 1
588 233 1
588 240 1
588 247 1
588 248 1
588 251 1
588 256 1
588 261 1
588 269 1
588 285 1
588 289 1
588 290 1
588 294 1
588 296 1
588 298 1
588 300 1
588 303 1
588 309 1
588 313 1
588 315 1
588 318 1
588 319 1
588 329 1
588 330 1
588 332 1
588 336 1
588 350 1
588 353 1
588 354 1
588 362 1
588 366 1
588 374 1
588 376 1
588 384 1
588 395 1
588 398 1
588 399 1
588 402 1
588 406 1
588 410 1
588 411 1
588 419 1
588 428 1
588 430 1
588 432 1
588 440 1
588 444 1
588 447 1
588 449 1
588 453 1
588 461 1
588 463 1
588 483 1
588 495 1
588 496 1
588 502 1
588 508 1
588 509 1
588 514 1
588 518 1
588 534 1
588 540 1
588 544 1
588 547 1
588 548 1
588 551 1
588 552 1
588 556 1
588 560 1
588 568 1
588 576 1
588 578 1
588 579 1
588 584 1
588 585 1
588 595 1
588 598 1
589 1 1
589 2 1
589 7 1
589 11 1
589 16 1
589 18 1
589 20 1
589 26 1
589 27 1
589 29 1
589 35 1
589 42 1
589 46 1
589 49 1
589 52 1
589 53 1
589 58 1
589 59 1
589 61 1
589 74 1
589 78 1
589 83 1
589 85 1
589 88 1
589 94 1
589 100 1
589 105 1
589 107 1
589 108 1
589 111 1
589 115 1
589 117 1
589 118 1
589 121 1
589 128 1
589 129 1
589 151 1
589 152 1
589 154 1
589 156 1
589 158 1
589 169 1
589 170 1
589 172 1
589 177 1
589 183 1
589 187 1
589 188 1
589 194 1
589 195 1
589 198 1
589 204 1
589 213 1
589 214 1
589 220 1
589 225 1
589 228 1
589 229 1
589 235 1
589 241 1
589 242 1
589 244 1
589 248 1
589 249 1
589 255 1
589 256 1
589 258 1
589 262 1
589 276 1
589 283 1
589 285 1
589 290 1
589 292 1
589 297 1
589 307 1
589 309 1
589 311 1
589 315 1
589 316 1
589 319 1
589 320 1
589 323 1
589 340 1
589 341 1
589 342 1
589 346 1
589 348 1
589 358 1
589 359 1
589 361 1
589 363 1
589 369 1
589 371 1
589 373 1
589 378 1
589 390 1
589 392 1
589 411 1
589 415 1
589 416 1
589 433 1
589 435 1
589 436 1
589 441 1
589 443 1
589 447 1
589 449 1
589 451 1
589 454 1
589 455 1
589 457 1
589 467 1
589 479 1
589 489 1
589 490 1
589 497 1
589 518 1
589 519 1
589 521 1
589 524 1
589 526 1
589 535 1
589 537 1
589 543 1
589 545 1
589 547 1
589 548 1
589 559 1
589 563 1
589 580 1
589 583 1
589 584 1
589 585 1
589 591 1
589 592 1
589 593 1
589 594 1
590 11 1
590 15 1
590 26 1
590 31 1
590 48 1
590 51 1
590 57 1
590 62 1
590 64 1
590 73 1
590 76 1
590 89 1
590 93 1
590 97 1
590 104 1
590 105 1
590 113 1
590 114 1
590 127 1
590 128 1
590 131 1
590 143 1
590 147 1
590 149 1
590 156 1
590 159 1
590 160 1
590 169 1
590 180 1
590 182 1
590 183 1
590 193 1
590 196 1
590 205 1
590 209 1
590 210 1
590 219 1
590 227 1
590 229 1
590 236 1
590 238 1
590 242 1
590 243 1
590 244 1
590 266 1
590 269 1
590 275 1
590 276 1
590 277 1
590 282 1
590 288 1
590 290 1
590 297 1
590 303 1
590 323 1
590 328 1
590 336 1
590 352 1
590 361 1
590 366 1
590 374 1
590 382 1
590 383 1
590 384 1
590 391 1
590 394 1
590 401 1
590 404 1
590 408 1
590 413 1
590 415 1
590 416 1
590 418 1
590 419 1
590 421 1
590 422 1
590 426 1
590 431 1
590 433 1
590 435 1
590 442 1
590 449 1
590 450 1
590 459 1
590 462 1
590 468 1
590 470 1
590 472 1
590 476 1
590 480 1
590 483 1
590 484 1
590 492 1
590 499 1
590 501 1
590 502 1
590 505 1
590 506 1
590 507 1
590 513 1
590 515 1
590 518 1
590 520 1
590 522 1
590 535 1
590 540 1
590 542 1
590 544 1
590 552 1
590 557 1
590 566 1
590 584 1
590 594 1
590 600 1
591 7 1
591 9 1
591 14 1
591 27 1
591 30 1
591 33 1
591 34 1
591 38 1
591 40 1
591 41 1
591 43 1
591 47 1
591 54 1
591 55 1
591 71 1
591 75 1
591 82 1
591 89 1
591 97 1
591 98 1
591 104 1
591 108 1
591 120 1
591 128 1
591 129 1
591 131 1
591 135 1
591 139 1
591 142 1
591 155 1
591 156 1
591 162 1
591 163 1
591 164 1
591 168 1
591 169 1
591 175 1
591 177 1
591 178 1
591 182 1
591 184 1
591 193 1
591 195 1
591 196 1
591 203 1
591 205 1
591 208 1
591 209 1
591 210 1
591 214 1
591 218 1
591 220 1
591 226 1
591 229 1
591 239 1
591 244 1
591 254 1
591 259 1
591 270 1
591 271 1
591 287 1
591 290 1
591 298 1
591 303 1
591 308 1
591 315 1
591 316 1
591 318 1
591 322 1
591 326 1
591 332 1
591 347 1
591 351 1
591 357 1
591 366 1
591 373 1
591 374 1
591 380 1
591 394 1
591 399 1
591 400 1
591 410 1
591 421 1
591 431 1
591 439 1
591 440 1
591 443 1
591 447 1
591 454 1
591 463 1
591 470 1
591 472 1
591 478 1
591 484 1
591 488 1
591 492 1
591 495 1
591 498 1
591 499 1
591 500 1
591 508 1
591 518 1
591 519 1
591 521 1
591 530 1
591 534 1
591 551 1
591 555 1
591 557 1
591 559 1
591 567 1
591 568 1
591 569 1
591 573 1
591 579 1
591 584 1
591 589 1
591 600 1
592 15 1
592 17 1
592 24 1
592 41 1
592 46 1
592 52 1
592 53 1
592 58 1
592 59 1
592 63 1
592 76 1
592 89 1
592 93 1
592 103 1
592 113 1
592 122 1
592 125 1
592 127 1
592 128 1
592 131 1
592 143 1
592 165 1
592 169 1
592 182 1
592 183 1
592 185 1
592 200 1
592 204 1
592 205 1
592 206 1
592 208 1
592 211 1
592 219 1
592 225 1
592 228 1
592 230 1
592 232 1
592 237 1
592 240 1
592 247 1
592 249 1
592 260 1
592 263 1
592 265 1
592 266 1
592 267 1
592 272 1
592 276 1
592 284 1
592 294 1
592 298 1
592 303 1
592 307 1
592 310 1
592 313 1
592 318 1
592 324 1
592 328 1
592 332 1
592 334 1
592 336 1
592 337 1
592 351 1
592 352 1
592 354 1
592 362 1
592 373 1
592 381 1
592 391 1
592 393 1
592 395 1
592 411 1
592 418 1
592 426 1
592 427 1
592 434 1
592 435 1
592 442 1
592 443 1
592 447 1
592 448 1
592 449 1
592 454 1
592 472 1
592 474 1
592 484 1
592 487 1
592 488 1
592 491 1
592 492 1
592 493 1
592 495 1
592 497 1
592 504 1
592 510 1
592 514 1
592 520 1
592 526 1
592 528 1
592 529 1
592 534 1
592 537 1
592 550 1
592 554 1
592 577 1
592 585 1
592 589 1
592 595 1
592 599 1
593 4 1
593 5 1
593 12 1
593 24 1
593 27 1
593 30 1
593 35 1
593 59 1
593 62 1
593 74 1
593 79 1
593 85 1
593 86 1
593 97 1
593 100 1
593 104 1
593 105 1
593 115 1
593 124 1
593 126 1
593 130 1
593 133 1
593 137 1
593 143 1
593 145 1
593 151 1
593 166 1
593 167 1
593 172 1
593 175 1
593 185 1
593 187 1
593 193 1
593 200 1
593 203 1
593 209 1
593 210 1
593 215 1
593 222 1
593 230 1
593 232 1
593 239 1
593 249 1
593 259 1
593 261 1
593 264 1
593 270 1
593 273 1
593 282 1
593 285 1
593 289 1
593 294 1
593 329 1
593 330 1
593 341 1
593 348 1
593 356 1
593 368 1
593 378 1
593 380 1
593 387 1
593 389 1
593 392 1
593 406 1
593 407 1
593 417 1
593 418 1
593 422 1
593 434 1
593 437 1
593 442 1
593 460 1
593 473 1
593 485 1
593 488 1
593 491 1
593 493 1
593 495 1
593 497 1
593 499 1
593 504 1
593 520 1
593 525 1
593 530 1
593 532 1
593 534 1
593 538 1
593 539 1
593 542 1
593 547 1
593 556 1
593 557 1
593 560 1
593 561 1
593 578 1
593 586 1
593 589 1
593 594 1
593 596 1
594 1 1
594 5 1
594 10 1
594 12 1
594 14 1
594 27 1
594 32 1
594 34 1
594 35 1
594 38 1
594 39 1
594 40 1
594 44 1
594 48 1
594 49 1
594 51 1
594 62 1
594 64 1
594 68 1
594 79 1
594 96 1
594 99 1
594 105 1
594 112 1
594 114 1
594 120 1
594 127 1
594 133 1
594 143 1
594 145 1
594 147 1
594 149 1
594 162 1
594 164 1
594 172 1
594 173 1
594 177 1
594 182 1
594 185 1
594 186 1
594 194 1
594 195 1
594 203 1
594 204 1
594 206 1
594 210 1
594 211 1
594 214 1
594 218 1
594 225 1
594 240 1
594 246 1
594 249 1
594 261 1
594 263 1
594 268 1
594 278 1
594 279 1
594 283 1
594 293 1
594 294 1
594 301 1
594 306 1
594 308 1
594 318 1
594 325 1
594 333 1
594 337 1
594 339 1
594 342 1
594 351 1
594 353 1
594 358 1
594 359 1
594 360 1
594 363 1
594 368 1
594 372 1
594 374 1
594 381 1
594 388 1
594 390 1
594 392 1
594 395 1
594 397 1
594 404 1
594 405 1
594 411 1
594 415 1
594 416 1
594 422 1
594 425 1
594 435 1
594 445 1
594 450 1
594 462 1
594 463 1
594 464 1
594 470 1
594 474 1
594 476 1
594 478 1
594 483 1
594 484 1
594 485 1
594 495 1
594 500 1
594 523 1
594 525 1
594 527 1
594 548 1
594 553 1
594 554 1
594 565 1
594 569 1
594 572 1
594 576 1
594 586 1
594 589 1
594 590 1
594 593 1
594 600 1
595 9 1
595 16 1
595 21 1
595 27 1
595 28 1
595 30 1
595 32 1
595 33 1
595 34 1
595 36 1
595 38 1
595 42 1
595 54 1
595 70 1
595 72 1
595 74 1
595 88 1
595 93 1
595 97 1
595 99 1
595 102 1
595 103 1
595 104 1
595 108 1
595 113 1
595 115 1
595 117 1
595 123 1
595 124 1
595 132 1
595 135 1
595 138 1
595 155 1
595 158 1
595 161 1
595 163 1
595 164 1
595 166 1
595 167 1
595 174 1
595 175 1
595 185 1
595 191 1
595 195 1
595 201 1
595 210 1
595 213 1
595 218 1
595 219 1
595 221 1
595 224 1
595 227 1
595 228 1
595 229 1
595 238 1
595 240 1
595 242 1
595 245 1
595 248 1
595 249 1
595 251 1
595 252 1
595 261 1
595 264 1
595 268 1
595 269 1
595 275 1
595 291 1
595 292 1
595 301 1
595 304 1
595 305 1
595 318 1
595 329 1
595 333 1
595 334 1
595 357 1
595 360 1
595 365 1
595 368 1
595 372 1
595 381 1
595 384 1
595 388 1
595 389 1
595 392 1
595 394 1
595 398 1
595 399 1
595 404 1
595 411 1
595 414 1
595 418 1
595 429 1
595 436 1
595 442 1
595 451 1
595 455 1
595 465 1
595 466 1
595 467 1
595 469 1
595 470 1
595 475 1
595 476 1
595 503 1
595 511 1
595 521 1
595 523 1
595 532 1
595 543 1
595 547 1
595 552 1
595 553 1
595 564 1
595 574 1
595 580 1
595 585 1
595 588 1
595 592 1
595 600 1
596 3 1
596 4 1
596 12 1
596 19 1
596 26 1
596 27 1
596 34 1
596 37 1
596 39 1
596 41 1
596 42 1
596 54 1
596 55 1
596 61 1
596 69 1
596 86 1
596 90 1
596 97 1
596 102 1
596 111 1
596 116 1
596 133 1
596 138 1
596 141 1
596 143 1
596 153 1
596 156 1
596 176 1
596 182 1
596 183 1
596 184 1
596 193 1
596 196 1
596 204 1
596 211 1
596 213 1
596 214 1
596 217 1
596 221 1
596 223 1
596 224 1
596 226 1
596 234 1
596 240 1
596 241 1
596 260 1
596 262 1
596 267 1
596 271 1
596 275 1
596 277 1
596 288 1
596 293 1
596 302 1
596 316 1
596 323 1
596 330 1
596 342 1
596 348 1
596 353 1
596 358 1
596 361 1
596 363 1
596 364 1
596 381 1
596 390 1
596 408 1
596 412 1
596 416 1
596 420 1
596 423 1
596 425 1
596 428 1
596 433 1
596 440 1
596 443 1
596 448 1
596 453 1
596 454 1
596 462 1
596 465 1
596 469 1
596 473 1
596 475 1
596 477 1
596 483 1
596 490 1
596 500 1
596 501 1
596 506 1
596 512 1
596 515 1
596 520 1
596 523 1
596 531 1
596 533 1
596 540 1
596 547 1
596 548 1
596 551 1
596 555 1
596 575 1
596 576 1
596 580 1
596 583 1
596 593 1
596 597 1
597 8 1
597 12 1
597 13 1
597 20 1
597 25 1
597 28 1
597 46 1
597 48 1
597 53 1
597 56 1
597 57 1
597 59 1
597 60 1
597 65 1
597 71 1
597 80 1
597 83 1
597 87 1
597 97 1
597 98 1
597 99 1
597 100 1
597 111 1
597 130 1
597 138 1
597 145 1
597 146 1
597 147 1
597 154 1
597 160 1
597 166 1
597 174 1
597 175 1
597 186 1
597 191 1
597 192 1
597 193 1
597 202 1
597 208 1
597 215 1
597 222 1
597 224 1
597 225 1
597 226 1
597 227 1
597 230 1
597 235 1
597 244 1
597 254 1
597 259 1
597 263 1
597 265 1
597 267 1
597 274 1
597 283 1
597 290 1
597 293 1
597 299 1
597 301 1
597 304 1
597 305 1
597 308 1
597 309 1
597 319 1
597 333 1
597 334 1
597 338 1
597 358 1
597 367 1
597 370 1
597 377 1
597 381 1
597 387 1
597 395 1
597 398 1
597 399 1
597 401 1
597 407 1
597 408 1
597 411 1
597 418 1
597 419 1
597 424 1
597 430 1
597 434 1
597 435 1
597 440 1
597 443 1
597 447 1
597 452 1
597 475 1
597 477 1
597 483 1
597 487 1
597 498 1
597 499 1
597 528 1
597 540 1
597 545 1
597 547 1
597 558 1
597 560 1
597 576 1
597 584 1
597 596 1
598 1 1
598 3 1
598 7 1
598 11 1
598 12 1
598 13 1
598 20 1
598 26 1
598 28 1
598 32 1
598 33 1
598 48 1
598 49 1
598 51 1
598 54 1
598 61 1
598 62 1
598 74 1
598 75 1
598 78 1
598 81 1
598 82 1
598 85 1
598 92 1
598 104 1
598 109 1
598 113 1
598 116 1
598 119 1
598 122 1
598 123 1
598 133 1
598 139 1
598 147 1
598 153 1
598 164 1
598 167 1
598 173 1
598 184 1
598 187 1
598 191 1
598 195 1
598 196 1
598 197 1
598 202 1
598 204 1
598 206 1
598 208 1
598 210 1
598 211 1
598 214 1
598 217 1
598 219 1
598 221 1
598 237 1
598 239 1
598 243 1
598 247 1
598 254 1
598 255 1
598 257 1
598 262 1
598 264 1
598 273 1
598 275 1
598 277 1
598 282 1
598 284 1
598 295 1
598 296 1
598 297 1
598 302 1
598 304 1
598 308 1
598 314 1
598 317 1
598 324 1
598 327 1
598 329 1
598 337 1
598 355 1
598 358 1
598 363 1
598 365 1
598 366 1
598 371 1
598 376 1
598 384 1
598 386 1
598 388 1
598 393 1
598 395 1
598 406 1
598 407 1
598 410 1
598 424 1
598 425 1
598 427 1
598 429 1
598 436 1
598 439 1
598 443 1
598 450 1
598 451 1
598 455 1
598 458 1
598 459 1
598 462 1
598 464 1
598 472 1
598 475 1
598 478 1
598 480 1
598 484 1
598 487 1
598 490 1
598 496 1
598 500 1
598 505 1
598 506 1
598 507 1
598 508 1
598 531 1
598 536 1
598 544 1
598 547 1
598 554 1
598 566 1
598 570 1
598 572 1
598 580 1
598 588 1
599 3 1
599 4 1
599 13 1
599 17 1
599 20 1
599 23 1
599 24 1
599 26 1
599 31 1
599 34 1
599 39 1
599 41 1
599 42 1
599 43 1
599 45 1
599 47 1
599 48 1
599 49 1
599 50 1
599 54 1
599 57 1
599 59 1
599 62 1
599 65 1
599 69 1
599 73 1
599 74 1
599 75 1
599 86 1
599 92 1
599 96 1
599 101 1
599 106 1
599 107 1
599 110 1
599 117 1
599 123 1
599 128 1
599 129 1
599 134 1
599 136 1
599 143 1
599 150 1
599 158 1
599 176 1
599 179 1
599 182 1
599 189 1
599 193 1
599 196 1
599 213 1
599 217 1
599 221 1
599 229 1
599 242 1
599 248 1
599 249 1
599 253 1
599 254 1
599 260 1
599 263 1
599 277 1
599 278 1
599 288 1
599 289 1
599 295 1
599 297 1
599 301 1
599 317 1
599 333 1
599 337 1
599 339 1
599 349 1
599 364 1
599 375 1
599 376 1
599 379 1
599 402 1
599 409 1
599 410 1
599 412 1
599 421 1
599 430 1
599 435 1
599 439 1
599 448 1
599 454 1
599 468 1
599 469 1
599 471 1
599 477 1
599 490 1
599 493 1
599 495 1
599 500 1
599 505 1
599 507 1
599 510 1
599 512 1
599 520 1
599 521 1
599 524 1
599 526 1
599 527 1
599 530 1
599 531 1
599 533 1
599 539 1
599 542 1
599 544 1
599 546 1
599 547 1
599 549 1
599 552 1
599 557 1
599 561 1
599 563 1
599 574 1
599 592 1
599 600 1
600 3 1
600 6 1
600 8 1
600 11 1
600 14 1
600 15 1
600 20 1
600 25 1
600 33 1
600 34 1
600 39 1
600 42 1
600 48 1
600 50 1
600 52 1
600 58 1
600 59 1
600 61 1
600 66 1
600 69 1
600 70 1
600 71 1
600 73 1
600 75 1
600 76 1
600 79 1
600 82 1
600 83 1
600 84 1
600 91 1
600 98 1
600 99 1
600 101 1
600 102 1
600 110 1
600 119 1
600 123 1
600 125 1
600 134 1
600 145 1
600 146 1
600 148 1
600 155 1
600 161 1
600 172 1
600 178 1
600 180 1
600 186 1
600 190 1
600 197 1
600 206 1
600 207 1
600 208 1
600 209 1
600 216 1
600 219 1
600 221 1
600 226 1
600 232 1
600 236 1
600 237 1
600 238 1
600 240 1
600 241 1
600 242 1
600 267 1
600 271 1
600 275 1
600 286 1
600 289 1
600 290 1
600 297 1
600 299 1
600 305 1
600 317 1
600 319 1
600 324 1
600 350 1
600 360 1
600 363 1
600 376 1
600 390 1
600 392 1
600 396 1
600 399 1
600 403 1
600 425 1
600 431 1
600 433 1
600 434 1
600 437 1
600 440 1
600 446 1
600 449 1
600 450 1
600 453 1
600 459 1
600 466 1
600 468 1
600 472 1
600 485 1
600 496 1
600 498 1
600 508 1
600 513 1
600 516 1
600 518 1
600 521 1
600 522 1
600 524 1
600 529 1
600 533 1
600 537 1
600 539 1
600 541 1
600 547 1
600 566 1
600 571 1
600 573 1
600 584 1
600 590 1
600 591 1
600 594 1
600 595 1
600 599 1
