%%MatrixMarket matrix coordinate integer general
%
500 500 50208
1 2 1
1 5 1
1 8 1
1 9 1
1 19 1
1 21 1
1 27 1
1 33 1
1 36 1
1 41 1
1 60 1
1 62 1
1 69 1
1 72 1
1 73 1
1 77 1
1 82 1
1 85 1
1 87 1
1 91 1
1 96 1
1 98 1
1 101 1
1 107 1
1 112 1
1 113 1
1 116 1
1 118 1
1 125 1
1 130 1
1 131 1
1 132 1
1 133 1
1 153 1
1 155 1
1 157 1
1 158 1
1 161 1
1 165 1
1 170 1
1 182 1
1 185 1
1 189 1
1 194 1
1 204 1
1 207 1
1 211 1
1 221 1
1 222 1
1 225 1
1 226 1
1 227 1
1 228 1
1 237 1
1 250 1
1 252 1
1 254 1
1 259 1
1 261 1
1 263 1
1 265 1
1 266 1
1 267 1
1 275 1
1 287 1
1 308 1
1 318 1
1 320 1
1 322 1
1 327 1
1 329 1
1 341 1
1 349 1
1 371 1
1 376 1
1 382 1
1 383 1
1 389 1
1 392 1
1 399 1
1 405 1
1 407 1
1 421 1
1 427 1
1 442 1
1 446 1
1 448 1
1 461 1
1 465 1
1 473 1
1 487 1
1 491 1
2 1 1
2 8 1
2 10 1
2 14 1
2 26 1
2 30 1
2 32 1
2 39 1
2 50 1
2 53 1
2 54 1
2 56 1
2 60 1
2 73 1
2 79 1
2 80 1
2 85 1
2 92 1
2 115 1
2 118 1
2 119 1
2 125 1
2 126 1
2 127 1
2 132 1
2 133 1
2 139 1
2 142 1
2 143 1
2 146 1
2 147 1
2 149 1
2 150 1
2 154 1
2 155 1
2 159 1
2 160 1
2 165 1
2 166 1
2 173 1
2 176 1
2 186 1
2 190 1
2 199 1
2 206 1
2 211 1
2 215 1
2 216 1
2 217 1
2 218 1
2 223 1
2 226 1
2 227 1
2 232 1
2 235 1
2 237 1
2 239 1
2 245 1
2 249 1
2 257 1
2 259 1
2 263 1
2 265 1
2 276 1
2 281 1
2 290 1
2 297 1
2 298 1
2 304 1
2 307 1
2 310 1
2 312 1
2 314 1
2 316 1
2 327 1
2 330 1
2 331 1
2 332 1
2 335 1
2 336 1
2 339 1
2 340 1
2 359 1
2 360 1
2 368 1
2 369 1
2 393 1
2 401 1
2 405 1
2 413 1
2 422 1
2 433 1
2 434 1
2 435 1
2 443 1
2 451 1
2 463 1
2 468 1
2 478 1
2 481 1
2 482 1
2 499 1
3 4 1
3 14 1
3 16 1
3 24 1
3 33 1
3 39 1
3 41 1
3 43 1
3 52 1
3 60 1
3 64 1
3 72 1
3 76 1
3 79 1
3 81 1
3 82 1
3 85 1
3 86 1
3 89 1
3 100 1
3 103 1
3 107 1
3 108 1
3 110 1
3 111 1
3 117 1
3 118 1
3 120 1
3 121 1
3 122 1
3 125 1
3 126 1
3 128 1
3 130 1
3 136 1
3 141 1
3 142 1
3 143 1
3 145 1
3 146 1
3 153 1
3 155 1
3 156 1
3 157 1
3 163 1
3 165 1
3 167 1
3 171 1
3 188 1
3 195 1
3 199 1
3 202 1
3 204 1
3 215 1
3 218 1
3 221 1
3 222 1
3 223 1
3 229 1
3 230 1
3 231 1
3 240 1
3 241 1
3 242 1
3 243 1
3 249 1
3 250 1
3 253 1
3 259 1
3 265 1
3 267 1
3 287 1
3 291 1
3 292 1
3 300 1
3 303 1
3 305 1
3 307 1
3 309 1
3 311 1
3 322 1
3 323 1
3 325 1
3 336 1
3 349 1
3 360 1
3 361 1
3 382 1
3 388 1
3 398 1
3 399 1
3 408 1
3 414 1
3 415 1
3 416 1
3 418 1
3 423 1
3 424 1
3 430 1
3 436 1
3 438 1
3 441 1
3 447 1
3 473 1
3 484 1
3 494 1
3 499 1
3 500 1
4 3 1
4 8 1
4 18 1
4 23 1
4 24 1
4 25 1
4 35 1
4 38 1
4 42 1
4 52 1
4 53 1
4 61 1
4 74 1
4 87 1
4 88 1
4 90 1
4 91 1
4 94 1
4 95 1
4 100 1
4 107 1
4 108 1
4 112 1
4 119 1
4 121 1
4 123 1
4 129 1
4 135 1
4 138 1
4 139 1
4 141 1
4 142 1
4 143 1
4 149 1
4 156 1
4 158 1
4 160 1
4 167 1
4 168 1
4 176 1
4 177 1
4 180 1
4 186 1
4 195 1
4 202 1
4 206 1
4 216 1
4 218 1
4 224 1
4 233 1
4 236 1
4 238 1
4 240 1
4 241 1
4 243 1
4 246 1
4 251 1
4 260 1
4 267 1
4 270 1
4 273 1
4 275 1
4 277 1
4 286 1
4 289 1
4 295 1
4 311 1
4 313 1
4 316 1
4 317 1
4 319 1
4 323 1
4 330 1
4 334 1
4 336 1
4 337 1
4 342 1
4 343 1
4 348 1
4 350 1
4 352 1
4 357 1
4 362 1
4 368 1
4 369 1
4 378 1
4 379 1
4 391 1
4 404 1
4 407 1
4 411 1
4 416 1
4 420 1
4 421 1
4 422 1
4 431 1
4 433 1
4 435 1
4 437 1
4 450 1
4 458 1
4 461 1
4 464 1
4 467 1
4 469 1
4 470 1
4 472 1
4 473 1
4 477 1
4 482 1
4 491 1
4 494 1
4 499 1
5 1 1
5 7 1
5 9 1
5 17 1
5 18 1
5 23 1
5 24 1
5 48 1
5 52 1
5 63 1
5 67 1
5 85 1
5 88 1
5 95 1
5 105 1
5 107 1
5 110 1
5 117 1
5 130 1
5 132 1
5 133 1
5 134 1
5 136 1
5 138 1
5 139 1
5 149 1
5 153 1
5 154 1
5 160 1
5 161 1
5 166 1
5 168 1
5 175 1
5 179 1
5 183 1
5 188 1
5 191 1
5 201 1
5 204 1
5 210 1
5 213 1
5 234 1
5 253 1
5 256 1
5 264 1
5 267 1
5 269 1
5 272 1
5 276 1
5 281 1
5 289 1
5 294 1
5 300 1
5 305 1
5 307 1
5 309 1
5 313 1
5 314 1
5 315 1
5 326 1
5 331 1
5 337 1
5 345 1
5 356 1
5 360 1
5 364 1
5 368 1
5 369 1
5 375 1
5 378 1
5 379 1
5 382 1
5 385 1
5 388 1
5 396 1
5 398 1
5 401 1
5 411 1
5 412 1
5 417 1
5 419 1
5 420 1
5 423 1
5 425 1
5 433 1
5 435 1
5 439 1
5 440 1
5 449 1
5 455 1
5 479 1
5 480 1
5 486 1
5 491 1
5 494 1
6 7 1
6 8 1
6 11 1
6 15 1
6 22 1
6 26 1
6 41 1
6 69 1
6 73 1
6 75 1
6 85 1
6 90 1
6 93 1
6 94 1
6 97 1
6 103 1
6 106 1
6 116 1
6 124 1
6 127 1
6 133 1
6 142 1
6 148 1
6 156 1
6 165 1
6 166 1
6 167 1
6 170 1
6 180 1
6 182 1
6 196 1
6 200 1
6 201 1
6 203 1
6 204 1
6 205 1
6 206 1
6 210 1
6 211 1
6 212 1
6 225 1
6 237 1
6 251 1
6 252 1
6 255 1
6 262 1
6 267 1
6 268 1
6 272 1
6 277 1
6 279 1
6 300 1
6 307 1
6 309 1
6 312 1
6 334 1
6 340 1
6 343 1
6 351 1
6 352 1
6 353 1
6 363 1
6 372 1
6 374 1
6 378 1
6 388 1
6 394 1
6 400 1
6 401 1
6 407 1
6 426 1
6 430 1
6 436 1
6 438 1
6 442 1
6 448 1
6 450 1
6 453 1
6 466 1
6 469 1
6 485 1
6 489 1
6 494 1
6 497 1
6 499 1
7 5 1
7 6 1
7 10 1
7 12 1
7 20 1
7 37 1
7 39 1
7 41 1
7 52 1
7 57 1
7 61 1
7 62 1
7 64 1
7 65 1
7 70 1
7 85 1
7 93 1
7 95 1
7 101 1
7 104 1
7 106 1
7 109 1
7 111 1
7 120 1
7 126 1
7 130 1
7 133 1
7 137 1
7 154 1
7 161 1
7 169 1
7 171 1
7 189 1
7 196 1
7 197 1
7 200 1
7 214 1
7 217 1
7 218 1
7 221 1
7 222 1
7 237 1
7 240 1
7 248 1
7 268 1
7 270 1
7 274 1
7 278 1
7 282 1
7 283 1
7 295 1
7 299 1
7 303 1
7 317 1
7 320 1
7 321 1
7 323 1
7 324 1
7 325 1
7 326 1
7 329 1
7 337 1
7 338 1
7 339 1
7 344 1
7 361 1
7 366 1
7 374 1
7 376 1
7 377 1
7 390 1
7 392 1
7 399 1
7 400 1
7 402 1
7 405 1
7 406 1
7 411 1
7 416 1
7 423 1
7 425 1
7 430 1
7 433 1
7 441 1
7 444 1
7 452 1
7 455 1
7 462 1
7 464 1
7 466 1
7 479 1
7 482 1
7 483 1
7 485 1
7 487 1
7 490 1
8 1 1
8 2 1
8 4 1
8 6 1
8 10 1
8 13 1
8 14 1
8 24 1
8 36 1
8 40 1
8 41 1
8 51 1
8 52 1
8 58 1
8 60 1
8 61 1
8 62 1
8 92 1
8 94 1
8 115 1
8 126 1
8 132 1
8 147 1
8 153 1
8 154 1
8 155 1
8 156 1
8 157 1
8 159 1
8 177 1
8 179 1
8 181 1
8 191 1
8 196 1
8 198 1
8 214 1
8 216 1
8 224 1
8 228 1
8 230 1
8 235 1
8 242 1
8 243 1
8 259 1
8 271 1
8 274 1
8 275 1
8 279 1
8 288 1
8 290 1
8 297 1
8 301 1
8 305 1
8 307 1
8 308 1
8 309 1
8 313 1
8 317 1
8 318 1
8 326 1
8 335 1
8 337 1
8 339 1
8 342 1
8 351 1
8 356 1
8 357 1
8 367 1
8 374 1
8 387 1
8 389 1
8 397 1
8 412 1
8 415 1
8 417 1
8 422 1
8 423 1
8 425 1
8 432 1
8 443 1
8 446 1
8 450 1
8 461 1
8 463 1
8 464 1
8 466 1
8 479 1
8 490 1
8 491 1
8 495 1
8 496 1
9 1 1
9 5 1
9 15 1
9 23 1
9 25 1
9 27 1
9 28 1
9 30 1
9 33 1
9 36 1
9 40 1
9 44 1
9 48 1
9 49 1
9 54 1
9 59 1
9 63 1
9 66 1
9 69 1
9 76 1
9 77 1
9 84 1
9 91 1
9 93 1
9 94 1
9 99 1
9 104 1
9 105 1
9 118 1
9 125 1
9 137 1
9 149 1
9 151 1
9 155 1
9 156 1
9 160 1
9 167 1
9 178 1
9 180 1
9 187 1
9 196 1
9 202 1
9 203 1
9 204 1
9 205 1
9 215 1
9 222 1
9 224 1
9 226 1
9 227 1
9 228 1
9 229 1
9 238 1
9 244 1
9 246 1
9 254 1
9 256 1
9 258 1
9 268 1
9 272 1
9 273 1
9 274 1
9 281 1
9 286 1
9 290 1
9 293 1
9 297 1
9 305 1
9 308 1
9 309 1
9 314 1
9 319 1
9 329 1
9 332 1
9 337 1
9 340 1
9 341 1
9 347 1
9 355 1
9 357 1
9 365 1
9 366 1
9 371 1
9 373 1
9 381 1
9 386 1
9 387 1
9 390 1
9 395 1
9 402 1
9 413 1
9 417 1
9 420 1
9 422 1
9 428 1
9 431 1
9 436 1
9 437 1
9 439 1
9 442 1
9 443 1
9 446 1
9 456 1
9 457 1
9 460 1
9 463 1
9 470 1
9 473 1
9 475 1
9 481 1
9 483 1
9 486 1
9 499 1
10 2 1
10 7 1
10 8 1
10 11 1
10 15 1
10 22 1
10 32 1
10 34 1
10 35 1
10 37 1
10 39 1
10 43 1
10 44 1
10 48 1
10 51 1
10 55 1
10 59 1
10 68 1
10 74 1
10 76 1
10 91 1
10 93 1
10 98 1
10 103 1
10 109 1
10 111 1
10 114 1
10 123 1
10 127 1
10 128 1
10 129 1
10 132 1
10 134 1
10 142 1
10 145 1
10 155 1
10 156 1
10 158 1
10 163 1
10 177 1
10 181 1
10 182 1
10 183 1
10 185 1
10 194 1
10 198 1
10 200 1
10 203 1
10 211 1
10 220 1
10 222 1
10 230 1
10 235 1
10 238 1
10 243 1
10 248 1
10 252 1
10 255 1
10 260 1
10 264 1
10 265 1
10 268 1
10 273 1
10 275 1
10 282 1
10 283 1
10 286 1
10 287 1
10 311 1
10 320 1
10 328 1
10 329 1
10 330 1
10 333 1
10 338 1
10 342 1
10 348 1
10 354 1
10 356 1
10 358 1
10 359 1
10 361 1
10 367 1
10 368 1
10 377 1
10 381 1
10 389 1
10 394 1
10 402 1
10 410 1
10 414 1
10 415 1
10 418 1
10 423 1
10 426 1
10 432 1
10 434 1
10 447 1
10 448 1
10 451 1
10 454 1
10 476 1
10 480 1
10 499 1
11 6 1
11 10 1
11 14 1
11 16 1
11 24 1
11 26 1
11 31 1
11 32 1
11 37 1
11 43 1
11 57 1
11 62 1
11 66 1
11 71 1
11 74 1
11 91 1
11 94 1
11 104 1
11 108 1
11 111 1
11 121 1
11 133 1
11 143 1
11 157 1
11 160 1
11 165 1
11 166 1
11 184 1
11 192 1
11 194 1
11 195 1
11 197 1
11 198 1
11 206 1
11 207 1
11 209 1
11 225 1
11 226 1
11 230 1
11 231 1
11 238 1
11 239 1
11 246 1
11 260 1
11 265 1
11 275 1
11 276 1
11 277 1
11 280 1
11 288 1
11 294 1
11 296 1
11 297 1
11 300 1
11 302 1
11 319 1
11 321 1
11 323 1
11 324 1
11 331 1
11 334 1
11 337 1
11 338 1
11 351 1
11 352 1
11 357 1
11 358 1
11 359 1
11 362 1
11 371 1
11 379 1
11 387 1
11 388 1
11 396 1
11 401 1
11 416 1
11 422 1
11 428 1
11 434 1
11 444 1
11 448 1
11 451 1
11 453 1
11 463 1
11 466 1
11 473 1
11 475 1
11 489 1
11 490 1
11 495 1
11 498 1
11 500 1
12 7 1
12 13 1
12 15 1
12 19 1
12 20 1
12 23 1
12 25 1
12 26 1
12 28 1
12 31 1
12 32 1
12 46 1
12 53 1
12 57 1
12 68 1
12 70 1
12 71 1
12 75 1
12 78 1
12 79 1
12 81 1
12 83 1
12 98 1
12 100 1
12 107 1
12 126 1
12 129 1
12 133 1
12 140 1
12 141 1
12 142 1
12 150 1
12 151 1
12 159 1
12 166 1
12 173 1
12 181 1
12 186 1
12 187 1
12 197 1
12 199 1
12 205 1
12 208 1
12 212 1
12 218 1
12 220 1
12 225 1
12 226 1
12 231 1
12 233 1
12 235 1
12 236 1
12 247 1
12 251 1
12 256 1
12 263 1
12 279 1
12 280 1
12 291 1
12 292 1
12 293 1
12 305 1
12 324 1
12 329 1
12 332 1
12 335 1
12 338 1
12 344 1
12 348 1
12 355 1
12 356 1
12 359 1
12 364 1
12 367 1
12 383 1
12 399 1
12 404 1
12 416 1
12 421 1
12 424 1
12 437 1
12 440 1
12 441 1
12 449 1
12 450 1
12 456 1
12 478 1
12 479 1
12 483 1
12 484 1
12 493 1
12 496 1
12 498 1
12 499 1
12 500 1
13 8 1
13 12 1
13 14 1
13 31 1
13 36 1
13 42 1
13 45 1
13 56 1
13 64 1
13 70 1
13 80 1
13 84 1
13 89 1
13 95 1
13 103 1
13 111 1
13 113 1
13 125 1
13 137 1
13 139 1
13 141 1
13 147 1
13 163 1
13 172 1
13 174 1
13 180 1
13 183 1
13 187 1
13 188 1
13 200 1
13 202 1
13 208 1
13 211 1
13 215 1
13 219 1
13 220 1
13 239 1
13 240 1
13 243 1
13 249 1
13 260 1
13 261 1
13 263 1
13 279 1
13 289 1
13 299 1
13 301 1
13 304 1
13 305 1
13 306 1
13 310 1
13 312 1
13 314 1
13 318 1
13 330 1
13 333 1
13 338 1
13 339 1
13 342 1
13 346 1
13 351 1
13 352 1
13 353 1
13 362 1
13 367 1
13 374 1
13 384 1
13 388 1
13 394 1
13 395 1
13 399 1
13 400 1
13 412 1
13 417 1
13 421 1
13 423 1
13 424 1
13 433 1
13 441 1
13 443 1
13 444 1
13 458 1
13 467 1
13 469 1
13 475 1
13 477 1
13 480 1
13 489 1
13 491 1
13 494 1
13 500 1
14 2 1
14 3 1
14 8 1
14 11 1
14 13 1
14 15 1
14 20 1
14 21 1
14 27 1
14 30 1
14 44 1
14 48 1
14 49 1
14 51 1
14 65 1
14 72 1
14 73 1
14 85 1
14 86 1
14 92 1
14 94 1
14 99 1
14 101 1
14 103 1
14 104 1
14 110 1
14 111 1
14 112 1
14 116 1
14 129 1
14 136 1
14 145 1
14 146 1
14 151 1
14 152 1
14 157 1
14 159 1
14 162 1
14 165 1
14 174 1
14 176 1
14 182 1
14 189 1
14 193 1
14 217 1
14 223 1
14 228 1
14 231 1
14 234 1
14 240 1
14 241 1
14 248 1
14 252 1
14 257 1
14 264 1
14 265 1
14 288 1
14 290 1
14 291 1
14 292 1
14 295 1
14 296 1
14 301 1
14 303 1
14 304 1
14 306 1
14 309 1
14 312 1
14 313 1
14 316 1
14 318 1
14 329 1
14 331 1
14 332 1
14 341 1
14 351 1
14 356 1
14 358 1
14 361 1
14 362 1
14 373 1
14 375 1
14 380 1
14 381 1
14 390 1
14 391 1
14 404 1
14 412 1
14 415 1
14 423 1
14 425 1
14 427 1
14 431 1
14 432 1
14 436 1
14 441 1
14 442 1
14 457 1
14 458 1
14 463 1
14 468 1
14 471 1
14 473 1
14 478 1
14 491 1
14 499 1
15 6 1
15 9 1
15 10 1
15 12 1
15 14 1
15 24 1
15 29 1
15 32 1
15 36 1
15 42 1
15 47 1
15 57 1
15 58 1
15 79 1
15 92 1
15 96 1
15 98 1
15 101 1
15 108 1
15 109 1
15 118 1
15 128 1
15 132 1
15 134 1
15 135 1
15 137 1
15 138 1
15 140 1
15 145 1
15 146 1
15 154 1
15 159 1
15 167 1
15 169 1
15 180 1
15 181 1
15 182 1
15 196 1
15 200 1
15 217 1
15 218 1
15 236 1
15 239 1
15 247 1
15 252 1
15 254 1
15 255 1
15 275 1
15 284 1
15 290 1
15 293 1
15 301 1
15 303 1
15 304 1
15 307 1
15 309 1
15 311 1
15 313 1
15 322 1
15 333 1
15 334 1
15 335 1
15 355 1
15 356 1
15 359 1
15 360 1
15 362 1
15 363 1
15 365 1
15 366 1
15 376 1
15 378 1
15 387 1
15 388 1
15 389 1
15 391 1
15 401 1
15 403 1
15 405 1
15 407 1
15 412 1
15 413 1
15 415 1
15 417 1
15 420 1
15 425 1
15 428 1
15 447 1
15 451 1
15 457 1
15 458 1
15 466 1
15 467 1
15 470 1
15 479 1
15 481 1
15 483 1
15 489 1
15 490 1
15 498 1
15 499 1
16 3 1
16 11 1
16 17 1
16 22 1
16 23 1
16 26 1
16 27 1
16 28 1
16 32 1
16 39 1
16 42 1
16 45 1
16 47 1
16 51 1
16 53 1
16 55 1
16 56 1
16 58 1
16 60 1
16 68 1
16 69 1
16 73 1
16 75 1
16 78 1
16 84 1
16 90 1
16 93 1
16 99 1
16 101 1
16 102 1
16 104 1
16 105 1
16 109 1
16 118 1
16 129 1
16 137 1
16 142 1
16 147 1
16 160 1
16 167 1
16 168 1
16 170 1
16 172 1
16 178 1
16 201 1
16 205 1
16 206 1
16 213 1
16 214 1
16 218 1
16 223 1
16 224 1
16 227 1
16 229 1
16 249 1
16 253 1
16 257 1
16 259 1
16 265 1
16 269 1
16 271 1
16 272 1
16 273 1
16 284 1
16 290 1
16 292 1
16 303 1
16 309 1
16 316 1
16 319 1
16 325 1
16 331 1
16 337 1
16 340 1
16 343 1
16 347 1
16 352 1
16 353 1
16 363 1
16 366 1
16 373 1
16 377 1
16 387 1
16 401 1
16 402 1
16 406 1
16 409 1
16 416 1
16 427 1
16 431 1
16 435 1
16 445 1
16 452 1
16 468 1
16 480 1
16 482 1
16 489 1
16 490 1
16 491 1
16 495 1
16 498 1
17 5 1
17 16 1
17 27 1
17 41 1
17 43 1
17 50 1
17 55 1
17 57 1
17 58 1
17 61 1
17 67 1
17 73 1
17 80 1
17 83 1
17 87 1
17 94 1
17 109 1
17 111 1
17 113 1
17 114 1
17 118 1
17 123 1
17 130 1
17 134 1
17 137 1
17 138 1
17 140 1
17 144 1
17 146 1
17 147 1
17 160 1
17 163 1
17 165 1
17 172 1
17 174 1
17 189 1
17 201 1
17 211 1
17 214 1
17 232 1
17 246 1
17 250 1
17 258 1
17 270 1
17 273 1
17 281 1
17 289 1
17 294 1
17 299 1
17 300 1
17 305 1
17 309 1
17 313 1
17 315 1
17 316 1
17 323 1
17 330 1
17 332 1
17 334 1
17 338 1
17 340 1
17 344 1
17 354 1
17 358 1
17 360 1
17 361 1
17 367 1
17 368 1
17 369 1
17 379 1
17 381 1
17 383 1
17 387 1
17 388 1
17 391 1
17 399 1
17 404 1
17 409 1
17 411 1
17 413 1
17 422 1
17 427 1
17 446 1
17 450 1
17 455 1
17 459 1
17 466 1
17 467 1
17 473 1
17 475 1
17 476 1
17 478 1
17 479 1
17 480 1
17 481 1
17 483 1
17 486 1
17 490 1
17 495 1
17 499 1
18 4 1
18 5 1
18 21 1
18 23 1
18 36 1
18 46 1
18 48 1
18 58 1
18 61 1
18 69 1
18 73 1
18 75 1
18 77 1
18 79 1
18 81 1
18 82 1
18 93 1
18 97 1
18 100 1
18 107 1
18 108 1
18 110 1
18 112 1
18 113 1
18 114 1
18 118 1
18 125 1
18 126 1
18 130 1
18 131 1
18 143 1
18 150 1
18 157 1
18 160 1
18 171 1
18 177 1
18 179 1
18 183 1
18 188 1
18 199 1
18 202 1
18 208 1
18 210 1
18 214 1
18 229 1
18 231 1
18 234 1
18 247 1
18 248 1
18 251 1
18 252 1
18 261 1
18 272 1
18 276 1
18 281 1
18 293 1
18 298 1
18 304 1
18 310 1
18 316 1
18 319 1
18 321 1
18 324 1
18 330 1
18 332 1
18 343 1
18 355 1
18 357 1
18 365 1
18 369 1
18 374 1
18 378 1
18 383 1
18 386 1
18 388 1
18 389 1
18 392 1
18 395 1
18 398 1
18 408 1
18 428 1
18 430 1
18 432 1
18 434 1
18 437 1
18 451 1
18 453 1
18 463 1
18 470 1
18 475 1
18 487 1
18 500 1
19 1 1
19 12 1
19 24 1
19 31 1
19 33 1
19 35 1
19 42 1
19 45 1
19 46 1
19 47 1
19 55 1
19 58 1
19 63 1
19 67 1
19 69 1
19 74 1
19 77 1
19 79 1
19 80 1
19 90 1
19 96 1
19 99 1
19 100 1
19 109 1
19 118 1
19 122 1
19 128 1
19 132 1
19 134 1
19 139 1
19 148 1
19 151 1
19 155 1
19 160 1
19 163 1
19 167 1
19 176 1
19 177 1
19 179 1
19 182 1
19 183 1
19 185 1
19 192 1
19 194 1
19 196 1
19 210 1
19 211 1
19 215 1
19 220 1
19 221 1
19 222 1
19 223 1
19 225 1
19 229 1
19 236 1
19 242 1
19 247 1
19 257 1
19 264 1
19 272 1
19 276 1
19 282 1
19 287 1
19 292 1
19 298 1
19 299 1
19 302 1
19 311 1
19 313 1
19 335 1
19 353 1
19 354 1
19 355 1
19 357 1
19 358 1
19 359 1
19 362 1
19 370 1
19 379 1
19 382 1
19 385 1
19 389 1
19 391 1
19 410 1
19 411 1
19 423 1
19 426 1
19 429 1
19 431 1
19 433 1
19 436 1
19 437 1
19 444 1
19 453 1
19 454 1
19 456 1
19 469 1
19 472 1
19 476 1
19 486 1
19 492 1
19 494 1
20 7 1
20 12 1
20 14 1
20 22 1
20 40 1
20 41 1
20 46 1
20 47 1
20 61 1
20 68 1
20 69 1
20 71 1
20 72 1
20 81 1
20 83 1
20 88 1
20 100 1
20 117 1
20 132 1
20 143 1
20 149 1
20 151 1
20 153 1
20 155 1
20 163 1
20 177 1
20 179 1
20 191 1
20 193 1
20 203 1
20 210 1
20 213 1
20 214 1
20 223 1
20 227 1
20 231 1
20 234 1
20 237 1
20 240 1
20 246 1
20 253 1
20 270 1
20 272 1
20 273 1
20 278 1
20 287 1
20 292 1
20 313 1
20 322 1
20 323 1
20 324 1
20 334 1
20 338 1
20 353 1
20 358 1
20 366 1
20 373 1
20 388 1
20 391 1
20 396 1
20 401 1
20 405 1
20 406 1
20 408 1
20 410 1
20 422 1
20 423 1
20 434 1
20 441 1
20 442 1
20 444 1
20 451 1
20 452 1
20 454 1
20 464 1
20 468 1
20 471 1
20 486 1
21 1 1
21 14 1
21 18 1
21 23 1
21 25 1
21 27 1
21 30 1
21 42 1
21 50 1
21 58 1
21 72 1
21 75 1
21 84 1
21 101 1
21 105 1
21 110 1
21 111 1
21 116 1
21 123 1
21 126 1
21 154 1
21 155 1
21 162 1
21 163 1
21 164 1
21 172 1
21 173 1
21 174 1
21 179 1
21 180 1
21 182 1
21 186 1
21 204 1
21 208 1
21 220 1
21 233 1
21 236 1
21 238 1
21 245 1
21 246 1
21 248 1
21 250 1
21 258 1
21 259 1
21 268 1
21 277 1
21 279 1
21 283 1
21 288 1
21 291 1
21 292 1
21 297 1
21 302 1
21 303 1
21 306 1
21 308 1
21 309 1
21 310 1
21 320 1
21 322 1
21 325 1
21 337 1
21 346 1
21 348 1
21 351 1
21 357 1
21 362 1
21 363 1
21 365 1
21 368 1
21 369 1
21 371 1
21 375 1
21 390 1
21 393 1
21 405 1
21 407 1
21 412 1
21 414 1
21 416 1
21 425 1
21 426 1
21 429 1
21 431 1
21 434 1
21 438 1
21 442 1
21 455 1
21 468 1
21 470 1
21 472 1
21 476 1
21 477 1
21 479 1
21 487 1
21 494 1
22 6 1
22 10 1
22 16 1
22 20 1
22 23 1
22 26 1
22 36 1
22 41 1
22 48 1
22 50 1
22 57 1
22 63 1
22 75 1
22 76 1
22 79 1
22 80 1
22 81 1
22 83 1
22 125 1
22 128 1
22 129 1
22 133 1
22 137 1
22 139 1
22 140 1
22 141 1
22 143 1
22 148 1
22 163 1
22 166 1
22 179 1
22 180 1
22 181 1
22 187 1
22 192 1
22 195 1
22 199 1
22 206 1
22 207 1
22 208 1
22 213 1
22 222 1
22 228 1
22 231 1
22 234 1
22 242 1
22 252 1
22 254 1
22 257 1
22 260 1
22 262 1
22 265 1
22 269 1
22 271 1
22 276 1
22 281 1
22 298 1
22 309 1
22 313 1
22 315 1
22 316 1
22 319 1
22 320 1
22 321 1
22 332 1
22 334 1
22 336 1
22 345 1
22 354 1
22 362 1
22 363 1
22 364 1
22 377 1
22 379 1
22 389 1
22 394 1
22 398 1
22 400 1
22 401 1
22 403 1
22 410 1
22 411 1
22 413 1
22 419 1
22 445 1
22 446 1
22 447 1
22 448 1
22 456 1
22 457 1
22 462 1
22 464 1
22 471 1
22 474 1
22 475 1
22 476 1
22 477 1
22 481 1
22 485 1
22 492 1
22 496 1
23 4 1
23 5 1
23 9 1
23 12 1
23 16 1
23 18 1
23 21 1
23 22 1
23 28 1
23 31 1
23 36 1
23 39 1
23 40 1
23 43 1
23 45 1
23 51 1
23 56 1
23 58 1
23 64 1
23 67 1
23 68 1
23 80 1
23 83 1
23 92 1
23 98 1
23 100 1
23 101 1
23 102 1
23 104 1
23 108 1
23 111 1
23 112 1
23 122 1
23 124 1
23 135 1
23 137 1
23 138 1
23 148 1
23 149 1
23 152 1
23 153 1
23 154 1
23 155 1
23 160 1
23 162 1
23 167 1
23 168 1
23 169 1
23 171 1
23 172 1
23 177 1
23 180 1
23 196 1
23 199 1
23 203 1
23 208 1
23 218 1
23 226 1
23 229 1
23 240 1
23 241 1
23 264 1
23 272 1
23 275 1
23 279 1
23 284 1
23 287 1
23 289 1
23 291 1
23 292 1
23 296 1
23 297 1
23 300 1
23 301 1
23 305 1
23 322 1
23 324 1
23 335 1
23 338 1
23 339 1
23 365 1
23 367 1
23 371 1
23 373 1
23 382 1
23 387 1
23 388 1
23 397 1
23 402 1
23 406 1
23 418 1
23 419 1
23 420 1
23 424 1
23 426 1
23 437 1
23 441 1
23 442 1
23 444 1
23 445 1
23 448 1
23 477 1
23 482 1
23 483 1
23 487 1
23 498 1
24 3 1
24 4 1
24 5 1
24 8 1
24 11 1
24 15 1
24 19 1
24 25 1
24 27 1
24 29 1
24 32 1
24 37 1
24 39 1
24 46 1
24 53 1
24 54 1
24 57 1
24 62 1
24 64 1
24 66 1
24 67 1
24 76 1
24 97 1
24 98 1
24 100 1
24 101 1
24 111 1
24 113 1
24 116 1
24 122 1
24 128 1
24 142 1
24 145 1
24 148 1
24 173 1
24 176 1
24 186 1
24 189 1
24 213 1
24 216 1
24 217 1
24 226 1
24 240 1
24 243 1
24 248 1
24 250 1
24 256 1
24 258 1
24 259 1
24 262 1
24 265 1
24 266 1
24 269 1
24 272 1
24 273 1
24 275 1
24 281 1
24 300 1
24 314 1
24 316 1
24 323 1
24 325 1
24 327 1
24 340 1
24 341 1
24 350 1
24 360 1
24 361 1
24 373 1
24 376 1
24 378 1
24 387 1
24 389 1
24 393 1
24 395 1
24 400 1
24 401 1
24 406 1
24 409 1
24 419 1
24 426 1
24 437 1
24 441 1
24 472 1
24 482 1
24 488 1
24 492 1
24 496 1
24 497 1
24 498 1
24 500 1
25 4 1
25 9 1
25 12 1
25 21 1
25 24 1
25 29 1
25 35 1
25 37 1
25 39 1
25 46 1
25 52 1
25 73 1
25 76 1
25 83 1
25 88 1
25 94 1
25 100 1
25 102 1
25 106 1
25 112 1
25 137 1
25 141 1
25 146 1
25 156 1
25 160 1
25 168 1
25 170 1
25 174 1
25 177 1
25 180 1
25 185 1
25 192 1
25 197 1
25 200 1
25 203 1
25 211 1
25 212 1
25 221 1
25 224 1
25 232 1
25 234 1
25 237 1
25 238 1
25 249 1
25 254 1
25 262 1
25 263 1
25 264 1
25 266 1
25 269 1
25 270 1
25 274 1
25 276 1
25 283 1
25 287 1
25 298 1
25 305 1
25 307 1
25 308 1
25 309 1
25 317 1
25 324 1
25 325 1
25 336 1
25 338 1
25 342 1
25 343 1
25 345 1
25 350 1
25 351 1
25 366 1
25 370 1
25 371 1
25 372 1
25 378 1
25 379 1
25 382 1
25 388 1
25 389 1
25 401 1
25 407 1
25 418 1
25 420 1
25 427 1
25 429 1
25 431 1
25 432 1
25 433 1
25 436 1
25 437 1
25 443 1
25 453 1
25 456 1
25 457 1
25 462 1
25 466 1
25 467 1
25 479 1
25 481 1
25 485 1
25 494 1
25 496 1
26 2 1
26 6 1
26 11 1
26 12 1
26 16 1
26 22 1
26 28 1
26 35 1
26 44 1
26 51 1
26 54 1
26 61 1
26 67 1
26 85 1
26 90 1
26 93 1
26 97 1
26 98 1
26 114 1
26 119 1
26 127 1
26 131 1
26 135 1
26 136 1
26 139 1
26 140 1
26 141 1
26 145 1
26 155 1
26 158 1
26 166 1
26 167 1
26 172 1
26 178 1
26 180 1
26 181 1
26 186 1
26 187 1
26 190 1
26 191 1
26 194 1
26 200 1
26 202 1
26 203 1
26 208 1
26 211 1
26 219 1
26 225 1
26 227 1
26 228 1
26 233 1
26 234 1
26 237 1
26 242 1
26 250 1
26 252 1
26 254 1
26 265 1
26 271 1
26 279 1
26 283 1
26 284 1
26 285 1
26 288 1
26 291 1
26 296 1
26 301 1
26 302 1
26 307 1
26 313 1
26 314 1
26 317 1
26 321 1
26 325 1
26 327 1
26 329 1
26 330 1
26 333 1
26 334 1
26 338 1
26 340 1
26 343 1
26 344 1
26 360 1
26 369 1
26 374 1
26 381 1
26 399 1
26 402 1
26 404 1
26 409 1
26 410 1
26 412 1
26 416 1
26 418 1
26 420 1
26 432 1
26 441 1
26 448 1
26 452 1
26 465 1
26 467 1
26 474 1
26 480 1
26 481 1
26 486 1
27 1 1
27 9 1
27 14 1
27 16 1
27 17 1
27 21 1
27 24 1
27 32 1
27 36 1
27 45 1
27 48 1
27 78 1
27 89 1
27 121 1
27 125 1
27 129 1
27 132 1
27 138 1
27 142 1
27 143 1
27 159 1
27 160 1
27 165 1
27 166 1
27 168 1
27 171 1
27 172 1
27 173 1
27 174 1
27 175 1
27 178 1
27 181 1
27 188 1
27 192 1
27 205 1
27 206 1
27 211 1
27 227 1
27 230 1
27 236 1
27 238 1
27 243 1
27 247 1
27 248 1
27 250 1
27 251 1
27 253 1
27 262 1
27 268 1
27 277 1
27 279 1
27 281 1
27 285 1
27 287 1
27 291 1
27 293 1
27 302 1
27 307 1
27 320 1
27 323 1
27 325 1
27 333 1
27 340 1
27 346 1
27 348 1
27 352 1
27 357 1
27 384 1
27 385 1
27 390 1
27 400 1
27 403 1
27 404 1
27 406 1
27 413 1
27 415 1
27 419 1
27 420 1
27 434 1
27 439 1
27 444 1
27 448 1
27 452 1
27 459 1
27 460 1
27 461 1
27 471 1
27 472 1
27 478 1
27 485 1
27 490 1
27 495 1
27 498 1
28 9 1
28 12 1
28 16 1
28 23 1
28 26 1
28 30 1
28 38 1
28 42 1
28 45 1
28 48 1
28 66 1
28 72 1
28 86 1
28 103 1
28 106 1
28 108 1
28 112 1
28 125 1
28 127 1
28 133 1
28 137 1
28 140 1
28 146 1
28 149 1
28 150 1
28 152 1
28 158 1
28 164 1
28 167 1
28 170 1
28 171 1
28 174 1
28 175 1
28 181 1
28 187 1
28 190 1
28 205 1
28 216 1
28 219 1
28 220 1
28 223 1
28 229 1
28 234 1
28 244 1
28 246 1
28 248 1
28 250 1
28 255 1
28 257 1
28 265 1
28 273 1
28 275 1
28 279 1
28 281 1
28 286 1
28 287 1
28 289 1
28 290 1
28 292 1
28 294 1
28 297 1
28 298 1
28 300 1
28 307 1
28 313 1
28 323 1
28 328 1
28 332 1
28 336 1
28 343 1
28 347 1
28 349 1
28 350 1
28 351 1
28 352 1
28 359 1
28 360 1
28 362 1
28 364 1
28 365 1
28 366 1
28 371 1
28 372 1
28 378 1
28 387 1
28 388 1
28 390 1
28 400 1
28 405 1
28 407 1
28 412 1
28 416 1
28 422 1
28 429 1
28 430 1
28 437 1
28 438 1
28 445 1
28 448 1
28 449 1
28 453 1
28 455 1
28 460 1
28 461 1
28 471 1
28 475 1
28 477 1
28 479 1
28 482 1
28 489 1
28 491 1
28 500 1
29 15 1
29 24 1
29 25 1
29 36 1
29 49 1
29 53 1
29 54 1
29 67 1
29 68 1
29 69 1
29 71 1
29 76 1
29 91 1
29 96 1
29 105 1
29 111 1
29 121 1
29 123 1
29 124 1
29 126 1
29 127 1
29 131 1
29 154 1
29 161 1
29 163 1
29 166 1
29 169 1
29 172 1
29 184 1
29 191 1
29 193 1
29 194 1
29 207 1
29 210 1
29 218 1
29 222 1
29 223 1
29 224 1
29 228 1
29 229 1
29 230 1
29 238 1
29 239 1
29 242 1
29 246 1
29 247 1
29 258 1
29 260 1
29 272 1
29 273 1
29 274 1
29 276 1
29 277 1
29 278 1
29 281 1
29 282 1
29 285 1
29 286 1
29 290 1
29 301 1
29 305 1
29 318 1
29 326 1
29 332 1
29 335 1
29 337 1
29 348 1
29 350 1
29 358 1
29 370 1
29 371 1
29 380 1
29 381 1
29 382 1
29 386 1
29 397 1
29 404 1
29 408 1
29 415 1
29 417 1
29 419 1
29 429 1
29 436 1
29 440 1
29 452 1
29 460 1
29 463 1
29 474 1
29 484 1
29 486 1
29 490 1
29 491 1
29 492 1
29 494 1
29 498 1
30 2 1
30 9 1
30 14 1
30 21 1
30 28 1
30 33 1
30 36 1
30 42 1
30 45 1
30 47 1
30 52 1
30 54 1
30 61 1
30 62 1
30 63 1
30 65 1
30 68 1
30 70 1
30 72 1
30 74 1
30 77 1
30 79 1
30 90 1
30 92 1
30 99 1
30 107 1
30 110 1
30 113 1
30 116 1
30 117 1
30 119 1
30 120 1
30 124 1
30 126 1
30 130 1
30 134 1
30 144 1
30 147 1
30 149 1
30 154 1
30 157 1
30 160 1
30 163 1
30 164 1
30 169 1
30 171 1
30 173 1
30 179 1
30 185 1
30 188 1
30 192 1
30 195 1
30 209 1
30 215 1
30 231 1
30 245 1
30 246 1
30 248 1
30 258 1
30 261 1
30 264 1
30 265 1
30 279 1
30 280 1
30 282 1
30 296 1
30 301 1
30 305 1
30 308 1
30 312 1
30 315 1
30 316 1
30 326 1
30 340 1
30 341 1
30 344 1
30 350 1
30 352 1
30 357 1
30 358 1
30 368 1
30 372 1
30 377 1
30 379 1
30 382 1
30 389 1
30 392 1
30 398 1
30 419 1
30 426 1
30 429 1
30 430 1
30 435 1
30 440 1
30 441 1
30 442 1
30 443 1
30 463 1
30 467 1
30 473 1
30 478 1
30 483 1
30 487 1
30 488 1
31 11 1
31 12 1
31 13 1
31 19 1
31 23 1
31 33 1
31 35 1
31 38 1
31 43 1
31 57 1
31 60 1
31 63 1
31 72 1
31 80 1
31 82 1
31 85 1
31 90 1
31 92 1
31 99 1
31 100 1
31 104 1
31 106 1
31 108 1
31 119 1
31 120 1
31 121 1
31 122 1
31 123 1
31 124 1
31 127 1
31 146 1
31 147 1
31 150 1
31 151 1
31 157 1
31 159 1
31 162 1
31 167 1
31 171 1
31 175 1
31 176 1
31 207 1
31 211 1
31 212 1
31 214 1
31 216 1
31 223 1
31 226 1
31 228 1
31 229 1
31 240 1
31 247 1
31 252 1
31 254 1
31 261 1
31 269 1
31 270 1
31 274 1
31 275 1
31 281 1
31 285 1
31 288 1
31 297 1
31 307 1
31 311 1
31 314 1
31 316 1
31 321 1
31 322 1
31 327 1
31 328 1
31 332 1
31 334 1
31 353 1
31 359 1
31 375 1
31 382 1
31 386 1
31 392 1
31 393 1
31 396 1
31 397 1
31 409 1
31 416 1
31 417 1
31 418 1
31 424 1
31 429 1
31 433 1
31 445 1
31 448 1
31 449 1
31 453 1
31 459 1
31 461 1
31 470 1
31 480 1
31 481 1
31 484 1
32 2 1
32 10 1
32 11 1
32 12 1
32 15 1
32 16 1
32 24 1
32 27 1
32 33 1
32 36 1
32 43 1
32 48 1
32 54 1
32 68 1
32 73 1
32 75 1
32 84 1
32 94 1
32 95 1
32 97 1
32 103 1
32 108 1
32 113 1
32 115 1
32 125 1
32 127 1
32 134 1
32 137 1
32 138 1
32 146 1
32 147 1
32 150 1
32 155 1
32 157 1
32 159 1
32 173 1
32 183 1
32 190 1
32 195 1
32 199 1
32 202 1
32 205 1
32 210 1
32 212 1
32 213 1
32 214 1
32 220 1
32 221 1
32 234 1
32 241 1
32 243 1
32 245 1
32 258 1
32 259 1
32 262 1
32 263 1
32 268 1
32 276 1
32 296 1
32 301 1
32 306 1
32 313 1
32 320 1
32 335 1
32 339 1
32 340 1
32 350 1
32 353 1
32 355 1
32 365 1
32 367 1
32 369 1
32 370 1
32 373 1
32 384 1
32 386 1
32 390 1
32 405 1
32 409 1
32 414 1
32 424 1
32 433 1
32 436 1
32 437 1
32 438 1
32 442 1
32 443 1
32 454 1
32 462 1
32 466 1
32 467 1
32 473 1
32 489 1
32 495 1
32 499 1
33 1 1
33 3 1
33 9 1
33 19 1
33 30 1
33 31 1
33 32 1
33 35 1
33 38 1
33 43 1
33 45 1
33 47 1
33 48 1
33 57 1
33 60 1
33 64 1
33 66 1
33 72 1
33 81 1
33 91 1
33 93 1
33 94 1
33 99 1
33 102 1
33 110 1
33 111 1
33 114 1
33 115 1
33 118 1
33 123 1
33 126 1
33 127 1
33 129 1
33 138 1
33 139 1
33 143 1
33 144 1
33 155 1
33 162 1
33 166 1
33 168 1
33 180 1
33 185 1
33 201 1
33 203 1
33 204 1
33 206 1
33 217 1
33 227 1
33 234 1
33 240 1
33 265 1
33 268 1
33 272 1
33 281 1
33 284 1
33 285 1
33 288 1
33 300 1
33 305 1
33 306 1
33 320 1
33 321 1
33 324 1
33 329 1
33 330 1
33 332 1
33 333 1
33 349 1
33 355 1
33 363 1
33 365 1
33 368 1
33 373 1
33 379 1
33 407 1
33 412 1
33 413 1
33 414 1
33 432 1
33 437 1
33 439 1
33 443 1
33 444 1
33 448 1
33 452 1
33 481 1
33 487 1
33 493 1
33 494 1
33 495 1
33 496 1
33 497 1
34 10 1
34 36 1
34 37 1
34 39 1
34 40 1
34 47 1
34 49 1
34 50 1
34 54 1
34 56 1
34 58 1
34 60 1
34 67 1
34 69 1
34 70 1
34 78 1
34 80 1
34 82 1
34 86 1
34 88 1
34 89 1
34 93 1
34 95 1
34 97 1
34 100 1
34 102 1
34 105 1
34 117 1
34 126 1
34 132 1
34 133 1
34 137 1
34 138 1
34 150 1
34 152 1
34 154 1
34 156 1
34 157 1
34 159 1
34 160 1
34 161 1
34 163 1
34 165 1
34 179 1
34 185 1
34 188 1
34 201 1
34 207 1
34 209 1
34 212 1
34 216 1
34 219 1
34 227 1
34 230 1
34 238 1
34 249 1
34 251 1
34 254 1
34 258 1
34 259 1
34 263 1
34 264 1
34 266 1
34 269 1
34 273 1
34 275 1
34 276 1
34 279 1
34 283 1
34 287 1
34 296 1
34 307 1
34 339 1
34 340 1
34 344 1
34 346 1
34 348 1
34 350 1
34 355 1
34 357 1
34 373 1
34 392 1
34 395 1
34 403 1
34 405 1
34 407 1
34 410 1
34 412 1
34 414 1
34 417 1
34 418 1
34 422 1
34 427 1
34 433 1
34 438 1
34 445 1
34 454 1
34 457 1
34 458 1
34 459 1
34 461 1
34 466 1
34 468 1
34 472 1
34 476 1
34 478 1
34 485 1
34 488 1
34 489 1
34 493 1
34 495 1
34 496 1
34 499 1
35 4 1
35 10 1
35 19 1
35 25 1
35 26 1
35 31 1
35 33 1
35 40 1
35 44 1
35 58 1
35 61 1
35 63 1
35 65 1
35 74 1
35 75 1
35 81 1
35 82 1
35 83 1
35 98 1
35 101 1
35 119 1
35 125 1
35 136 1
35 142 1
35 146 1
35 155 1
35 159 1
35 162 1
35 169 1
35 174 1
35 176 1
35 177 1
35 182 1
35 187 1
35 189 1
35 190 1
35 192 1
35 193 1
35 204 1
35 226 1
35 227 1
35 229 1
35 230 1
35 233 1
35 238 1
35 247 1
35 250 1
35 252 1
35 260 1
35 265 1
35 274 1
35 285 1
35 296 1
35 305 1
35 317 1
35 323 1
35 324 1
35 325 1
35 330 1
35 335 1
35 341 1
35 347 1
35 350 1
35 358 1
35 359 1
35 360 1
35 361 1
35 367 1
35 369 1
35 371 1
35 372 1
35 376 1
35 378 1
35 388 1
35 401 1
35 407 1
35 417 1
35 429 1
35 433 1
35 440 1
35 446 1
35 454 1
35 461 1
35 462 1
35 476 1
35 480 1
35 489 1
35 492 1
35 498 1
36 1 1
36 8 1
36 9 1
36 13 1
36 15 1
36 18 1
36 22 1
36 23 1
36 27 1
36 29 1
36 30 1
36 32 1
36 34 1
36 45 1
36 49 1
36 55 1
36 66 1
36 72 1
36 76 1
36 82 1
36 84 1
36 89 1
36 91 1
36 92 1
36 94 1
36 99 1
36 105 1
36 107 1
36 112 1
36 119 1
36 123 1
36 128 1
36 133 1
36 136 1
36 138 1
36 140 1
36 142 1
36 158 1
36 160 1
36 161 1
36 169 1
36 173 1
36 185 1
36 186 1
36 190 1
36 192 1
36 194 1
36 197 1
36 200 1
36 201 1
36 221 1
36 223 1
36 236 1
36 240 1
36 243 1
36 256 1
36 257 1
36 261 1
36 272 1
36 277 1
36 284 1
36 286 1
36 289 1
36 292 1
36 308 1
36 311 1
36 312 1
36 315 1
36 324 1
36 326 1
36 333 1
36 335 1
36 341 1
36 345 1
36 354 1
36 362 1
36 366 1
36 384 1
36 386 1
36 390 1
36 397 1
36 405 1
36 407 1
36 408 1
36 411 1
36 420 1
36 425 1
36 427 1
36 428 1
36 438 1
36 439 1
36 440 1
36 457 1
36 459 1
36 470 1
36 473 1
36 484 1
36 486 1
36 496 1
37 7 1
37 10 1
37 11 1
37 24 1
37 25 1
37 34 1
37 41 1
37 46 1
37 48 1
37 50 1
37 52 1
37 53 1
37 55 1
37 69 1
37 72 1
37 75 1
37 92 1
37 95 1
37 97 1
37 104 1
37 113 1
37 122 1
37 125 1
37 126 1
37 129 1
37 134 1
37 139 1
37 142 1
37 144 1
37 149 1
37 151 1
37 152 1
37 153 1
37 154 1
37 170 1
37 180 1
37 185 1
37 193 1
37 196 1
37 207 1
37 212 1
37 220 1
37 222 1
37 233 1
37 234 1
37 243 1
37 244 1
37 253 1
37 256 1
37 257 1
37 260 1
37 261 1
37 263 1
37 270 1
37 278 1
37 282 1
37 285 1
37 287 1
37 291 1
37 298 1
37 309 1
37 314 1
37 316 1
37 317 1
37 331 1
37 339 1
37 340 1
37 347 1
37 348 1
37 349 1
37 350 1
37 356 1
37 357 1
37 363 1
37 366 1
37 367 1
37 382 1
37 394 1
37 396 1
37 398 1
37 401 1
37 403 1
37 406 1
37 411 1
37 418 1
37 419 1
37 422 1
37 425 1
37 429 1
37 430 1
37 431 1
37 435 1
37 436 1
37 457 1
37 461 1
37 463 1
37 466 1
37 469 1
37 473 1
37 477 1
37 482 1
37 484 1
37 492 1
37 494 1
37 499 1
38 4 1
38 28 1
38 31 1
38 33 1
38 39 1
38 45 1
38 53 1
38 59 1
38 71 1
38 76 1
38 79 1
38 82 1
38 90 1
38 92 1
38 93 1
38 95 1
38 99 1
38 104 1
38 113 1
38 121 1
38 122 1
38 133 1
38 145 1
38 153 1
38 158 1
38 161 1
38 163 1
38 178 1
38 191 1
38 198 1
38 206 1
38 210 1
38 213 1
38 222 1
38 223 1
38 226 1
38 230 1
38 232 1
38 233 1
38 234 1
38 236 1
38 253 1
38 259 1
38 261 1
38 264 1
38 270 1
38 274 1
38 278 1
38 280 1
38 284 1
38 290 1
38 291 1
38 294 1
38 296 1
38 297 1
38 298 1
38 306 1
38 310 1
38 314 1
38 318 1
38 320 1
38 325 1
38 328 1
38 336 1
38 338 1
38 373 1
38 381 1
38 387 1
38 410 1
38 411 1
38 412 1
38 415 1
38 426 1
38 432 1
38 434 1
38 436 1
38 444 1
38 445 1
38 448 1
38 449 1
38 450 1
38 459 1
38 463 1
38 466 1
38 474 1
38 487 1
38 490 1
38 494 1
39 2 1
39 3 1
39 7 1
39 10 1
39 16 1
39 23 1
39 24 1
39 25 1
39 34 1
39 38 1
39 47 1
39 50 1
39 55 1
39 71 1
39 73 1
39 75 1
39 79 1
39 91 1
39 99 1
39 101 1
39 103 1
39 107 1
39 117 1
39 118 1
39 121 1
39 124 1
39 131 1
39 133 1
39 140 1
39 142 1
39 146 1
39 153 1
39 158 1
39 166 1
39 177 1
39 181 1
39 190 1
39 204 1
39 205 1
39 217 1
39 218 1
39 231 1
39 236 1
39 237 1
39 238 1
39 240 1
39 249 1
39 256 1
39 261 1
39 263 1
39 270 1
39 275 1
39 276 1
39 278 1
39 279 1
39 282 1
39 285 1
39 296 1
39 298 1
39 299 1
39 303 1
39 306 1
39 308 1
39 311 1
39 319 1
39 322 1
39 323 1
39 332 1
39 339 1
39 349 1
39 351 1
39 352 1
39 355 1
39 364 1
39 365 1
39 382 1
39 386 1
39 393 1
39 397 1
39 400 1
39 409 1
39 412 1
39 422 1
39 423 1
39 425 1
39 428 1
39 429 1
39 449 1
39 474 1
39 485 1
39 490 1
39 492 1
39 497 1
39 500 1
40 8 1
40 9 1
40 20 1
40 23 1
40 34 1
40 35 1
40 41 1
40 46 1
40 48 1
40 58 1
40 70 1
40 73 1
40 87 1
40 90 1
40 94 1
40 98 1
40 102 1
40 118 1
40 124 1
40 128 1
40 133 1
40 137 1
40 139 1
40 142 1
40 147 1
40 154 1
40 156 1
40 161 1
40 166 1
40 171 1
40 179 1
40 180 1
40 190 1
40 198 1
40 204 1
40 206 1
40 218 1
40 223 1
40 227 1
40 230 1
40 237 1
40 248 1
40 251 1
40 253 1
40 265 1
40 269 1
40 275 1
40 277 1
40 284 1
40 288 1
40 290 1
40 292 1
40 295 1
40 299 1
40 311 1
40 314 1
40 317 1
40 322 1
40 327 1
40 328 1
40 330 1
40 338 1
40 340 1
40 344 1
40 362 1
40 366 1
40 367 1
40 369 1
40 371 1
40 375 1
40 376 1
40 377 1
40 384 1
40 386 1
40 389 1
40 391 1
40 395 1
40 396 1
40 397 1
40 399 1
40 411 1
40 417 1
40 418 1
40 421 1
40 426 1
40 430 1
40 432 1
40 433 1
40 441 1
40 443 1
40 446 1
40 450 1
40 454 1
40 466 1
40 475 1
40 493 1
40 496 1
41 1 1
41 3 1
41 6 1
41 7 1
41 8 1
41 17 1
41 20 1
41 22 1
41 37 1
41 40 1
41 49 1
41 53 1
41 61 1
41 63 1
41 68 1
41 73 1
41 79 1
41 87 1
41 96 1
41 97 1
41 98 1
41 108 1
41 109 1
41 120 1
41 121 1
41 128 1
41 133 1
41 137 1
41 138 1
41 142 1
41 149 1
41 166 1
41 167 1
41 172 1
41 176 1
41 177 1
41 188 1
41 189 1
41 203 1
41 218 1
41 221 1
41 223 1
41 226 1
41 227 1
41 231 1
41 233 1
41 234 1
41 240 1
41 245 1
41 251 1
41 253 1
41 254 1
41 262 1
41 271 1
41 272 1
41 273 1
41 285 1
41 287 1
41 289 1
41 291 1
41 295 1
41 301 1
41 306 1
41 308 1
41 309 1
41 310 1
41 313 1
41 314 1
41 322 1
41 324 1
41 340 1
41 342 1
41 343 1
41 345 1
41 348 1
41 352 1
41 354 1
41 363 1
41 368 1
41 369 1
41 379 1
41 380 1
41 384 1
41 390 1
41 396 1
41 404 1
41 413 1
41 421 1
41 429 1
41 431 1
41 434 1
41 436 1
41 445 1
41 457 1
41 466 1
41 475 1
41 478 1
41 480 1
41 481 1
41 483 1
41 484 1
41 489 1
41 492 1
41 498 1
42 4 1
42 13 1
42 15 1
42 16 1
42 19 1
42 21 1
42 28 1
42 30 1
42 49 1
42 50 1
42 63 1
42 68 1
42 69 1
42 79 1
42 84 1
42 87 1
42 90 1
42 110 1
42 112 1
42 114 1
42 121 1
42 124 1
42 131 1
42 140 1
42 147 1
42 148 1
42 153 1
42 156 1
42 165 1
42 174 1
42 190 1
42 192 1
42 200 1
42 209 1
42 214 1
42 220 1
42 226 1
42 228 1
42 229 1
42 231 1
42 252 1
42 259 1
42 268 1
42 269 1
42 270 1
42 278 1
42 286 1
42 290 1
42 292 1
42 295 1
42 300 1
42 302 1
42 308 1
42 311 1
42 314 1
42 317 1
42 321 1
42 324 1
42 326 1
42 329 1
42 331 1
42 341 1
42 343 1
42 344 1
42 346 1
42 349 1
42 368 1
42 399 1
42 402 1
42 407 1
42 419 1
42 422 1
42 425 1
42 426 1
42 429 1
42 436 1
42 438 1
42 443 1
42 444 1
42 448 1
42 453 1
42 455 1
42 457 1
42 460 1
42 461 1
42 470 1
42 478 1
42 490 1
43 3 1
43 10 1
43 11 1
43 17 1
43 23 1
43 31 1
43 32 1
43 33 1
43 45 1
43 48 1
43 57 1
43 60 1
43 76 1
43 83 1
43 86 1
43 88 1
43 95 1
43 104 1
43 109 1
43 117 1
43 125 1
43 129 1
43 133 1
43 143 1
43 146 1
43 156 1
43 158 1
43 161 1
43 172 1
43 180 1
43 183 1
43 185 1
43 193 1
43 199 1
43 200 1
43 204 1
43 207 1
43 212 1
43 214 1
43 216 1
43 221 1
43 241 1
43 245 1
43 249 1
43 254 1
43 262 1
43 263 1
43 264 1
43 267 1
43 275 1
43 289 1
43 290 1
43 292 1
43 296 1
43 297 1
43 301 1
43 314 1
43 316 1
43 318 1
43 338 1
43 340 1
43 345 1
43 364 1
43 371 1
43 373 1
43 377 1
43 378 1
43 386 1
43 391 1
43 395 1
43 401 1
43 403 1
43 404 1
43 405 1
43 407 1
43 408 1
43 420 1
43 425 1
43 430 1
43 433 1
43 443 1
43 447 1
43 450 1
43 452 1
43 459 1
43 463 1
43 464 1
43 470 1
43 473 1
43 477 1
43 482 1
43 483 1
43 486 1
43 488 1
43 489 1
43 490 1
43 493 1
43 495 1
44 9 1
44 10 1
44 14 1
44 26 1
44 35 1
44 45 1
44 50 1
44 52 1
44 54 1
44 55 1
44 65 1
44 70 1
44 75 1
44 89 1
44 90 1
44 101 1
44 105 1
44 109 1
44 118 1
44 120 1
44 122 1
44 128 1
44 130 1
44 141 1
44 160 1
44 161 1
44 163 1
44 167 1
44 170 1
44 180 1
44 195 1
44 198 1
44 208 1
44 211 1
44 212 1
44 214 1
44 216 1
44 219 1
44 221 1
44 222 1
44 223 1
44 229 1
44 236 1
44 245 1
44 247 1
44 252 1
44 254 1
44 256 1
44 263 1
44 265 1
44 266 1
44 269 1
44 281 1
44 282 1
44 288 1
44 289 1
44 290 1
44 297 1
44 299 1
44 303 1
44 306 1
44 312 1
44 318 1
44 326 1
44 333 1
44 334 1
44 335 1
44 336 1
44 338 1
44 350 1
44 361 1
44 364 1
44 365 1
44 367 1
44 372 1
44 375 1
44 376 1
44 391 1
44 395 1
44 397 1
44 400 1
44 404 1
44 409 1
44 413 1
44 418 1
44 421 1
44 425 1
44 430 1
44 431 1
44 434 1
44 451 1
44 452 1
44 454 1
44 463 1
44 471 1
44 473 1
45 13 1
45 16 1
45 19 1
45 23 1
45 27 1
45 28 1
45 30 1
45 33 1
45 36 1
45 38 1
45 43 1
45 44 1
45 50 1
45 52 1
45 66 1
45 70 1
45 82 1
45 85 1
45 96 1
45 97 1
45 100 1
45 106 1
45 108 1
45 117 1
45 118 1
45 120 1
45 121 1
45 126 1
45 138 1
45 141 1
45 149 1
45 154 1
45 156 1
45 160 1
45 170 1
45 173 1
45 174 1
45 175 1
45 180 1
45 181 1
45 182 1
45 192 1
45 193 1
45 195 1
45 199 1
45 200 1
45 206 1
45 221 1
45 228 1
45 231 1
45 242 1
45 246 1
45 249 1
45 258 1
45 262 1
45 263 1
45 283 1
45 284 1
45 286 1
45 293 1
45 303 1
45 305 1
45 306 1
45 315 1
45 320 1
45 321 1
45 330 1
45 334 1
45 335 1
45 337 1
45 343 1
45 360 1
45 366 1
45 384 1
45 387 1
45 394 1
45 401 1
45 404 1
45 408 1
45 412 1
45 416 1
45 423 1
45 432 1
45 436 1
45 438 1
45 443 1
45 451 1
45 471 1
45 472 1
45 477 1
45 478 1
45 482 1
45 489 1
45 494 1
46 12 1
46 18 1
46 19 1
46 20 1
46 24 1
46 25 1
46 37 1
46 40 1
46 49 1
46 51 1
46 54 1
46 60 1
46 63 1
46 64 1
46 70 1
46 74 1
46 79 1
46 82 1
46 85 1
46 93 1
46 105 1
46 114 1
46 116 1
46 121 1
46 124 1
46 134 1
46 141 1
46 147 1
46 149 1
46 150 1
46 158 1
46 161 1
46 171 1
46 176 1
46 180 1
46 182 1
46 184 1
46 188 1
46 204 1
46 210 1
46 226 1
46 231 1
46 235 1
46 238 1
46 240 1
46 241 1
46 245 1
46 257 1
46 259 1
46 261 1
46 266 1
46 275 1
46 280 1
46 283 1
46 285 1
46 290 1
46 292 1
46 297 1
46 298 1
46 302 1
46 304 1
46 308 1
46 316 1
46 322 1
46 329 1
46 330 1
46 332 1
46 334 1
46 338 1
46 340 1
46 344 1
46 345 1
46 346 1
46 352 1
46 353 1
46 362 1
46 367 1
46 372 1
46 376 1
46 384 1
46 388 1
46 389 1
46 394 1
46 396 1
46 397 1
46 399 1
46 404 1
46 413 1
46 414 1
46 425 1
46 428 1
46 433 1
46 438 1
46 444 1
46 449 1
46 456 1
46 459 1
46 469 1
46 478 1
46 479 1
46 484 1
46 486 1
46 496 1
46 497 1
47 15 1
47 16 1
47 19 1
47 20 1
47 30 1
47 33 1
47 34 1
47 39 1
47 59 1
47 65 1
47 68 1
47 71 1
47 73 1
47 78 1
47 79 1
47 80 1
47 83 1
47 87 1
47 88 1
47 98 1
47 108 1
47 109 1
47 120 1
47 134 1
47 135 1
47 138 1
47 139 1
47 140 1
47 145 1
47 146 1
47 147 1
47 152 1
47 155 1
47 162 1
47 164 1
47 167 1
47 171 1
47 173 1
47 181 1
47 186 1
47 187 1
47 188 1
47 191 1
47 196 1
47 208 1
47 211 1
47 217 1
47 218 1
47 231 1
47 235 1
47 246 1
47 253 1
47 254 1
47 256 1
47 263 1
47 264 1
47 277 1
47 281 1
47 290 1
47 291 1
47 304 1
47 305 1
47 306 1
47 308 1
47 320 1
47 325 1
47 336 1
47 338 1
47 342 1
47 346 1
47 366 1
47 368 1
47 370 1
47 382 1
47 385 1
47 390 1
47 393 1
47 394 1
47 404 1
47 406 1
47 410 1
47 412 1
47 416 1
47 418 1
47 426 1
47 437 1
47 438 1
47 442 1
47 451 1
47 454 1
47 466 1
47 467 1
47 479 1
47 488 1
47 491 1
47 494 1
48 5 1
48 9 1
48 10 1
48 14 1
48 18 1
48 22 1
48 27 1
48 28 1
48 32 1
48 33 1
48 37 1
48 40 1
48 43 1
48 51 1
48 63 1
48 64 1
48 65 1
48 73 1
48 74 1
48 78 1
48 79 1
48 83 1
48 87 1
48 88 1
48 91 1
48 111 1
48 114 1
48 127 1
48 128 1
48 137 1
48 145 1
48 149 1
48 157 1
48 160 1
48 162 1
48 168 1
48 173 1
48 177 1
48 178 1
48 181 1
48 183 1
48 185 1
48 192 1
48 195 1
48 200 1
48 202 1
48 206 1
48 247 1
48 252 1
48 259 1
48 264 1
48 268 1
48 271 1
48 279 1
48 285 1
48 292 1
48 298 1
48 312 1
48 322 1
48 329 1
48 334 1
48 336 1
48 341 1
48 344 1
48 345 1
48 347 1
48 355 1
48 359 1
48 362 1
48 375 1
48 376 1
48 384 1
48 386 1
48 387 1
48 390 1
48 395 1
48 399 1
48 400 1
48 401 1
48 413 1
48 416 1
48 424 1
48 426 1
48 427 1
48 432 1
48 433 1
48 435 1
48 441 1
48 443 1
48 446 1
48 454 1
48 472 1
48 473 1
48 475 1
48 478 1
48 482 1
48 487 1
48 488 1
48 493 1
49 9 1
49 14 1
49 29 1
49 34 1
49 36 1
49 41 1
49 42 1
49 46 1
49 67 1
49 69 1
49 70 1
49 76 1
49 79 1
49 81 1
49 89 1
49 111 1
49 112 1
49 121 1
49 122 1
49 141 1
49 147 1
49 148 1
49 149 1
49 150 1
49 153 1
49 154 1
49 155 1
49 159 1
49 160 1
49 163 1
49 169 1
49 170 1
49 176 1
49 179 1
49 182 1
49 186 1
49 193 1
49 204 1
49 215 1
49 219 1
49 220 1
49 222 1
49 228 1
49 230 1
49 232 1
49 237 1
49 238 1
49 244 1
49 253 1
49 269 1
49 272 1
49 285 1
49 287 1
49 290 1
49 297 1
49 317 1
49 324 1
49 327 1
49 335 1
49 342 1
49 346 1
49 352 1
49 353 1
49 360 1
49 363 1
49 367 1
49 369 1
49 379 1
49 380 1
49 382 1
49 392 1
49 393 1
49 415 1
49 422 1
49 426 1
49 431 1
49 432 1
49 438 1
49 448 1
49 456 1
49 460 1
49 465 1
49 472 1
49 473 1
49 475 1
49 483 1
49 486 1
49 493 1
49 496 1
49 497 1
49 498 1
50 2 1
50 17 1
50 21 1
50 22 1
50 34 1
50 37 1
50 39 1
50 42 1
50 44 1
50 45 1
50 51 1
50 55 1
50 57 1
50 62 1
50 63 1
50 66 1
50 70 1
50 77 1
50 87 1
50 92 1
50 94 1
50 100 1
50 102 1
50 103 1
50 111 1
50 117 1
50 118 1
50 121 1
50 125 1
50 126 1
50 131 1
50 134 1
50 136 1
50 138 1
50 142 1
50 145 1
50 154 1
50 155 1
50 164 1
50 165 1
50 167 1
50 173 1
50 187 1
50 192 1
50 195 1
50 203 1
50 204 1
50 205 1
50 206 1
50 207 1
50 209 1
50 214 1
50 215 1
50 218 1
50 219 1
50 229 1
50 230 1
50 231 1
50 237 1
50 246 1
50 251 1
50 255 1
50 263 1
50 278 1
50 279 1
50 282 1
50 287 1
50 291 1
50 299 1
50 305 1
50 307 1
50 315 1
50 317 1
50 321 1
50 326 1
50 330 1
50 332 1
50 334 1
50 335 1
50 342 1
50 351 1
50 353 1
50 355 1
50 357 1
50 359 1
50 367 1
50 369 1
50 376 1
50 388 1
50 389 1
50 394 1
50 401 1
50 403 1
50 404 1
50 405 1
50 412 1
50 419 1
50 422 1
50 426 1
50 430 1
50 434 1
50 435 1
50 436 1
50 440 1
50 462 1
50 467 1
50 472 1
50 475 1
50 479 1
50 494 1
51 8 1
51 10 1
51 14 1
51 16 1
51 23 1
51 26 1
51 46 1
51 48 1
51 50 1
51 53 1
51 55 1
51 56 1
51 61 1
51 65 1
51 74 1
51 78 1
51 79 1
51 84 1
51 88 1
51 96 1
51 98 1
51 101 1
51 102 1
51 107 1
51 123 1
51 124 1
51 129 1
51 136 1
51 143 1
51 149 1
51 154 1
51 161 1
51 172 1
51 180 1
51 191 1
51 193 1
51 194 1
51 197 1
51 199 1
51 204 1
51 214 1
51 221 1
51 223 1
51 234 1
51 237 1
51 240 1
51 241 1
51 244 1
51 249 1
51 257 1
51 260 1
51 263 1
51 265 1
51 276 1
51 277 1
51 289 1
51 291 1
51 295 1
51 296 1
51 297 1
51 298 1
51 302 1
51 308 1
51 316 1
51 324 1
51 327 1
51 328 1
51 331 1
51 334 1
51 338 1
51 345 1
51 355 1
51 367 1
51 372 1
51 374 1
51 375 1
51 378 1
51 383 1
51 389 1
51 390 1
51 392 1
51 405 1
51 407 1
51 413 1
51 414 1
51 423 1
51 425 1
51 426 1
51 442 1
51 446 1
51 447 1
51 450 1
51 451 1
51 452 1
51 454 1
51 456 1
51 458 1
51 461 1
51 462 1
51 463 1
51 468 1
51 474 1
51 477 1
51 482 1
51 484 1
51 486 1
51 500 1
52 3 1
52 4 1
52 5 1
52 7 1
52 8 1
52 25 1
52 30 1
52 37 1
52 44 1
52 45 1
52 53 1
52 67 1
52 68 1
52 69 1
52 80 1
52 83 1
52 90 1
52 93 1
52 101 1
52 104 1
52 108 1
52 110 1
52 118 1
52 121 1
52 129 1
52 133 1
52 148 1
52 151 1
52 152 1
52 158 1
52 160 1
52 162 1
52 170 1
52 172 1
52 183 1
52 184 1
52 186 1
52 193 1
52 195 1
52 198 1
52 199 1
52 200 1
52 206 1
52 208 1
52 215 1
52 216 1
52 218 1
52 222 1
52 247 1
52 257 1
52 262 1
52 263 1
52 265 1
52 266 1
52 270 1
52 274 1
52 275 1
52 277 1
52 284 1
52 286 1
52 287 1
52 291 1
52 293 1
52 294 1
52 307 1
52 310 1
52 318 1
52 321 1
52 325 1
52 332 1
52 340 1
52 341 1
52 344 1
52 345 1
52 354 1
52 356 1
52 359 1
52 361 1
52 370 1
52 376 1
52 379 1
52 389 1
52 404 1
52 410 1
52 414 1
52 415 1
52 423 1
52 425 1
52 426 1
52 428 1
52 433 1
52 438 1
52 440 1
52 453 1
52 454 1
52 468 1
52 470 1
52 482 1
52 483 1
52 490 1
52 491 1
52 493 1
52 495 1
53 2 1
53 4 1
53 12 1
53 16 1
53 24 1
53 29 1
53 37 1
53 38 1
53 41 1
53 51 1
53 52 1
53 55 1
53 57 1
53 58 1
53 60 1
53 68 1
53 74 1
53 76 1
53 77 1
53 84 1
53 91 1
53 92 1
53 94 1
53 104 1
53 109 1
53 112 1
53 121 1
53 127 1
53 134 1
53 135 1
53 136 1
53 169 1
53 171 1
53 174 1
53 181 1
53 195 1
53 197 1
53 199 1
53 201 1
53 202 1
53 204 1
53 210 1
53 213 1
53 214 1
53 220 1
53 222 1
53 225 1
53 226 1
53 232 1
53 236 1
53 240 1
53 242 1
53 245 1
53 247 1
53 251 1
53 253 1
53 263 1
53 265 1
53 267 1
53 269 1
53 270 1
53 277 1
53 278 1
53 284 1
53 290 1
53 291 1
53 295 1
53 299 1
53 302 1
53 305 1
53 309 1
53 314 1
53 315 1
53 316 1
53 323 1
53 325 1
53 339 1
53 340 1
53 341 1
53 353 1
53 355 1
53 362 1
53 374 1
53 375 1
53 394 1
53 397 1
53 430 1
53 438 1
53 439 1
53 442 1
53 443 1
53 447 1
53 448 1
53 449 1
53 455 1
53 461 1
53 467 1
53 469 1
53 482 1
53 485 1
53 495 1
53 496 1
53 497 1
53 498 1
53 500 1
54 2 1
54 9 1
54 24 1
54 26 1
54 29 1
54 30 1
54 32 1
54 34 1
54 44 1
54 46 1
54 56 1
54 59 1
54 63 1
54 65 1
54 69 1
54 76 1
54 85 1
54 86 1
54 89 1
54 90 1
54 106 1
54 112 1
54 119 1
54 124 1
54 138 1
54 139 1
54 141 1
54 144 1
54 151 1
54 155 1
54 162 1
54 172 1
54 175 1
54 177 1
54 184 1
54 185 1
54 186 1
54 193 1
54 194 1
54 195 1
54 196 1
54 200 1
54 208 1
54 211 1
54 212 1
54 223 1
54 224 1
54 232 1
54 249 1
54 250 1
54 264 1
54 265 1
54 275 1
54 278 1
54 280 1
54 289 1
54 295 1
54 301 1
54 323 1
54 325 1
54 329 1
54 353 1
54 355 1
54 357 1
54 358 1
54 362 1
54 366 1
54 372 1
54 376 1
54 381 1
54 387 1
54 394 1
54 395 1
54 396 1
54 398 1
54 405 1
54 408 1
54 409 1
54 412 1
54 413 1
54 416 1
54 419 1
54 420 1
54 429 1
54 431 1
54 436 1
54 442 1
54 443 1
54 444 1
54 457 1
54 458 1
54 460 1
54 466 1
54 470 1
54 477 1
55 10 1
55 16 1
55 17 1
55 19 1
55 36 1
55 37 1
55 39 1
55 44 1
55 50 1
55 51 1
55 53 1
55 60 1
55 69 1
55 72 1
55 73 1
55 74 1
55 80 1
55 81 1
55 82 1
55 84 1
55 100 1
55 101 1
55 108 1
55 120 1
55 121 1
55 130 1
55 131 1
55 135 1
55 137 1
55 139 1
55 143 1
55 147 1
55 148 1
55 153 1
55 156 1
55 159 1
55 160 1
55 171 1
55 184 1
55 187 1
55 190 1
55 192 1
55 198 1
55 208 1
55 210 1
55 216 1
55 220 1
55 224 1
55 233 1
55 250 1
55 251 1
55 252 1
55 258 1
55 269 1
55 286 1
55 289 1
55 290 1
55 299 1
55 300 1
55 301 1
55 309 1
55 312 1
55 313 1
55 325 1
55 327 1
55 329 1
55 342 1
55 347 1
55 348 1
55 350 1
55 353 1
55 354 1
55 356 1
55 359 1
55 363 1
55 374 1
55 375 1
55 389 1
55 390 1
55 392 1
55 394 1
55 395 1
55 397 1
55 403 1
55 414 1
55 416 1
55 419 1
55 421 1
55 422 1
55 439 1
55 446 1
55 447 1
55 448 1
55 455 1
55 471 1
55 472 1
55 477 1
55 482 1
55 483 1
55 485 1
55 487 1
55 488 1
55 495 1
55 499 1
56 2 1
56 13 1
56 16 1
56 23 1
56 34 1
56 51 1
56 54 1
56 59 1
56 63 1
56 73 1
56 78 1
56 81 1
56 95 1
56 96 1
56 98 1
56 112 1
56 115 1
56 119 1
56 121 1
56 127 1
56 130 1
56 133 1
56 136 1
56 160 1
56 162 1
56 170 1
56 172 1
56 174 1
56 183 1
56 190 1
56 196 1
56 198 1
56 207 1
56 217 1
56 230 1
56 232 1
56 243 1
56 246 1
56 249 1
56 251 1
56 254 1
56 263 1
56 265 1
56 267 1
56 268 1
56 272 1
56 279 1
56 280 1
56 281 1
56 288 1
56 293 1
56 318 1
56 319 1
56 321 1
56 329 1
56 330 1
56 331 1
56 336 1
56 341 1
56 345 1
56 347 1
56 364 1
56 369 1
56 372 1
56 379 1
56 385 1
56 389 1
56 392 1
56 398 1
56 403 1
56 404 1
56 408 1
56 428 1
56 434 1
56 451 1
56 457 1
56 458 1
56 459 1
56 460 1
56 467 1
56 470 1
56 471 1
56 473 1
56 481 1
56 483 1
56 484 1
56 485 1
56 487 1
56 492 1
56 494 1
56 499 1
57 7 1
57 11 1
57 12 1
57 15 1
57 17 1
57 22 1
57 24 1
57 31 1
57 33 1
57 43 1
57 50 1
57 53 1
57 58 1
57 62 1
57 81 1
57 98 1
57 107 1
57 116 1
57 123 1
57 124 1
57 134 1
57 143 1
57 144 1
57 147 1
57 148 1
57 149 1
57 154 1
57 156 1
57 161 1
57 167 1
57 171 1
57 173 1
57 176 1
57 180 1
57 184 1
57 186 1
57 198 1
57 211 1
57 214 1
57 218 1
57 219 1
57 220 1
57 224 1
57 230 1
57 234 1
57 242 1
57 243 1
57 244 1
57 245 1
57 247 1
57 249 1
57 264 1
57 265 1
57 285 1
57 293 1
57 295 1
57 304 1
57 311 1
57 325 1
57 334 1
57 337 1
57 344 1
57 348 1
57 349 1
57 353 1
57 357 1
57 360 1
57 366 1
57 371 1
57 374 1
57 375 1
57 376 1
57 395 1
57 396 1
57 398 1
57 402 1
57 403 1
57 412 1
57 414 1
57 417 1
57 420 1
57 421 1
57 426 1
57 428 1
57 435 1
57 440 1
57 443 1
57 445 1
57 456 1
57 458 1
57 461 1
57 468 1
57 473 1
57 479 1
58 8 1
58 15 1
58 16 1
58 17 1
58 18 1
58 19 1
58 21 1
58 23 1
58 34 1
58 35 1
58 40 1
58 53 1
58 57 1
58 60 1
58 64 1
58 65 1
58 66 1
58 69 1
58 78 1
58 83 1
58 84 1
58 85 1
58 88 1
58 100 1
58 108 1
58 110 1
58 120 1
58 124 1
58 130 1
58 136 1
58 138 1
58 145 1
58 153 1
58 155 1
58 169 1
58 171 1
58 206 1
58 208 1
58 211 1
58 213 1
58 214 1
58 220 1
58 224 1
58 225 1
58 233 1
58 234 1
58 238 1
58 239 1
58 245 1
58 247 1
58 249 1
58 259 1
58 261 1
58 263 1
58 268 1
58 275 1
58 281 1
58 284 1
58 285 1
58 286 1
58 287 1
58 288 1
58 292 1
58 293 1
58 298 1
58 300 1
58 309 1
58 317 1
58 318 1
58 320 1
58 321 1
58 329 1
58 333 1
58 346 1
58 348 1
58 353 1
58 356 1
58 367 1
58 370 1
58 382 1
58 391 1
58 393 1
58 397 1
58 401 1
58 406 1
58 411 1
58 421 1
58 424 1
58 431 1
58 436 1
58 442 1
58 443 1
58 461 1
58 465 1
58 471 1
58 480 1
58 481 1
58 483 1
58 488 1
58 491 1
58 494 1
58 498 1
58 499 1
59 9 1
59 10 1
59 38 1
59 47 1
59 54 1
59 56 1
59 60 1
59 65 1
59 66 1
59 71 1
59 75 1
59 84 1
59 91 1
59 92 1
59 102 1
59 114 1
59 119 1
59 122 1
59 134 1
59 138 1
59 144 1
59 148 1
59 150 1
59 161 1
59 162 1
59 164 1
59 173 1
59 180 1
59 186 1
59 188 1
59 191 1
59 201 1
59 202 1
59 204 1
59 205 1
59 206 1
59 209 1
59 213 1
59 219 1
59 241 1
59 244 1
59 247 1
59 256 1
59 261 1
59 266 1
59 275 1
59 280 1
59 287 1
59 289 1
59 291 1
59 303 1
59 304 1
59 313 1
59 314 1
59 324 1
59 325 1
59 327 1
59 330 1
59 331 1
59 338 1
59 341 1
59 344 1
59 353 1
59 364 1
59 371 1
59 375 1
59 381 1
59 392 1
59 394 1
59 399 1
59 409 1
59 422 1
59 424 1
59 431 1
59 434 1
59 435 1
59 445 1
59 449 1
59 450 1
59 452 1
59 453 1
59 463 1
59 472 1
59 477 1
59 491 1
59 496 1
59 497 1
60 1 1
60 2 1
60 3 1
60 8 1
60 16 1
60 31 1
60 33 1
60 34 1
60 43 1
60 46 1
60 53 1
60 55 1
60 58 1
60 59 1
60 62 1
60 79 1
60 82 1
60 85 1
60 91 1
60 93 1
60 94 1
60 101 1
60 102 1
60 104 1
60 105 1
60 115 1
60 128 1
60 129 1
60 131 1
60 133 1
60 140 1
60 144 1
60 148 1
60 151 1
60 159 1
60 173 1
60 179 1
60 182 1
60 193 1
60 196 1
60 197 1
60 209 1
60 212 1
60 219 1
60 221 1
60 222 1
60 228 1
60 231 1
60 234 1
60 236 1
60 238 1
60 241 1
60 242 1
60 243 1
60 250 1
60 254 1
60 258 1
60 262 1
60 272 1
60 277 1
60 286 1
60 287 1
60 291 1
60 293 1
60 298 1
60 307 1
60 309 1
60 338 1
60 343 1
60 345 1
60 349 1
60 350 1
60 357 1
60 363 1
60 366 1
60 378 1
60 385 1
60 388 1
60 389 1
60 399 1
60 400 1
60 413 1
60 414 1
60 428 1
60 433 1
60 439 1
60 441 1
60 446 1
60 447 1
60 450 1
60 454 1
60 463 1
60 466 1
60 470 1
60 492 1
60 494 1
60 495 1
61 4 1
61 7 1
61 8 1
61 17 1
61 18 1
61 20 1
61 26 1
61 30 1
61 35 1
61 41 1
61 51 1
61 67 1
61 69 1
61 70 1
61 72 1
61 74 1
61 82 1
61 91 1
61 97 1
61 104 1
61 119 1
61 139 1
61 141 1
61 155 1
61 157 1
61 159 1
61 162 1
61 167 1
61 169 1
61 171 1
61 172 1
61 184 1
61 191 1
61 198 1
61 200 1
61 205 1
61 209 1
61 211 1
61 213 1
61 217 1
61 227 1
61 238 1
61 241 1
61 243 1
61 248 1
61 250 1
61 252 1
61 255 1
61 257 1
61 258 1
61 262 1
61 268 1
61 269 1
61 273 1
61 280 1
61 284 1
61 285 1
61 288 1
61 299 1
61 303 1
61 306 1
61 311 1
61 318 1
61 319 1
61 321 1
61 330 1
61 331 1
61 340 1
61 345 1
61 355 1
61 356 1
61 361 1
61 365 1
61 376 1
61 379 1
61 383 1
61 384 1
61 386 1
61 387 1
61 397 1
61 398 1
61 403 1
61 412 1
61 413 1
61 419 1
61 421 1
61 433 1
61 436 1
61 441 1
61 445 1
61 447 1
61 457 1
61 459 1
61 469 1
62 1 1
62 7 1
62 8 1
62 11 1
62 24 1
62 30 1
62 50 1
62 57 1
62 60 1
62 63 1
62 65 1
62 67 1
62 72 1
62 74 1
62 77 1
62 80 1
62 84 1
62 85 1
62 86 1
62 89 1
62 92 1
62 96 1
62 99 1
62 104 1
62 110 1
62 112 1
62 118 1
62 128 1
62 140 1
62 142 1
62 143 1
62 151 1
62 155 1
62 156 1
62 161 1
62 165 1
62 176 1
62 181 1
62 188 1
62 189 1
62 201 1
62 207 1
62 226 1
62 234 1
62 240 1
62 250 1
62 252 1
62 253 1
62 256 1
62 259 1
62 271 1
62 279 1
62 285 1
62 293 1
62 296 1
62 300 1
62 302 1
62 304 1
62 305 1
62 312 1
62 316 1
62 317 1
62 319 1
62 325 1
62 328 1
62 332 1
62 333 1
62 338 1
62 345 1
62 346 1
62 347 1
62 348 1
62 350 1
62 358 1
62 362 1
62 369 1
62 391 1
62 394 1
62 395 1
62 398 1
62 401 1
62 408 1
62 427 1
62 429 1
62 430 1
62 431 1
62 436 1
62 438 1
62 441 1
62 444 1
62 448 1
62 449 1
62 454 1
62 456 1
62 462 1
62 466 1
62 476 1
62 479 1
62 480 1
62 488 1
62 490 1
62 494 1
62 496 1
62 497 1
63 5 1
63 9 1
63 19 1
63 22 1
63 30 1
63 31 1
63 35 1
63 41 1
63 42 1
63 46 1
63 48 1
63 50 1
63 54 1
63 56 1
63 62 1
63 64 1
63 68 1
63 69 1
63 70 1
63 75 1
63 76 1
63 77 1
63 86 1
63 91 1
63 93 1
63 95 1
63 96 1
63 109 1
63 115 1
63 116 1
63 121 1
63 126 1
63 128 1
63 135 1
63 136 1
63 144 1
63 148 1
63 149 1
63 150 1
63 151 1
63 152 1
63 158 1
63 160 1
63 161 1
63 171 1
63 172 1
63 179 1
63 181 1
63 192 1
63 212 1
63 214 1
63 217 1
63 219 1
63 222 1
63 226 1
63 239 1
63 252 1
63 253 1
63 254 1
63 257 1
63 259 1
63 261 1
63 263 1
63 267 1
63 268 1
63 272 1
63 279 1
63 301 1
63 305 1
63 308 1
63 310 1
63 311 1
63 312 1
63 313 1
63 316 1
63 317 1
63 327 1
63 330 1
63 337 1
63 350 1
63 356 1
63 359 1
63 363 1
63 374 1
63 382 1
63 389 1
63 393 1
63 403 1
63 404 1
63 405 1
63 406 1
63 408 1
63 415 1
63 417 1
63 423 1
63 428 1
63 429 1
63 431 1
63 433 1
63 446 1
63 459 1
63 463 1
63 484 1
63 486 1
63 488 1
63 495 1
64 3 1
64 7 1
64 13 1
64 23 1
64 24 1
64 33 1
64 46 1
64 48 1
64 58 1
64 63 1
64 68 1
64 73 1
64 88 1
64 91 1
64 92 1
64 97 1
64 103 1
64 104 1
64 108 1
64 115 1
64 116 1
64 119 1
64 124 1
64 140 1
64 144 1
64 151 1
64 154 1
64 162 1
64 170 1
64 172 1
64 173 1
64 184 1
64 190 1
64 195 1
64 203 1
64 207 1
64 209 1
64 211 1
64 212 1
64 215 1
64 217 1
64 231 1
64 233 1
64 236 1
64 238 1
64 248 1
64 251 1
64 254 1
64 256 1
64 263 1
64 264 1
64 266 1
64 272 1
64 281 1
64 287 1
64 288 1
64 299 1
64 302 1
64 308 1
64 309 1
64 310 1
64 313 1
64 316 1
64 322 1
64 328 1
64 331 1
64 341 1
64 342 1
64 356 1
64 362 1
64 364 1
64 368 1
64 371 1
64 375 1
64 380 1
64 381 1
64 387 1
64 393 1
64 398 1
64 399 1
64 404 1
64 405 1
64 408 1
64 413 1
64 417 1
64 419 1
64 444 1
64 452 1
64 459 1
64 462 1
64 463 1
64 476 1
64 485 1
64 488 1
64 490 1
64 495 1
64 497 1
64 499 1
65 7 1
65 14 1
65 30 1
65 35 1
65 44 1
65 47 1
65 48 1
65 51 1
65 54 1
65 58 1
65 59 1
65 62 1
65 71 1
65 78 1
65 83 1
65 89 1
65 94 1
65 101 1
65 107 1
65 108 1
65 110 1
65 111 1
65 114 1
65 116 1
65 119 1
65 125 1
65 140 1
65 152 1
65 153 1
65 168 1
65 169 1
65 176 1
65 182 1
65 185 1
65 186 1
65 187 1
65 190 1
65 192 1
65 197 1
65 209 1
65 214 1
65 215 1
65 216 1
65 218 1
65 220 1
65 222 1
65 233 1
65 234 1
65 239 1
65 240 1
65 241 1
65 242 1
65 246 1
65 252 1
65 255 1
65 258 1
65 267 1
65 274 1
65 279 1
65 286 1
65 291 1
65 292 1
65 296 1
65 298 1
65 309 1
65 314 1
65 321 1
65 329 1
65 337 1
65 340 1
65 351 1
65 352 1
65 353 1
65 363 1
65 368 1
65 381 1
65 391 1
65 399 1
65 400 1
65 404 1
65 405 1
65 407 1
65 408 1
65 409 1
65 411 1
65 418 1
65 424 1
65 427 1
65 433 1
65 436 1
65 438 1
65 443 1
65 447 1
65 449 1
65 458 1
65 461 1
65 465 1
65 466 1
65 472 1
65 474 1
65 475 1
65 481 1
65 484 1
65 488 1
65 496 1
65 497 1
65 500 1
66 9 1
66 11 1
66 24 1
66 28 1
66 33 1
66 36 1
66 45 1
66 50 1
66 58 1
66 59 1
66 69 1
66 72 1
66 74 1
66 91 1
66 95 1
66 97 1
66 114 1
66 122 1
66 124 1
66 128 1
66 129 1
66 144 1
66 147 1
66 148 1
66 150 1
66 163 1
66 169 1
66 181 1
66 185 1
66 189 1
66 198 1
66 203 1
66 204 1
66 206 1
66 210 1
66 214 1
66 215 1
66 225 1
66 228 1
66 232 1
66 235 1
66 254 1
66 255 1
66 257 1
66 268 1
66 269 1
66 273 1
66 274 1
66 279 1
66 280 1
66 281 1
66 289 1
66 299 1
66 302 1
66 307 1
66 314 1
66 316 1
66 317 1
66 320 1
66 321 1
66 323 1
66 324 1
66 325 1
66 326 1
66 330 1
66 332 1
66 345 1
66 349 1
66 351 1
66 353 1
66 361 1
66 368 1
66 381 1
66 393 1
66 403 1
66 409 1
66 415 1
66 416 1
66 419 1
66 427 1
66 433 1
66 442 1
66 445 1
66 450 1
66 451 1
66 452 1
66 455 1
66 458 1
66 462 1
66 469 1
66 474 1
66 475 1
66 476 1
66 487 1
66 488 1
67 5 1
67 17 1
67 19 1
67 23 1
67 24 1
67 26 1
67 29 1
67 34 1
67 49 1
67 52 1
67 61 1
67 62 1
67 69 1
67 78 1
67 83 1
67 92 1
67 97 1
67 102 1
67 109 1
67 115 1
67 118 1
67 120 1
67 121 1
67 126 1
67 136 1
67 147 1
67 151 1
67 153 1
67 158 1
67 160 1
67 163 1
67 167 1
67 173 1
67 181 1
67 186 1
67 187 1
67 194 1
67 199 1
67 201 1
67 203 1
67 212 1
67 218 1
67 219 1
67 230 1
67 240 1
67 254 1
67 265 1
67 269 1
67 278 1
67 281 1
67 287 1
67 289 1
67 292 1
67 295 1
67 298 1
67 299 1
67 313 1
67 317 1
67 326 1
67 328 1
67 331 1
67 358 1
67 359 1
67 360 1
67 365 1
67 369 1
67 387 1
67 400 1
67 403 1
67 414 1
67 417 1
67 419 1
67 427 1
67 431 1
67 433 1
67 436 1
67 439 1
67 441 1
67 450 1
67 456 1
67 459 1
67 468 1
67 485 1
67 492 1
67 496 1
68 10 1
68 12 1
68 16 1
68 20 1
68 23 1
68 29 1
68 30 1
68 32 1
68 41 1
68 42 1
68 47 1
68 52 1
68 53 1
68 63 1
68 64 1
68 75 1
68 84 1
68 86 1
68 94 1
68 105 1
68 109 1
68 117 1
68 119 1
68 122 1
68 124 1
68 125 1
68 128 1
68 131 1
68 134 1
68 135 1
68 143 1
68 146 1
68 148 1
68 154 1
68 157 1
68 170 1
68 171 1
68 187 1
68 194 1
68 199 1
68 201 1
68 203 1
68 209 1
68 212 1
68 221 1
68 232 1
68 233 1
68 239 1
68 240 1
68 241 1
68 245 1
68 251 1
68 254 1
68 263 1
68 277 1
68 278 1
68 283 1
68 305 1
68 310 1
68 311 1
68 319 1
68 321 1
68 332 1
68 339 1
68 340 1
68 358 1
68 359 1
68 362 1
68 368 1
68 373 1
68 384 1
68 393 1
68 400 1
68 403 1
68 407 1
68 408 1
68 411 1
68 413 1
68 416 1
68 417 1
68 420 1
68 423 1
68 425 1
68 427 1
68 431 1
68 432 1
68 438 1
68 454 1
68 456 1
68 461 1
68 464 1
68 468 1
68 475 1
68 478 1
68 482 1
68 485 1
68 486 1
68 493 1
69 1 1
69 6 1
69 9 1
69 16 1
69 18 1
69 19 1
69 20 1
69 29 1
69 34 1
69 37 1
69 42 1
69 49 1
69 52 1
69 54 1
69 55 1
69 58 1
69 61 1
69 63 1
69 66 1
69 67 1
69 72 1
69 73 1
69 76 1
69 78 1
69 84 1
69 90 1
69 91 1
69 97 1
69 99 1
69 107 1
69 123 1
69 128 1
69 134 1
69 136 1
69 153 1
69 158 1
69 165 1
69 166 1
69 176 1
69 178 1
69 179 1
69 185 1
69 194 1
69 199 1
69 205 1
69 214 1
69 219 1
69 221 1
69 228 1
69 236 1
69 251 1
69 254 1
69 271 1
69 276 1
69 277 1
69 280 1
69 281 1
69 285 1
69 287 1
69 292 1
69 307 1
69 315 1
69 323 1
69 324 1
69 326 1
69 330 1
69 333 1
69 337 1
69 347 1
69 349 1
69 350 1
69 362 1
69 363 1
69 367 1
69 369 1
69 376 1
69 379 1
69 380 1
69 381 1
69 385 1
69 392 1
69 396 1
69 398 1
69 406 1
69 413 1
69 426 1
69 427 1
69 439 1
69 441 1
69 446 1
69 455 1
69 463 1
69 469 1
69 473 1
69 474 1
69 475 1
69 481 1
69 484 1
69 487 1
69 488 1
69 489 1
69 492 1
70 7 1
70 12 1
70 13 1
70 30 1
70 34 1
70 40 1
70 44 1
70 45 1
70 46 1
70 49 1
70 50 1
70 61 1
70 63 1
70 74 1
70 78 1
70 79 1
70 82 1
70 85 1
70 92 1
70 107 1
70 108 1
70 112 1
70 127 1
70 131 1
70 137 1
70 141 1
70 145 1
70 148 1
70 149 1
70 150 1
70 158 1
70 161 1
70 163 1
70 166 1
70 168 1
70 171 1
70 179 1
70 180 1
70 182 1
70 184 1
70 187 1
70 191 1
70 199 1
70 206 1
70 207 1
70 212 1
70 218 1
70 228 1
70 231 1
70 246 1
70 249 1
70 253 1
70 255 1
70 262 1
70 263 1
70 275 1
70 280 1
70 281 1
70 300 1
70 313 1
70 315 1
70 319 1
70 328 1
70 331 1
70 332 1
70 336 1
70 338 1
70 340 1
70 344 1
70 345 1
70 352 1
70 353 1
70 360 1
70 368 1
70 373 1
70 376 1
70 392 1
70 395 1
70 400 1
70 401 1
70 402 1
70 404 1
70 410 1
70 411 1
70 412 1
70 413 1
70 414 1
70 417 1
70 428 1
70 433 1
70 434 1
70 435 1
70 438 1
70 439 1
70 441 1
70 447 1
70 448 1
70 455 1
70 459 1
70 462 1
70 469 1
70 480 1
70 481 1
70 493 1
70 494 1
70 495 1
71 11 1
71 12 1
71 20 1
71 29 1
71 38 1
71 39 1
71 47 1
71 59 1
71 65 1
71 75 1
71 76 1
71 77 1
71 78 1
71 83 1
71 89 1
71 91 1
71 97 1
71 101 1
71 105 1
71 109 1
71 113 1
71 118 1
71 119 1
71 120 1
71 125 1
71 126 1
71 137 1
71 146 1
71 147 1
71 148 1
71 151 1
71 153 1
71 154 1
71 158 1
71 162 1
71 168 1
71 178 1
71 179 1
71 180 1
71 183 1
71 184 1
71 196 1
71 198 1
71 202 1
71 205 1
71 220 1
71 255 1
71 268 1
71 272 1
71 277 1
71 281 1
71 282 1
71 293 1
71 295 1
71 299 1
71 305 1
71 306 1
71 310 1
71 313 1
71 318 1
71 320 1
71 326 1
71 328 1
71 329 1
71 337 1
71 346 1
71 347 1
71 348 1
71 356 1
71 359 1
71 360 1
71 366 1
71 380 1
71 381 1
71 385 1
71 387 1
71 391 1
71 396 1
71 402 1
71 410 1
71 412 1
71 414 1
71 415 1
71 420 1
71 434 1
71 438 1
71 448 1
71 450 1
71 464 1
71 466 1
71 467 1
71 471 1
71 474 1
71 478 1
71 488 1
72 1 1
72 3 1
72 14 1
72 20 1
72 21 1
72 28 1
72 30 1
72 31 1
72 33 1
72 36 1
72 37 1
72 55 1
72 61 1
72 62 1
72 66 1
72 69 1
72 79 1
72 80 1
72 84 1
72 90 1
72 96 1
72 98 1
72 99 1
72 105 1
72 114 1
72 123 1
72 124 1
72 132 1
72 136 1
72 137 1
72 141 1
72 145 1
72 165 1
72 173 1
72 174 1
72 178 1
72 189 1
72 191 1
72 200 1
72 201 1
72 210 1
72 212 1
72 213 1
72 215 1
72 219 1
72 221 1
72 225 1
72 229 1
72 235 1
72 245 1
72 246 1
72 249 1
72 261 1
72 273 1
72 274 1
72 275 1
72 276 1
72 278 1
72 279 1
72 282 1
72 294 1
72 296 1
72 297 1
72 309 1
72 313 1
72 315 1
72 320 1
72 323 1
72 324 1
72 328 1
72 336 1
72 337 1
72 338 1
72 341 1
72 347 1
72 350 1
72 352 1
72 376 1
72 378 1
72 384 1
72 386 1
72 388 1
72 392 1
72 404 1
72 405 1
72 410 1
72 427 1
72 434 1
72 439 1
72 448 1
72 452 1
72 457 1
72 475 1
72 476 1
72 480 1
72 481 1
72 484 1
72 485 1
72 492 1
72 494 1
72 499 1
73 1 1
73 2 1
73 6 1
73 14 1
73 16 1
73 17 1
73 18 1
73 25 1
73 32 1
73 39 1
73 40 1
73 41 1
73 47 1
73 48 1
73 55 1
73 56 1
73 64 1
73 69 1
73 75 1
73 81 1
73 83 1
73 95 1
73 97 1
73 100 1
73 102 1
73 103 1
73 107 1
73 113 1
73 128 1
73 137 1
73 142 1
73 150 1
73 151 1
73 156 1
73 157 1
73 163 1
73 171 1
73 172 1
73 175 1
73 176 1
73 187 1
73 188 1
73 191 1
73 193 1
73 200 1
73 205 1
73 210 1
73 214 1
73 223 1
73 229 1
73 230 1
73 233 1
73 243 1
73 249 1
73 251 1
73 261 1
73 262 1
73 270 1
73 272 1
73 281 1
73 282 1
73 284 1
73 294 1
73 302 1
73 319 1
73 323 1
73 332 1
73 343 1
73 347 1
73 348 1
73 377 1
73 380 1
73 388 1
73 401 1
73 404 1
73 408 1
73 415 1
73 416 1
73 423 1
73 429 1
73 434 1
73 446 1
73 447 1
73 448 1
73 449 1
73 455 1
73 456 1
73 459 1
73 465 1
73 475 1
73 478 1
73 480 1
73 489 1
74 4 1
74 10 1
74 11 1
74 19 1
74 30 1
74 35 1
74 46 1
74 48 1
74 51 1
74 53 1
74 55 1
74 61 1
74 62 1
74 66 1
74 70 1
74 77 1
74 85 1
74 90 1
74 97 1
74 99 1
74 101 1
74 108 1
74 109 1
74 128 1
74 132 1
74 141 1
74 144 1
74 151 1
74 154 1
74 158 1
74 162 1
74 167 1
74 170 1
74 177 1
74 180 1
74 183 1
74 184 1
74 190 1
74 191 1
74 199 1
74 202 1
74 208 1
74 209 1
74 210 1
74 211 1
74 219 1
74 222 1
74 229 1
74 231 1
74 234 1
74 243 1
74 248 1
74 260 1
74 263 1
74 264 1
74 265 1
74 266 1
74 269 1
74 273 1
74 278 1
74 283 1
74 287 1
74 290 1
74 296 1
74 298 1
74 300 1
74 302 1
74 304 1
74 306 1
74 312 1
74 324 1
74 330 1
74 335 1
74 337 1
74 342 1
74 348 1
74 353 1
74 355 1
74 356 1
74 368 1
74 376 1
74 386 1
74 387 1
74 389 1
74 390 1
74 395 1
74 409 1
74 418 1
74 420 1
74 425 1
74 432 1
74 456 1
74 463 1
74 465 1
74 468 1
74 474 1
74 475 1
74 478 1
74 481 1
74 483 1
74 484 1
74 488 1
74 494 1
74 496 1
74 498 1
75 6 1
75 12 1
75 16 1
75 18 1
75 21 1
75 22 1
75 32 1
75 35 1
75 37 1
75 39 1
75 44 1
75 59 1
75 63 1
75 68 1
75 71 1
75 73 1
75 80 1
75 82 1
75 86 1
75 92 1
75 94 1
75 97 1
75 99 1
75 104 1
75 129 1
75 130 1
75 131 1
75 133 1
75 135 1
75 140 1
75 150 1
75 151 1
75 160 1
75 161 1
75 164 1
75 167 1
75 173 1
75 176 1
75 177 1
75 180 1
75 182 1
75 193 1
75 195 1
75 203 1
75 208 1
75 218 1
75 219 1
75 223 1
75 228 1
75 232 1
75 235 1
75 238 1
75 240 1
75 252 1
75 256 1
75 266 1
75 268 1
75 271 1
75 276 1
75 285 1
75 287 1
75 288 1
75 292 1
75 299 1
75 306 1
75 314 1
75 317 1
75 331 1
75 338 1
75 342 1
75 348 1
75 350 1
75 357 1
75 361 1
75 367 1
75 374 1
75 382 1
75 384 1
75 389 1
75 390 1
75 397 1
75 399 1
75 403 1
75 407 1
75 410 1
75 412 1
75 430 1
75 433 1
75 448 1
75 458 1
75 460 1
75 462 1
75 464 1
75 470 1
75 471 1
75 475 1
75 485 1
75 493 1
75 496 1
75 498 1
76 3 1
76 9 1
76 10 1
76 22 1
76 24 1
76 25 1
76 29 1
76 36 1
76 38 1
76 43 1
76 49 1
76 53 1
76 54 1
76 63 1
76 69 1
76 71 1
76 85 1
76 86 1
76 90 1
76 91 1
76 92 1
76 98 1
76 117 1
76 119 1
76 127 1
76 130 1
76 132 1
76 137 1
76 139 1
76 140 1
76 141 1
76 149 1
76 150 1
76 155 1
76 158 1
76 160 1
76 163 1
76 164 1
76 166 1
76 169 1
76 176 1
76 184 1
76 191 1
76 196 1
76 208 1
76 217 1
76 232 1
76 237 1
76 239 1
76 249 1
76 253 1
76 261 1
76 269 1
76 270 1
76 276 1
76 280 1
76 289 1
76 294 1
76 295 1
76 301 1
76 305 1
76 306 1
76 309 1
76 317 1
76 319 1
76 326 1
76 332 1
76 338 1
76 347 1
76 352 1
76 357 1
76 359 1
76 362 1
76 375 1
76 380 1
76 381 1
76 385 1
76 386 1
76 394 1
76 395 1
76 398 1
76 406 1
76 408 1
76 413 1
76 419 1
76 421 1
76 428 1
76 434 1
76 448 1
76 450 1
76 454 1
76 455 1
76 459 1
76 466 1
76 481 1
76 483 1
76 484 1
76 485 1
76 487 1
76 489 1
77 1 1
77 9 1
77 18 1
77 19 1
77 30 1
77 50 1
77 53 1
77 62 1
77 63 1
77 71 1
77 74 1
77 78 1
77 81 1
77 85 1
77 88 1
77 99 1
77 113 1
77 116 1
77 117 1
77 123 1
77 129 1
77 152 1
77 157 1
77 165 1
77 167 1
77 175 1
77 176 1
77 181 1
77 189 1
77 193 1
77 195 1
77 200 1
77 205 1
77 206 1
77 217 1
77 220 1
77 227 1
77 229 1
77 232 1
77 245 1
77 250 1
77 253 1
77 255 1
77 261 1
77 264 1
77 268 1
77 272 1
77 273 1
77 276 1
77 280 1
77 286 1
77 287 1
77 292 1
77 296 1
77 300 1
77 323 1
77 324 1
77 331 1
77 337 1
77 338 1
77 341 1
77 351 1
77 353 1
77 355 1
77 356 1
77 359 1
77 361 1
77 363 1
77 364 1
77 365 1
77 370 1
77 376 1
77 381 1
77 383 1
77 384 1
77 385 1
77 386 1
77 388 1
77 400 1
77 402 1
77 404 1
77 410 1
77 411 1
77 414 1
77 416 1
77 417 1
77 418 1
77 422 1
77 429 1
77 430 1
77 431 1
77 432 1
77 434 1
77 446 1
77 448 1
77 453 1
77 456 1
77 472 1
77 487 1
77 491 1
78 12 1
78 16 1
78 27 1
78 34 1
78 47 1
78 48 1
78 51 1
78 56 1
78 58 1
78 65 1
78 67 1
78 69 1
78 70 1
78 71 1
78 77 1
78 82 1
78 83 1
78 85 1
78 87 1
78 97 1
78 107 1
78 108 1
78 109 1
78 113 1
78 116 1
78 120 1
78 121 1
78 127 1
78 129 1
78 133 1
78 139 1
78 140 1
78 142 1
78 147 1
78 155 1
78 174 1
78 175 1
78 180 1
78 183 1
78 185 1
78 187 1
78 188 1
78 190 1
78 193 1
78 204 1
78 208 1
78 213 1
78 216 1
78 220 1
78 222 1
78 225 1
78 227 1
78 232 1
78 237 1
78 240 1
78 241 1
78 248 1
78 256 1
78 257 1
78 262 1
78 263 1
78 266 1
78 269 1
78 270 1
78 278 1
78 281 1
78 289 1
78 293 1
78 298 1
78 314 1
78 319 1
78 324 1
78 325 1
78 327 1
78 330 1
78 334 1
78 335 1
78 336 1
78 337 1
78 339 1
78 347 1
78 348 1
78 365 1
78 371 1
78 372 1
78 375 1
78 376 1
78 379 1
78 383 1
78 387 1
78 392 1
78 395 1
78 406 1
78 408 1
78 409 1
78 413 1
78 420 1
78 427 1
78 428 1
78 429 1
78 437 1
78 441 1
78 442 1
78 444 1
78 448 1
78 452 1
78 464 1
78 468 1
78 470 1
78 481 1
78 488 1
78 490 1
78 493 1
78 495 1
79 2 1
79 3 1
79 12 1
79 15 1
79 18 1
79 19 1
79 22 1
79 30 1
79 38 1
79 39 1
79 41 1
79 42 1
79 46 1
79 47 1
79 48 1
79 49 1
79 51 1
79 60 1
79 70 1
79 72 1
79 85 1
79 104 1
79 106 1
79 108 1
79 109 1
79 120 1
79 122 1
79 132 1
79 147 1
79 149 1
79 151 1
79 152 1
79 161 1
79 162 1
79 164 1
79 168 1
79 171 1
79 176 1
79 180 1
79 188 1
79 190 1
79 191 1
79 194 1
79 199 1
79 206 1
79 209 1
79 211 1
79 225 1
79 236 1
79 247 1
79 254 1
79 267 1
79 276 1
79 277 1
79 278 1
79 280 1
79 282 1
79 301 1
79 303 1
79 309 1
79 311 1
79 316 1
79 317 1
79 325 1
79 326 1
79 336 1
79 341 1
79 348 1
79 349 1
79 353 1
79 355 1
79 357 1
79 361 1
79 364 1
79 367 1
79 377 1
79 384 1
79 385 1
79 390 1
79 398 1
79 400 1
79 404 1
79 413 1
79 415 1
79 416 1
79 419 1
79 425 1
79 431 1
79 433 1
79 436 1
79 443 1
79 450 1
79 452 1
79 455 1
79 456 1
79 460 1
79 466 1
79 467 1
79 469 1
79 476 1
79 478 1
79 479 1
79 487 1
79 488 1
79 489 1
79 495 1
79 496 1
79 498 1
80 2 1
80 13 1
80 17 1
80 19 1
80 22 1
80 23 1
80 31 1
80 34 1
80 47 1
80 52 1
80 55 1
80 62 1
80 72 1
80 75 1
80 90 1
80 94 1
80 109 1
80 110 1
80 130 1
80 132 1
80 136 1
80 137 1
80 141 1
80 150 1
80 151 1
80 152 1
80 153 1
80 158 1
80 160 1
80 163 1
80 165 1
80 167 1
80 169 1
80 177 1
80 179 1
80 192 1
80 194 1
80 198 1
80 199 1
80 200 1
80 201 1
80 205 1
80 207 1
80 219 1
80 222 1
80 242 1
80 243 1
80 256 1
80 260 1
80 264 1
80 270 1
80 279 1
80 294 1
80 295 1
80 298 1
80 299 1
80 300 1
80 310 1
80 313 1
80 318 1
80 319 1
80 322 1
80 326 1
80 331 1
80 334 1
80 337 1
80 346 1
80 347 1
80 351 1
80 352 1
80 368 1
80 383 1
80 386 1
80 403 1
80 411 1
80 417 1
80 428 1
80 432 1
80 433 1
80 438 1
80 443 1
80 446 1
80 454 1
80 456 1
80 471 1
80 477 1
80 479 1
80 481 1
80 484 1
80 488 1
80 489 1
81 3 1
81 12 1
81 18 1
81 20 1
81 22 1
81 33 1
81 35 1
81 49 1
81 55 1
81 56 1
81 57 1
81 73 1
81 77 1
81 87 1
81 97 1
81 101 1
81 106 1
81 107 1
81 125 1
81 132 1
81 134 1
81 137 1
81 142 1
81 143 1
81 144 1
81 154 1
81 157 1
81 171 1
81 172 1
81 175 1
81 186 1
81 193 1
81 201 1
81 203 1
81 209 1
81 215 1
81 228 1
81 229 1
81 230 1
81 241 1
81 242 1
81 265 1
81 268 1
81 273 1
81 279 1
81 281 1
81 287 1
81 289 1
81 292 1
81 293 1
81 295 1
81 313 1
81 319 1
81 321 1
81 324 1
81 335 1
81 337 1
81 342 1
81 350 1
81 357 1
81 364 1
81 372 1
81 373 1
81 376 1
81 379 1
81 381 1
81 382 1
81 384 1
81 391 1
81 393 1
81 398 1
81 407 1
81 409 1
81 417 1
81 428 1
81 439 1
81 442 1
81 451 1
81 453 1
81 456 1
81 467 1
81 469 1
81 479 1
81 481 1
81 485 1
81 491 1
81 500 1
82 1 1
82 3 1
82 18 1
82 31 1
82 34 1
82 35 1
82 36 1
82 38 1
82 45 1
82 46 1
82 55 1
82 60 1
82 61 1
82 70 1
82 75 1
82 78 1
82 89 1
82 95 1
82 101 1
82 106 1
82 107 1
82 117 1
82 124 1
82 141 1
82 143 1
82 145 1
82 148 1
82 149 1
82 151 1
82 153 1
82 162 1
82 168 1
82 174 1
82 176 1
82 183 1
82 185 1
82 188 1
82 190 1
82 191 1
82 197 1
82 203 1
82 204 1
82 207 1
82 210 1
82 214 1
82 215 1
82 241 1
82 243 1
82 253 1
82 259 1
82 271 1
82 280 1
82 283 1
82 285 1
82 289 1
82 294 1
82 295 1
82 301 1
82 313 1
82 315 1
82 319 1
82 322 1
82 323 1
82 326 1
82 327 1
82 330 1
82 336 1
82 339 1
82 341 1
82 342 1
82 343 1
82 358 1
82 370 1
82 383 1
82 389 1
82 392 1
82 394 1
82 397 1
82 401 1
82 402 1
82 403 1
82 405 1
82 409 1
82 412 1
82 413 1
82 422 1
82 425 1
82 429 1
82 430 1
82 438 1
82 444 1
82 446 1
82 450 1
82 466 1
82 468 1
82 473 1
82 486 1
82 488 1
82 493 1
82 498 1
82 500 1
83 12 1
83 17 1
83 20 1
83 22 1
83 23 1
83 25 1
83 35 1
83 43 1
83 47 1
83 48 1
83 52 1
83 58 1
83 65 1
83 67 1
83 71 1
83 73 1
83 78 1
83 91 1
83 100 1
83 104 1
83 108 1
83 112 1
83 113 1
83 118 1
83 119 1
83 120 1
83 122 1
83 124 1
83 129 1
83 130 1
83 136 1
83 138 1
83 142 1
83 143 1
83 145 1
83 148 1
83 152 1
83 157 1
83 158 1
83 159 1
83 164 1
83 168 1
83 170 1
83 180 1
83 194 1
83 195 1
83 197 1
83 202 1
83 207 1
83 209 1
83 211 1
83 221 1
83 223 1
83 224 1
83 227 1
83 231 1
83 233 1
83 235 1
83 236 1
83 244 1
83 246 1
83 247 1
83 254 1
83 259 1
83 261 1
83 263 1
83 269 1
83 280 1
83 283 1
83 285 1
83 288 1
83 289 1
83 290 1
83 291 1
83 294 1
83 298 1
83 300 1
83 301 1
83 305 1
83 306 1
83 313 1
83 314 1
83 315 1
83 321 1
83 340 1
83 345 1
83 349 1
83 363 1
83 365 1
83 367 1
83 371 1
83 372 1
83 374 1
83 380 1
83 385 1
83 390 1
83 399 1
83 400 1
83 402 1
83 403 1
83 405 1
83 407 1
83 409 1
83 431 1
83 432 1
83 433 1
83 437 1
83 440 1
83 448 1
83 450 1
83 451 1
83 463 1
83 473 1
83 474 1
83 475 1
83 476 1
83 483 1
83 496 1
84 9 1
84 13 1
84 16 1
84 21 1
84 32 1
84 36 1
84 42 1
84 51 1
84 53 1
84 55 1
84 58 1
84 59 1
84 62 1
84 68 1
84 69 1
84 72 1
84 92 1
84 113 1
84 127 1
84 128 1
84 132 1
84 133 1
84 137 1
84 139 1
84 140 1
84 142 1
84 147 1
84 150 1
84 156 1
84 160 1
84 162 1
84 171 1
84 174 1
84 178 1
84 180 1
84 185 1
84 193 1
84 195 1
84 212 1
84 217 1
84 240 1
84 250 1
84 253 1
84 254 1
84 258 1
84 274 1
84 278 1
84 279 1
84 283 1
84 296 1
84 297 1
84 298 1
84 299 1
84 303 1
84 304 1
84 305 1
84 307 1
84 308 1
84 309 1
84 315 1
84 316 1
84 320 1
84 321 1
84 330 1
84 332 1
84 371 1
84 374 1
84 379 1
84 386 1
84 391 1
84 394 1
84 395 1
84 397 1
84 402 1
84 403 1
84 414 1
84 417 1
84 421 1
84 422 1
84 425 1
84 429 1
84 431 1
84 433 1
84 434 1
84 435 1
84 437 1
84 445 1
84 451 1
84 464 1
84 467 1
84 468 1
84 482 1
84 484 1
84 487 1
84 489 1
84 491 1
84 498 1
85 1 1
85 2 1
85 3 1
85 5 1
85 6 1
85 7 1
85 14 1
85 26 1
85 31 1
85 45 1
85 46 1
85 54 1
85 58 1
85 60 1
85 62 1
85 70 1
85 74 1
85 76 1
85 77 1
85 78 1
85 79 1
85 87 1
85 89 1
85 96 1
85 103 1
85 108 1
85 111 1
85 114 1
85 116 1
85 123 1
85 124 1
85 126 1
85 136 1
85 139 1
85 144 1
85 155 1
85 157 1
85 160 1
85 162 1
85 169 1
85 173 1
85 179 1
85 192 1
85 213 1
85 214 1
85 223 1
85 224 1
85 226 1
85 229 1
85 230 1
85 231 1
85 238 1
85 243 1
85 244 1
85 245 1
85 247 1
85 268 1
85 269 1
85 271 1
85 272 1
85 282 1
85 285 1
85 287 1
85 289 1
85 291 1
85 296 1
85 299 1
85 305 1
85 314 1
85 322 1
85 325 1
85 342 1
85 356 1
85 357 1
85 358 1
85 359 1
85 363 1
85 371 1
85 373 1
85 375 1
85 376 1
85 379 1
85 383 1
85 391 1
85 396 1
85 400 1
85 408 1
85 411 1
85 412 1
85 414 1
85 417 1
85 420 1
85 426 1
85 434 1
85 439 1
85 451 1
85 456 1
85 468 1
85 472 1
85 473 1
85 474 1
85 483 1
85 494 1
85 496 1
86 3 1
86 14 1
86 28 1
86 34 1
86 43 1
86 54 1
86 62 1
86 63 1
86 68 1
86 75 1
86 76 1
86 88 1
86 94 1
86 96 1
86 98 1
86 104 1
86 111 1
86 121 1
86 137 1
86 148 1
86 149 1
86 151 1
86 158 1
86 164 1
86 169 1
86 171 1
86 175 1
86 179 1
86 180 1
86 189 1
86 194 1
86 197 1
86 200 1
86 214 1
86 216 1
86 222 1
86 224 1
86 225 1
86 231 1
86 237 1
86 242 1
86 248 1
86 251 1
86 253 1
86 254 1
86 257 1
86 258 1
86 267 1
86 282 1
86 283 1
86 295 1
86 301 1
86 304 1
86 311 1
86 325 1
86 335 1
86 338 1
86 339 1
86 349 1
86 359 1
86 368 1
86 369 1
86 374 1
86 379 1
86 384 1
86 386 1
86 391 1
86 395 1
86 396 1
86 403 1
86 412 1
86 414 1
86 418 1
86 431 1
86 443 1
86 446 1
86 450 1
86 452 1
86 459 1
86 461 1
86 465 1
86 466 1
86 468 1
86 475 1
86 478 1
86 488 1
86 490 1
87 1 1
87 4 1
87 17 1
87 40 1
87 41 1
87 42 1
87 47 1
87 48 1
87 50 1
87 78 1
87 81 1
87 85 1
87 94 1
87 101 1
87 104 1
87 106 1
87 107 1
87 112 1
87 117 1
87 123 1
87 125 1
87 131 1
87 134 1
87 137 1
87 154 1
87 155 1
87 171 1
87 173 1
87 185 1
87 188 1
87 200 1
87 201 1
87 212 1
87 218 1
87 224 1
87 229 1
87 232 1
87 236 1
87 237 1
87 239 1
87 244 1
87 249 1
87 255 1
87 259 1
87 267 1
87 269 1
87 270 1
87 272 1
87 281 1
87 283 1
87 294 1
87 300 1
87 321 1
87 322 1
87 324 1
87 327 1
87 329 1
87 332 1
87 352 1
87 354 1
87 360 1
87 372 1
87 375 1
87 381 1
87 388 1
87 394 1
87 396 1
87 402 1
87 408 1
87 409 1
87 416 1
87 426 1
87 427 1
87 436 1
87 445 1
87 448 1
87 450 1
87 452 1
87 453 1
87 460 1
87 464 1
87 468 1
87 470 1
87 475 1
87 480 1
87 488 1
87 489 1
87 492 1
87 499 1
88 4 1
88 5 1
88 20 1
88 25 1
88 34 1
88 43 1
88 47 1
88 48 1
88 51 1
88 58 1
88 64 1
88 77 1
88 86 1
88 89 1
88 98 1
88 106 1
88 109 1
88 116 1
88 118 1
88 124 1
88 127 1
88 136 1
88 149 1
88 151 1
88 152 1
88 155 1
88 157 1
88 165 1
88 180 1
88 183 1
88 184 1
88 189 1
88 191 1
88 209 1
88 210 1
88 222 1
88 228 1
88 231 1
88 239 1
88 242 1
88 246 1
88 249 1
88 257 1
88 259 1
88 270 1
88 277 1
88 278 1
88 281 1
88 288 1
88 294 1
88 296 1
88 300 1
88 302 1
88 310 1
88 312 1
88 322 1
88 323 1
88 326 1
88 344 1
88 351 1
88 352 1
88 357 1
88 367 1
88 376 1
88 390 1
88 394 1
88 400 1
88 404 1
88 407 1
88 414 1
88 417 1
88 421 1
88 424 1
88 426 1
88 428 1
88 432 1
88 433 1
88 447 1
88 450 1
88 451 1
88 454 1
88 457 1
88 459 1
88 460 1
88 464 1
88 469 1
88 472 1
88 480 1
88 481 1
88 482 1
88 484 1
88 485 1
88 487 1
88 490 1
88 496 1
89 3 1
89 13 1
89 27 1
89 34 1
89 36 1
89 44 1
89 49 1
89 54 1
89 62 1
89 65 1
89 71 1
89 82 1
89 85 1
89 88 1
89 90 1
89 92 1
89 93 1
89 110 1
89 111 1
89 123 1
89 125 1
89 134 1
89 142 1
89 144 1
89 145 1
89 147 1
89 149 1
89 151 1
89 159 1
89 160 1
89 163 1
89 165 1
89 170 1
89 174 1
89 176 1
89 180 1
89 188 1
89 194 1
89 197 1
89 203 1
89 214 1
89 215 1
89 218 1
89 227 1
89 230 1
89 233 1
89 235 1
89 240 1
89 241 1
89 248 1
89 257 1
89 260 1
89 264 1
89 270 1
89 277 1
89 280 1
89 307 1
89 311 1
89 316 1
89 320 1
89 324 1
89 331 1
89 333 1
89 335 1
89 337 1
89 338 1
89 339 1
89 345 1
89 350 1
89 352 1
89 358 1
89 363 1
89 372 1
89 373 1
89 385 1
89 387 1
89 394 1
89 400 1
89 402 1
89 411 1
89 422 1
89 427 1
89 430 1
89 439 1
89 448 1
89 450 1
89 452 1
89 456 1
89 460 1
89 461 1
89 465 1
89 468 1
89 478 1
89 486 1
89 487 1
89 491 1
89 494 1
90 4 1
90 6 1
90 16 1
90 19 1
90 26 1
90 30 1
90 31 1
90 38 1
90 40 1
90 42 1
90 44 1
90 52 1
90 54 1
90 69 1
90 72 1
90 74 1
90 76 1
90 80 1
90 89 1
90 95 1
90 97 1
90 103 1
90 105 1
90 108 1
90 109 1
90 112 1
90 114 1
90 128 1
90 129 1
90 131 1
90 134 1
90 142 1
90 144 1
90 145 1
90 154 1
90 160 1
90 164 1
90 172 1
90 180 1
90 196 1
90 200 1
90 217 1
90 219 1
90 222 1
90 224 1
90 227 1
90 234 1
90 237 1
90 242 1
90 246 1
90 255 1
90 257 1
90 259 1
90 260 1
90 266 1
90 276 1
90 277 1
90 278 1
90 279 1
90 287 1
90 289 1
90 292 1
90 300 1
90 302 1
90 303 1
90 308 1
90 311 1
90 312 1
90 326 1
90 328 1
90 332 1
90 339 1
90 343 1
90 344 1
90 346 1
90 349 1
90 350 1
90 353 1
90 354 1
90 358 1
90 366 1
90 369 1
90 371 1
90 373 1
90 374 1
90 379 1
90 382 1
90 385 1
90 386 1
90 393 1
90 394 1
90 395 1
90 400 1
90 401 1
90 413 1
90 416 1
90 418 1
90 420 1
90 424 1
90 459 1
90 469 1
90 472 1
90 474 1
90 475 1
90 485 1
90 487 1
90 488 1
90 489 1
90 490 1
90 494 1
90 498 1
90 499 1
91 1 1
91 4 1
91 9 1
91 10 1
91 11 1
91 29 1
91 33 1
91 36 1
91 39 1
91 48 1
91 53 1
91 59 1
91 60 1
91 61 1
91 63 1
91 64 1
91 66 1
91 69 1
91 71 1
91 76 1
91 83 1
91 92 1
91 94 1
91 104 1
91 112 1
91 113 1
91 141 1
91 149 1
91 151 1
91 159 1
91 176 1
91 179 1
91 180 1
91 183 1
91 196 1
91 199 1
91 201 1
91 206 1
91 207 1
91 209 1
91 210 1
91 212 1
91 216 1
91 226 1
91 227 1
91 229 1
91 233 1
91 237 1
91 240 1
91 242 1
91 243 1
91 246 1
91 249 1
91 253 1
91 254 1
91 259 1
91 264 1
91 267 1
91 271 1
91 283 1
91 287 1
91 294 1
91 295 1
91 298 1
91 315 1
91 319 1
91 333 1
91 334 1
91 338 1
91 343 1
91 344 1
91 345 1
91 348 1
91 350 1
91 354 1
91 363 1
91 365 1
91 366 1
91 370 1
91 379 1
91 381 1
91 383 1
91 386 1
91 392 1
91 401 1
91 402 1
91 411 1
91 412 1
91 416 1
91 417 1
91 423 1
91 424 1
91 426 1
91 430 1
91 434 1
91 436 1
91 438 1
91 442 1
91 445 1
91 446 1
91 447 1
91 448 1
91 453 1
91 461 1
91 464 1
91 465 1
91 466 1
91 467 1
91 475 1
91 478 1
91 480 1
91 484 1
91 485 1
91 488 1
91 494 1
91 499 1
92 2 1
92 8 1
92 14 1
92 15 1
92 23 1
92 30 1
92 31 1
92 36 1
92 37 1
92 38 1
92 50 1
92 53 1
92 59 1
92 62 1
92 64 1
92 67 1
92 70 1
92 75 1
92 76 1
92 84 1
92 89 1
92 91 1
92 96 1
92 97 1
92 101 1
92 114 1
92 120 1
92 128 1
92 130 1
92 134 1
92 137 1
92 139 1
92 140 1
92 142 1
92 144 1
92 145 1
92 149 1
92 150 1
92 156 1
92 157 1
92 162 1
92 164 1
92 166 1
92 167 1
92 171 1
92 172 1
92 173 1
92 175 1
92 177 1
92 183 1
92 186 1
92 201 1
92 204 1
92 208 1
92 212 1
92 216 1
92 220 1
92 224 1
92 238 1
92 239 1
92 243 1
92 252 1
92 253 1
92 264 1
92 267 1
92 270 1
92 272 1
92 275 1
92 276 1
92 287 1
92 293 1
92 298 1
92 317 1
92 318 1
92 321 1
92 327 1
92 332 1
92 335 1
92 339 1
92 345 1
92 346 1
92 356 1
92 357 1
92 358 1
92 361 1
92 366 1
92 381 1
92 385 1
92 387 1
92 388 1
92 391 1
92 394 1
92 405 1
92 408 1
92 409 1
92 412 1
92 417 1
92 418 1
92 423 1
92 429 1
92 430 1
92 431 1
92 436 1
92 438 1
92 440 1
92 459 1
92 465 1
92 473 1
92 487 1
92 488 1
92 495 1
93 6 1
93 7 1
93 9 1
93 10 1
93 16 1
93 18 1
93 26 1
93 33 1
93 34 1
93 38 1
93 46 1
93 52 1
93 60 1
93 63 1
93 89 1
93 109 1
93 116 1
93 119 1
93 120 1
93 122 1
93 141 1
93 148 1
93 149 1
93 166 1
93 168 1
93 172 1
93 177 1
93 178 1
93 184 1
93 185 1
93 186 1
93 194 1
93 196 1
93 205 1
93 207 1
93 208 1
93 209 1
93 213 1
93 217 1
93 221 1
93 224 1
93 226 1
93 236 1
93 247 1
93 248 1
93 254 1
93 257 1
93 258 1
93 262 1
93 273 1
93 280 1
93 282 1
93 284 1
93 287 1
93 298 1
93 299 1
93 304 1
93 314 1
93 316 1
93 319 1
93 320 1
93 323 1
93 330 1
93 331 1
93 339 1
93 347 1
93 348 1
93 353 1
93 361 1
93 364 1
93 370 1
93 375 1
93 377 1
93 389 1
93 396 1
93 403 1
93 404 1
93 405 1
93 410 1
93 438 1
93 442 1
93 460 1
93 465 1
93 477 1
93 478 1
93 481 1
93 486 1
93 488 1
93 493 1
93 499 1
94 4 1
94 6 1
94 8 1
94 9 1
94 11 1
94 14 1
94 17 1
94 25 1
94 32 1
94 33 1
94 36 1
94 40 1
94 50 1
94 53 1
94 60 1
94 65 1
94 68 1
94 75 1
94 80 1
94 86 1
94 87 1
94 91 1
94 95 1
94 97 1
94 98 1
94 100 1
94 101 1
94 104 1
94 112 1
94 113 1
94 123 1
94 125 1
94 131 1
94 132 1
94 133 1
94 136 1
94 139 1
94 155 1
94 156 1
94 159 1
94 160 1
94 169 1
94 170 1
94 171 1
94 173 1
94 175 1
94 177 1
94 178 1
94 183 1
94 186 1
94 190 1
94 191 1
94 193 1
94 198 1
94 200 1
94 211 1
94 213 1
94 228 1
94 238 1
94 241 1
94 244 1
94 246 1
94 247 1
94 273 1
94 275 1
94 290 1
94 293 1
94 299 1
94 300 1
94 301 1
94 307 1
94 310 1
94 311 1
94 324 1
94 330 1
94 339 1
94 351 1
94 361 1
94 364 1
94 367 1
94 374 1
94 379 1
94 384 1
94 391 1
94 397 1
94 398 1
94 403 1
94 404 1
94 411 1
94 418 1
94 422 1
94 429 1
94 430 1
94 431 1
94 434 1
94 452 1
94 453 1
94 461 1
94 466 1
94 472 1
94 476 1
94 477 1
94 485 1
94 487 1
94 494 1
94 498 1
94 499 1
95 4 1
95 5 1
95 7 1
95 13 1
95 32 1
95 34 1
95 37 1
95 38 1
95 43 1
95 56 1
95 63 1
95 66 1
95 73 1
95 82 1
95 90 1
95 94 1
95 101 1
95 102 1
95 109 1
95 129 1
95 138 1
95 140 1
95 144 1
95 146 1
95 147 1
95 156 1
95 163 1
95 164 1
95 166 1
95 168 1
95 170 1
95 171 1
95 176 1
95 180 1
95 181 1
95 186 1
95 197 1
95 209 1
95 220 1
95 227 1
95 234 1
95 242 1
95 248 1
95 255 1
95 256 1
95 259 1
95 262 1
95 264 1
95 283 1
95 285 1
95 290 1
95 299 1
95 305 1
95 307 1
95 311 1
95 319 1
95 326 1
95 336 1
95 337 1
95 348 1
95 350 1
95 359 1
95 361 1
95 368 1
95 372 1
95 373 1
95 374 1
95 375 1
95 377 1
95 378 1
95 400 1
95 404 1
95 410 1
95 418 1
95 425 1
95 427 1
95 433 1
95 438 1
95 447 1
95 473 1
95 475 1
95 483 1
95 487 1
95 488 1
95 489 1
95 493 1
95 494 1
96 1 1
96 15 1
96 19 1
96 29 1
96 41 1
96 45 1
96 51 1
96 56 1
96 62 1
96 63 1
96 72 1
96 85 1
96 86 1
96 92 1
96 101 1
96 103 1
96 109 1
96 116 1
96 128 1
96 131 1
96 134 1
96 139 1
96 140 1
96 141 1
96 145 1
96 149 1
96 154 1
96 167 1
96 185 1
96 194 1
96 202 1
96 203 1
96 206 1
96 209 1
96 221 1
96 227 1
96 236 1
96 237 1
96 253 1
96 259 1
96 260 1
96 269 1
96 270 1
96 276 1
96 282 1
96 285 1
96 286 1
96 288 1
96 296 1
96 297 1
96 308 1
96 310 1
96 323 1
96 327 1
96 329 1
96 335 1
96 336 1
96 338 1
96 347 1
96 348 1
96 366 1
96 367 1
96 371 1
96 375 1
96 390 1
96 404 1
96 406 1
96 407 1
96 413 1
96 416 1
96 417 1
96 419 1
96 425 1
96 427 1
96 432 1
96 439 1
96 442 1
96 447 1
96 449 1
96 450 1
96 451 1
96 459 1
96 461 1
96 476 1
96 486 1
96 488 1
96 489 1
96 494 1
96 495 1
96 498 1
97 6 1
97 18 1
97 24 1
97 26 1
97 32 1
97 34 1
97 37 1
97 41 1
97 45 1
97 61 1
97 64 1
97 66 1
97 67 1
97 69 1
97 71 1
97 73 1
97 74 1
97 75 1
97 78 1
97 81 1
97 90 1
97 92 1
97 94 1
97 101 1
97 108 1
97 113 1
97 119 1
97 120 1
97 121 1
97 122 1
97 124 1
97 141 1
97 160 1
97 163 1
97 164 1
97 170 1
97 172 1
97 176 1
97 182 1
97 185 1
97 196 1
97 197 1
97 202 1
97 206 1
97 217 1
97 220 1
97 221 1
97 222 1
97 224 1
97 228 1
97 230 1
97 237 1
97 243 1
97 244 1
97 246 1
97 252 1
97 253 1
97 258 1
97 262 1
97 264 1
97 267 1
97 269 1
97 271 1
97 272 1
97 275 1
97 276 1
97 278 1
97 280 1
97 282 1
97 289 1
97 293 1
97 304 1
97 311 1
97 318 1
97 319 1
97 321 1
97 322 1
97 324 1
97 334 1
97 340 1
97 343 1
97 346 1
97 354 1
97 355 1
97 359 1
97 365 1
97 368 1
97 369 1
97 373 1
97 376 1
97 382 1
97 383 1
97 384 1
97 385 1
97 388 1
97 393 1
97 395 1
97 398 1
97 399 1
97 404 1
97 417 1
97 427 1
97 434 1
97 438 1
97 444 1
97 450 1
97 452 1
97 467 1
97 474 1
97 475 1
97 478 1
97 485 1
98 1 1
98 10 1
98 12 1
98 15 1
98 23 1
98 24 1
98 26 1
98 35 1
98 40 1
98 41 1
98 47 1
98 51 1
98 56 1
98 57 1
98 72 1
98 76 1
98 86 1
98 88 1
98 94 1
98 99 1
98 104 1
98 110 1
98 112 1
98 116 1
98 120 1
98 129 1
98 132 1
98 134 1
98 140 1
98 148 1
98 155 1
98 157 1
98 159 1
98 160 1
98 162 1
98 163 1
98 169 1
98 174 1
98 177 1
98 186 1
98 188 1
98 189 1
98 192 1
98 193 1
98 194 1
98 196 1
98 202 1
98 208 1
98 215 1
98 217 1
98 222 1
98 224 1
98 227 1
98 228 1
98 232 1
98 238 1
98 246 1
98 259 1
98 263 1
98 265 1
98 266 1
98 268 1
98 269 1
98 270 1
98 274 1
98 276 1
98 288 1
98 292 1
98 293 1
98 301 1
98 308 1
98 310 1
98 321 1
98 326 1
98 331 1
98 345 1
98 348 1
98 350 1
98 358 1
98 360 1
98 366 1
98 377 1
98 379 1
98 387 1
98 391 1
98 393 1
98 394 1
98 397 1
98 401 1
98 410 1
98 413 1
98 416 1
98 419 1
98 420 1
98 425 1
98 427 1
98 433 1
98 442 1
98 445 1
98 449 1
98 454 1
98 461 1
98 482 1
98 497 1
99 9 1
99 14 1
99 16 1
99 19 1
99 30 1
99 31 1
99 33 1
99 36 1
99 38 1
99 39 1
99 62 1
99 69 1
99 72 1
99 74 1
99 75 1
99 77 1
99 98 1
99 104 1
99 108 1
99 112 1
99 114 1
99 115 1
99 118 1
99 123 1
99 124 1
99 128 1
99 131 1
99 133 1
99 150 1
99 151 1
99 154 1
99 157 1
99 160 1
99 176 1
99 186 1
99 192 1
99 199 1
99 203 1
99 208 1
99 210 1
99 222 1
99 236 1
99 237 1
99 240 1
99 244 1
99 248 1
99 252 1
99 253 1
99 254 1
99 257 1
99 263 1
99 273 1
99 274 1
99 276 1
99 278 1
99 281 1
99 289 1
99 290 1
99 296 1
99 302 1
99 304 1
99 322 1
99 326 1
99 336 1
99 344 1
99 355 1
99 360 1
99 362 1
99 364 1
99 369 1
99 371 1
99 378 1
99 382 1
99 390 1
99 391 1
99 392 1
99 395 1
99 398 1
99 405 1
99 411 1
99 412 1
99 413 1
99 419 1
99 422 1
99 425 1
99 435 1
99 437 1
99 471 1
99 475 1
99 481 1
99 491 1
100 3 1
100 4 1
100 12 1
100 18 1
100 19 1
100 20 1
100 23 1
100 24 1
100 25 1
100 31 1
100 34 1
100 45 1
100 50 1
100 55 1
100 58 1
100 73 1
100 83 1
100 94 1
100 101 1
100 108 1
100 113 1
100 117 1
100 120 1
100 130 1
100 132 1
100 137 1
100 153 1
100 155 1
100 162 1
100 164 1
100 165 1
100 166 1
100 167 1
100 169 1
100 172 1
100 175 1
100 187 1
100 191 1
100 197 1
100 198 1
100 200 1
100 205 1
100 206 1
100 207 1
100 211 1
100 214 1
100 217 1
100 221 1
100 225 1
100 227 1
100 231 1
100 236 1
100 240 1
100 243 1
100 253 1
100 254 1
100 263 1
100 276 1
100 278 1
100 282 1
100 287 1
100 297 1
100 305 1
100 314 1
100 322 1
100 323 1
100 326 1
100 330 1
100 335 1
100 337 1
100 345 1
100 350 1
100 359 1
100 360 1
100 362 1
100 364 1
100 375 1
100 378 1
100 394 1
100 395 1
100 397 1
100 399 1
100 403 1
100 406 1
100 412 1
100 418 1
100 419 1
100 426 1
100 429 1
100 432 1
100 440 1
100 449 1
100 450 1
100 458 1
100 462 1
100 463 1
100 475 1
100 482 1
100 486 1
100 487 1
100 488 1
100 490 1
100 493 1
101 1 1
101 7 1
101 14 1
101 15 1
101 16 1
101 21 1
101 23 1
101 24 1
101 35 1
101 39 1
101 44 1
101 51 1
101 52 1
101 55 1
101 60 1
101 65 1
101 71 1
101 74 1
101 81 1
101 82 1
101 87 1
101 92 1
101 94 1
101 95 1
101 96 1
101 97 1
101 100 1
101 108 1
101 112 1
101 131 1
101 145 1
101 149 1
101 150 1
101 160 1
101 161 1
101 165 1
101 168 1
101 175 1
101 184 1
101 189 1
101 192 1
101 193 1
101 209 1
101 216 1
101 218 1
101 223 1
101 224 1
101 226 1
101 233 1
101 235 1
101 246 1
101 247 1
101 250 1
101 257 1
101 263 1
101 266 1
101 268 1
101 269 1
101 271 1
101 272 1
101 280 1
101 287 1
101 305 1
101 309 1
101 311 1
101 316 1
101 318 1
101 341 1
101 343 1
101 344 1
101 351 1
101 352 1
101 354 1
101 355 1
101 359 1
101 360 1
101 365 1
101 374 1
101 381 1
101 384 1
101 387 1
101 394 1
101 396 1
101 399 1
101 401 1
101 410 1
101 413 1
101 415 1
101 426 1
101 431 1
101 437 1
101 438 1
101 444 1
101 445 1
101 448 1
101 453 1
101 459 1
101 467 1
101 470 1
101 471 1
101 476 1
101 478 1
101 488 1
101 489 1
101 490 1
101 494 1
102 16 1
102 23 1
102 25 1
102 33 1
102 34 1
102 40 1
102 50 1
102 51 1
102 59 1
102 60 1
102 67 1
102 73 1
102 95 1
102 103 1
102 107 1
102 111 1
102 114 1
102 120 1
102 123 1
102 129 1
102 138 1
102 149 1
102 157 1
102 160 1
102 165 1
102 173 1
102 174 1
102 177 1
102 178 1
102 194 1
102 197 1
102 198 1
102 199 1
102 204 1
102 214 1
102 215 1
102 218 1
102 219 1
102 223 1
102 226 1
102 228 1
102 230 1
102 239 1
102 248 1
102 254 1
102 259 1
102 262 1
102 263 1
102 268 1
102 273 1
102 275 1
102 282 1
102 284 1
102 285 1
102 288 1
102 295 1
102 297 1
102 307 1
102 310 1
102 315 1
102 316 1
102 318 1
102 319 1
102 338 1
102 350 1
102 351 1
102 353 1
102 363 1
102 364 1
102 370 1
102 376 1
102 377 1
102 381 1
102 382 1
102 398 1
102 399 1
102 402 1
102 408 1
102 413 1
102 417 1
102 419 1
102 422 1
102 430 1
102 435 1
102 436 1
102 446 1
102 450 1
102 454 1
102 457 1
102 459 1
102 460 1
102 461 1
102 465 1
102 472 1
102 476 1
102 490 1
102 493 1
103 3 1
103 6 1
103 10 1
103 13 1
103 14 1
103 28 1
103 32 1
103 39 1
103 50 1
103 64 1
103 73 1
103 85 1
103 90 1
103 96 1
103 102 1
103 108 1
103 111 1
103 130 1
103 131 1
103 138 1
103 145 1
103 149 1
103 150 1
103 154 1
103 164 1
103 166 1
103 167 1
103 177 1
103 180 1
103 196 1
103 197 1
103 198 1
103 203 1
103 210 1
103 211 1
103 214 1
103 228 1
103 231 1
103 241 1
103 246 1
103 253 1
103 257 1
103 262 1
103 283 1
103 284 1
103 286 1
103 291 1
103 297 1
103 305 1
103 310 1
103 320 1
103 321 1
103 323 1
103 324 1
103 328 1
103 329 1
103 332 1
103 340 1
103 341 1
103 342 1
103 345 1
103 349 1
103 353 1
103 355 1
103 358 1
103 359 1
103 364 1
103 365 1
103 366 1
103 368 1
103 390 1
103 391 1
103 393 1
103 410 1
103 411 1
103 414 1
103 419 1
103 423 1
103 426 1
103 432 1
103 434 1
103 440 1
103 441 1
103 442 1
103 455 1
103 458 1
103 460 1
103 476 1
103 480 1
103 482 1
103 488 1
103 496 1
103 500 1
104 7 1
104 9 1
104 11 1
104 14 1
104 16 1
104 23 1
104 31 1
104 37 1
104 38 1
104 43 1
104 52 1
104 53 1
104 60 1
104 61 1
104 62 1
104 64 1
104 75 1
104 79 1
104 83 1
104 86 1
104 87 1
104 91 1
104 94 1
104 98 1
104 99 1
104 105 1
104 108 1
104 110 1
104 111 1
104 112 1
104 113 1
104 122 1
104 125 1
104 131 1
104 135 1
104 141 1
104 151 1
104 157 1
104 159 1
104 164 1
104 166 1
104 170 1
104 172 1
104 174 1
104 176 1
104 180 1
104 183 1
104 187 1
104 192 1
104 195 1
104 198 1
104 208 1
104 212 1
104 215 1
104 219 1
104 234 1
104 240 1
104 245 1
104 249 1
104 262 1
104 264 1
104 266 1
104 273 1
104 274 1
104 276 1
104 280 1
104 291 1
104 292 1
104 300 1
104 307 1
104 310 1
104 319 1
104 320 1
104 322 1
104 333 1
104 336 1
104 341 1
104 346 1
104 348 1
104 351 1
104 352 1
104 353 1
104 358 1
104 360 1
104 361 1
104 365 1
104 370 1
104 371 1
104 374 1
104 384 1
104 385 1
104 386 1
104 389 1
104 393 1
104 401 1
104 402 1
104 409 1
104 415 1
104 417 1
104 419 1
104 421 1
104 424 1
104 427 1
104 430 1
104 433 1
104 435 1
104 436 1
104 438 1
104 447 1
104 450 1
104 457 1
104 459 1
104 463 1
104 465 1
104 466 1
104 471 1
104 472 1
104 473 1
104 483 1
104 484 1
104 498 1
104 499 1
105 5 1
105 9 1
105 16 1
105 21 1
105 29 1
105 34 1
105 36 1
105 44 1
105 46 1
105 60 1
105 68 1
105 71 1
105 72 1
105 90 1
105 104 1
105 111 1
105 112 1
105 113 1
105 129 1
105 135 1
105 151 1
105 154 1
105 159 1
105 168 1
105 169 1
105 177 1
105 180 1
105 181 1
105 184 1
105 185 1
105 189 1
105 190 1
105 204 1
105 205 1
105 209 1
105 210 1
105 216 1
105 219 1
105 222 1
105 226 1
105 232 1
105 248 1
105 255 1
105 260 1
105 261 1
105 266 1
105 269 1
105 270 1
105 272 1
105 289 1
105 293 1
105 301 1
105 307 1
105 310 1
105 315 1
105 340 1
105 356 1
105 364 1
105 368 1
105 376 1
105 383 1
105 390 1
105 392 1
105 393 1
105 394 1
105 398 1
105 405 1
105 407 1
105 431 1
105 432 1
105 438 1
105 446 1
105 447 1
105 448 1
105 452 1
105 456 1
105 457 1
105 466 1
105 476 1
105 478 1
105 485 1
106 6 1
106 7 1
106 25 1
106 28 1
106 31 1
106 45 1
106 54 1
106 79 1
106 81 1
106 82 1
106 87 1
106 88 1
106 111 1
106 116 1
106 127 1
106 129 1
106 137 1
106 144 1
106 150 1
106 157 1
106 167 1
106 169 1
106 177 1
106 178 1
106 186 1
106 187 1
106 188 1
106 190 1
106 197 1
106 198 1
106 199 1
106 204 1
106 207 1
106 209 1
106 221 1
106 222 1
106 236 1
106 239 1
106 242 1
106 245 1
106 246 1
106 248 1
106 249 1
106 250 1
106 255 1
106 258 1
106 260 1
106 276 1
106 283 1
106 289 1
106 296 1
106 302 1
106 306 1
106 309 1
106 311 1
106 314 1
106 321 1
106 323 1
106 326 1
106 330 1
106 341 1
106 353 1
106 359 1
106 372 1
106 374 1
106 377 1
106 386 1
106 390 1
106 391 1
106 394 1
106 405 1
106 408 1
106 409 1
106 417 1
106 431 1
106 435 1
106 440 1
106 441 1
106 442 1
106 443 1
106 445 1
106 448 1
106 449 1
106 453 1
106 462 1
106 464 1
106 470 1
106 471 1
106 473 1
106 474 1
106 480 1
106 481 1
106 482 1
106 483 1
106 484 1
106 494 1
106 496 1
106 498 1
106 499 1
107 1 1
107 3 1
107 4 1
107 5 1
107 12 1
107 18 1
107 30 1
107 36 1
107 39 1
107 51 1
107 57 1
107 65 1
107 69 1
107 70 1
107 73 1
107 78 1
107 81 1
107 82 1
107 87 1
107 102 1
107 110 1
107 115 1
107 121 1
107 123 1
107 128 1
107 130 1
107 131 1
107 132 1
107 145 1
107 148 1
107 154 1
107 158 1
107 190 1
107 193 1
107 195 1
107 196 1
107 207 1
107 208 1
107 209 1
107 211 1
107 213 1
107 217 1
107 221 1
107 225 1
107 229 1
107 235 1
107 240 1
107 242 1
107 245 1
107 246 1
107 253 1
107 259 1
107 260 1
107 262 1
107 267 1
107 268 1
107 277 1
107 280 1
107 289 1
107 291 1
107 292 1
107 296 1
107 303 1
107 316 1
107 317 1
107 322 1
107 327 1
107 333 1
107 334 1
107 340 1
107 341 1
107 360 1
107 362 1
107 364 1
107 365 1
107 387 1
107 392 1
107 395 1
107 405 1
107 406 1
107 410 1
107 413 1
107 419 1
107 426 1
107 427 1
107 445 1
107 448 1
107 456 1
107 459 1
107 465 1
107 472 1
107 493 1
107 499 1
107 500 1
108 3 1
108 4 1
108 11 1
108 15 1
108 18 1
108 23 1
108 28 1
108 31 1
108 32 1
108 41 1
108 45 1
108 47 1
108 52 1
108 55 1
108 58 1
108 64 1
108 65 1
108 70 1
108 74 1
108 78 1
108 79 1
108 83 1
108 85 1
108 90 1
108 97 1
108 99 1
108 100 1
108 101 1
108 103 1
108 104 1
108 110 1
108 116 1
108 117 1
108 129 1
108 134 1
108 141 1
108 153 1
108 155 1
108 156 1
108 158 1
108 160 1
108 161 1
108 163 1
108 172 1
108 178 1
108 181 1
108 196 1
108 202 1
108 208 1
108 220 1
108 224 1
108 225 1
108 226 1
108 230 1
108 231 1
108 247 1
108 258 1
108 259 1
108 264 1
108 266 1
108 267 1
108 276 1
108 281 1
108 286 1
108 291 1
108 294 1
108 295 1
108 298 1
108 302 1
108 304 1
108 308 1
108 314 1
108 317 1
108 331 1
108 334 1
108 346 1
108 351 1
108 353 1
108 356 1
108 359 1
108 361 1
108 365 1
108 369 1
108 377 1
108 383 1
108 384 1
108 385 1
108 394 1
108 417 1
108 419 1
108 422 1
108 424 1
108 425 1
108 450 1
108 465 1
108 468 1
108 470 1
108 473 1
108 478 1
108 487 1
108 495 1
108 498 1
109 7 1
109 10 1
109 15 1
109 16 1
109 17 1
109 19 1
109 41 1
109 43 1
109 44 1
109 47 1
109 53 1
109 63 1
109 67 1
109 68 1
109 71 1
109 74 1
109 78 1
109 79 1
109 80 1
109 88 1
109 90 1
109 93 1
109 95 1
109 96 1
109 119 1
109 122 1
109 127 1
109 133 1
109 135 1
109 137 1
109 140 1
109 144 1
109 146 1
109 147 1
109 157 1
109 164 1
109 176 1
109 186 1
109 191 1
109 192 1
109 196 1
109 199 1
109 203 1
109 204 1
109 211 1
109 212 1
109 215 1
109 221 1
109 237 1
109 240 1
109 242 1
109 243 1
109 247 1
109 251 1
109 253 1
109 255 1
109 265 1
109 272 1
109 274 1
109 277 1
109 278 1
109 290 1
109 296 1
109 310 1
109 312 1
109 319 1
109 322 1
109 326 1
109 327 1
109 332 1
109 334 1
109 336 1
109 337 1
109 339 1
109 341 1
109 344 1
109 347 1
109 362 1
109 365 1
109 366 1
109 370 1
109 373 1
109 375 1
109 378 1
109 380 1
109 393 1
109 394 1
109 401 1
109 402 1
109 415 1
109 420 1
109 422 1
109 425 1
109 430 1
109 437 1
109 450 1
109 451 1
109 454 1
109 456 1
109 459 1
109 464 1
109 469 1
109 472 1
109 473 1
109 476 1
109 485 1
109 488 1
109 492 1
109 496 1
110 3 1
110 5 1
110 14 1
110 18 1
110 21 1
110 30 1
110 33 1
110 42 1
110 52 1
110 58 1
110 62 1
110 65 1
110 80 1
110 89 1
110 98 1
110 104 1
110 107 1
110 108 1
110 112 1
110 119 1
110 121 1
110 130 1
110 132 1
110 135 1
110 145 1
110 146 1
110 154 1
110 156 1
110 161 1
110 162 1
110 163 1
110 171 1
110 174 1
110 183 1
110 186 1
110 187 1
110 188 1
110 190 1
110 191 1
110 205 1
110 212 1
110 213 1
110 214 1
110 224 1
110 227 1
110 232 1
110 233 1
110 238 1
110 243 1
110 245 1
110 246 1
110 249 1
110 252 1
110 261 1
110 270 1
110 274 1
110 275 1
110 279 1
110 280 1
110 285 1
110 289 1
110 297 1
110 300 1
110 303 1
110 304 1
110 305 1
110 306 1
110 309 1
110 311 1
110 313 1
110 315 1
110 325 1
110 327 1
110 335 1
110 339 1
110 344 1
110 365 1
110 368 1
110 369 1
110 375 1
110 383 1
110 392 1
110 396 1
110 397 1
110 401 1
110 404 1
110 408 1
110 416 1
110 417 1
110 418 1
110 421 1
110 423 1
110 431 1
110 438 1
110 441 1
110 442 1
110 444 1
110 445 1
110 446 1
110 450 1
110 451 1
110 452 1
110 466 1
110 468 1
110 477 1
110 478 1
110 480 1
110 490 1
110 493 1
110 494 1
111 3 1
111 7 1
111 10 1
111 11 1
111 13 1
111 14 1
111 17 1
111 21 1
111 23 1
111 24 1
111 29 1
111 33 1
111 48 1
111 49 1
111 50 1
111 65 1
111 85 1
111 86 1
111 89 1
111 102 1
111 103 1
111 104 1
111 105 1
111 106 1
111 116 1
111 122 1
111 123 1
111 127 1
111 128 1
111 132 1
111 134 1
111 136 1
111 148 1
111 149 1
111 161 1
111 163 1
111 164 1
111 176 1
111 186 1
111 188 1
111 190 1
111 201 1
111 208 1
111 211 1
111 214 1
111 215 1
111 216 1
111 225 1
111 230 1
111 231 1
111 245 1
111 264 1
111 267 1
111 269 1
111 270 1
111 281 1
111 290 1
111 292 1
111 301 1
111 304 1
111 305 1
111 308 1
111 310 1
111 311 1
111 317 1
111 323 1
111 342 1
111 345 1
111 346 1
111 348 1
111 369 1
111 375 1
111 377 1
111 385 1
111 391 1
111 399 1
111 402 1
111 403 1
111 411 1
111 412 1
111 414 1
111 415 1
111 417 1
111 423 1
111 428 1
111 430 1
111 433 1
111 449 1
111 452 1
111 454 1
111 457 1
111 463 1
111 474 1
111 479 1
111 480 1
111 482 1
111 485 1
111 491 1
111 495 1
111 497 1
112 1 1
112 4 1
112 14 1
112 18 1
112 23 1
112 25 1
112 28 1
112 36 1
112 42 1
112 49 1
112 53 1
112 54 1
112 56 1
112 62 1
112 70 1
112 83 1
112 87 1
112 90 1
112 91 1
112 94 1
112 98 1
112 99 1
112 101 1
112 104 1
112 105 1
112 110 1
112 116 1
112 132 1
112 136 1
112 141 1
112 143 1
112 149 1
112 150 1
112 152 1
112 154 1
112 158 1
112 160 1
112 161 1
112 162 1
112 165 1
112 167 1
112 173 1
112 175 1
112 176 1
112 178 1
112 181 1
112 185 1
112 190 1
112 203 1
112 212 1
112 214 1
112 220 1
112 221 1
112 224 1
112 232 1
112 239 1
112 243 1
112 245 1
112 246 1
112 247 1
112 252 1
112 253 1
112 254 1
112 262 1
112 276 1
112 280 1
112 283 1
112 284 1
112 288 1
112 295 1
112 300 1
112 326 1
112 330 1
112 331 1
112 333 1
112 341 1
112 343 1
112 345 1
112 346 1
112 347 1
112 354 1
112 365 1
112 372 1
112 379 1
112 389 1
112 404 1
112 422 1
112 425 1
112 429 1
112 432 1
112 434 1
112 437 1
112 448 1
112 454 1
112 457 1
112 466 1
112 469 1
112 482 1
112 491 1
112 492 1
112 494 1
112 496 1
112 497 1
112 498 1
113 1 1
113 13 1
113 17 1
113 18 1
113 24 1
113 30 1
113 32 1
113 37 1
113 38 1
113 71 1
113 73 1
113 77 1
113 78 1
113 83 1
113 84 1
113 91 1
113 94 1
113 97 1
113 100 1
113 104 1
113 105 1
113 115 1
113 120 1
113 121 1
113 122 1
113 124 1
113 126 1
113 135 1
113 159 1
113 164 1
113 165 1
113 167 1
113 181 1
113 189 1
113 193 1
113 202 1
113 204 1
113 206 1
113 208 1
113 212 1
113 213 1
113 216 1
113 217 1
113 223 1
113 226 1
113 230 1
113 232 1
113 236 1
113 239 1
113 245 1
113 246 1
113 251 1
113 252 1
113 255 1
113 258 1
113 263 1
113 265 1
113 266 1
113 274 1
113 283 1
113 286 1
113 288 1
113 289 1
113 293 1
113 294 1
113 295 1
113 297 1
113 301 1
113 317 1
113 324 1
113 325 1
113 328 1
113 331 1
113 332 1
113 335 1
113 341 1
113 345 1
113 349 1
113 355 1
113 357 1
113 360 1
113 361 1
113 362 1
113 371 1
113 376 1
113 389 1
113 398 1
113 404 1
113 406 1
113 408 1
113 409 1
113 413 1
113 415 1
113 416 1
113 419 1
113 426 1
113 427 1
113 435 1
113 448 1
113 449 1
113 457 1
113 460 1
113 463 1
113 465 1
113 467 1
113 476 1
113 482 1
113 483 1
114 10 1
114 17 1
114 18 1
114 26 1
114 33 1
114 42 1
114 46 1
114 48 1
114 59 1
114 65 1
114 66 1
114 72 1
114 85 1
114 90 1
114 92 1
114 99 1
114 102 1
114 119 1
114 121 1
114 125 1
114 129 1
114 132 1
114 133 1
114 144 1
114 151 1
114 155 1
114 156 1
114 162 1
114 167 1
114 172 1
114 180 1
114 188 1
114 189 1
114 194 1
114 209 1
114 210 1
114 213 1
114 217 1
114 219 1
114 222 1
114 224 1
114 229 1
114 232 1
114 234 1
114 235 1
114 236 1
114 241 1
114 252 1
114 257 1
114 258 1
114 261 1
114 263 1
114 264 1
114 277 1
114 278 1
114 292 1
114 293 1
114 300 1
114 306 1
114 308 1
114 309 1
114 311 1
114 320 1
114 321 1
114 324 1
114 326 1
114 327 1
114 332 1
114 338 1
114 351 1
114 356 1
114 357 1
114 360 1
114 369 1
114 378 1
114 384 1
114 385 1
114 388 1
114 391 1
114 392 1
114 414 1
114 421 1
114 426 1
114 434 1
114 436 1
114 441 1
114 442 1
114 443 1
114 445 1
114 448 1
114 454 1
114 459 1
114 460 1
114 467 1
114 468 1
114 477 1
114 478 1
114 483 1
114 490 1
115 2 1
115 8 1
115 32 1
115 33 1
115 56 1
115 60 1
115 63 1
115 64 1
115 67 1
115 99 1
115 107 1
115 113 1
115 119 1
115 120 1
115 123 1
115 125 1
115 126 1
115 128 1
115 129 1
115 133 1
115 134 1
115 139 1
115 145 1
115 147 1
115 156 1
115 161 1
115 169 1
115 184 1
115 186 1
115 187 1
115 196 1
115 198 1
115 202 1
115 203 1
115 234 1
115 240 1
115 241 1
115 252 1
115 260 1
115 265 1
115 266 1
115 273 1
115 274 1
115 275 1
115 282 1
115 284 1
115 294 1
115 306 1
115 309 1
115 315 1
115 321 1
115 323 1
115 328 1
115 334 1
115 336 1
115 342 1
115 352 1
115 356 1
115 358 1
115 361 1
115 377 1
115 383 1
115 385 1
115 386 1
115 402 1
115 403 1
115 405 1
115 406 1
115 408 1
115 410 1
115 428 1
115 433 1
115 436 1
115 437 1
115 439 1
115 441 1
115 443 1
115 454 1
115 459 1
115 486 1
116 1 1
116 6 1
116 14 1
116 21 1
116 24 1
116 30 1
116 46 1
116 57 1
116 63 1
116 64 1
116 65 1
116 77 1
116 78 1
116 85 1
116 88 1
116 93 1
116 96 1
116 98 1
116 106 1
116 108 1
116 111 1
116 112 1
116 117 1
116 122 1
116 124 1
116 125 1
116 129 1
116 134 1
116 135 1
116 142 1
116 143 1
116 144 1
116 148 1
116 149 1
116 167 1
116 169 1
116 173 1
116 174 1
116 177 1
116 188 1
116 190 1
116 193 1
116 199 1
116 201 1
116 202 1
116 203 1
116 210 1
116 220 1
116 224 1
116 232 1
116 234 1
116 235 1
116 237 1
116 240 1
116 243 1
116 247 1
116 248 1
116 249 1
116 270 1
116 273 1
116 275 1
116 289 1
116 298 1
116 312 1
116 330 1
116 332 1
116 333 1
116 336 1
116 342 1
116 343 1
116 345 1
116 346 1
116 348 1
116 351 1
116 359 1
116 362 1
116 387 1
116 390 1
116 407 1
116 409 1
116 423 1
116 434 1
116 440 1
116 454 1
116 456 1
116 462 1
116 469 1
116 474 1
116 475 1
116 477 1
116 483 1
116 490 1
116 492 1
116 497 1
116 500 1
117 3 1
117 5 1
117 20 1
117 30 1
117 34 1
117 39 1
117 43 1
117 45 1
117 50 1
117 68 1
117 76 1
117 77 1
117 82 1
117 87 1
117 100 1
117 108 1
117 116 1
117 119 1
117 120 1
117 124 1
117 132 1
117 134 1
117 136 1
117 139 1
117 144 1
117 147 1
117 149 1
117 155 1
117 173 1
117 175 1
117 178 1
117 183 1
117 190 1
117 197 1
117 200 1
117 201 1
117 204 1
117 205 1
117 206 1
117 207 1
117 218 1
117 223 1
117 225 1
117 231 1
117 234 1
117 239 1
117 241 1
117 254 1
117 259 1
117 264 1
117 286 1
117 287 1
117 294 1
117 300 1
117 311 1
117 325 1
117 329 1
117 332 1
117 333 1
117 337 1
117 338 1
117 341 1
117 345 1
117 362 1
117 363 1
117 369 1
117 373 1
117 386 1
117 404 1
117 405 1
117 406 1
117 407 1
117 408 1
117 416 1
117 418 1
117 420 1
117 426 1
117 429 1
117 432 1
117 439 1
117 446 1
117 448 1
117 452 1
117 453 1
117 456 1
117 460 1
117 462 1
117 464 1
117 466 1
117 467 1
117 474 1
117 480 1
117 484 1
117 486 1
117 491 1
117 493 1
117 496 1
118 1 1
118 2 1
118 3 1
118 9 1
118 15 1
118 16 1
118 17 1
118 18 1
118 19 1
118 33 1
118 39 1
118 40 1
118 44 1
118 45 1
118 50 1
118 52 1
118 62 1
118 67 1
118 71 1
118 83 1
118 88 1
118 99 1
118 121 1
118 127 1
118 129 1
118 132 1
118 134 1
118 135 1
118 136 1
118 138 1
118 140 1
118 147 1
118 151 1
118 155 1
118 173 1
118 176 1
118 177 1
118 181 1
118 185 1
118 194 1
118 197 1
118 210 1
118 216 1
118 217 1
118 223 1
118 224 1
118 234 1
118 247 1
118 249 1
118 255 1
118 256 1
118 260 1
118 267 1
118 268 1
118 283 1
118 290 1
118 293 1
118 295 1
118 299 1
118 300 1
118 307 1
118 311 1
118 321 1
118 327 1
118 332 1
118 333 1
118 347 1
118 352 1
118 366 1
118 383 1
118 387 1
118 390 1
118 397 1
118 403 1
118 405 1
118 406 1
118 410 1
118 412 1
118 413 1
118 414 1
118 415 1
118 418 1
118 419 1
118 422 1
118 423 1
118 424 1
118 427 1
118 429 1
118 436 1
118 442 1
118 444 1
118 445 1
118 448 1
118 449 1
118 450 1
118 457 1
118 460 1
118 463 1
118 473 1
118 477 1
118 482 1
118 486 1
118 499 1
118 500 1
119 2 1
119 4 1
119 26 1
119 30 1
119 31 1
119 35 1
119 36 1
119 54 1
119 56 1
119 59 1
119 61 1
119 64 1
119 65 1
119 68 1
119 71 1
119 76 1
119 83 1
119 93 1
119 97 1
119 109 1
119 110 1
119 114 1
119 115 1
119 117 1
119 121 1
119 124 1
119 126 1
119 133 1
119 134 1
119 138 1
119 147 1
119 148 1
119 149 1
119 150 1
119 155 1
119 160 1
119 161 1
119 167 1
119 170 1
119 176 1
119 191 1
119 196 1
119 197 1
119 199 1
119 203 1
119 207 1
119 208 1
119 212 1
119 213 1
119 214 1
119 215 1
119 222 1
119 224 1
119 230 1
119 234 1
119 237 1
119 238 1
119 239 1
119 248 1
119 251 1
119 258 1
119 272 1
119 287 1
119 288 1
119 289 1
119 291 1
119 292 1
119 293 1
119 294 1
119 297 1
119 303 1
119 305 1
119 309 1
119 312 1
119 313 1
119 314 1
119 315 1
119 318 1
119 323 1
119 332 1
119 336 1
119 338 1
119 346 1
119 351 1
119 353 1
119 362 1
119 370 1
119 375 1
119 377 1
119 386 1
119 390 1
119 400 1
119 404 1
119 422 1
119 424 1
119 450 1
119 452 1
119 453 1
119 456 1
119 457 1
119 463 1
119 466 1
119 469 1
119 475 1
119 477 1
119 479 1
119 483 1
119 496 1
119 497 1
119 500 1
120 3 1
120 7 1
120 30 1
120 31 1
120 41 1
120 44 1
120 45 1
120 47 1
120 55 1
120 58 1
120 67 1
120 71 1
120 78 1
120 79 1
120 83 1
120 92 1
120 93 1
120 97 1
120 98 1
120 100 1
120 102 1
120 113 1
120 115 1
120 117 1
120 129 1
120 133 1
120 138 1
120 150 1
120 152 1
120 154 1
120 163 1
120 165 1
120 167 1
120 169 1
120 177 1
120 181 1
120 192 1
120 207 1
120 208 1
120 211 1
120 214 1
120 223 1
120 229 1
120 232 1
120 233 1
120 234 1
120 239 1
120 246 1
120 247 1
120 251 1
120 253 1
120 260 1
120 262 1
120 272 1
120 281 1
120 288 1
120 292 1
120 294 1
120 295 1
120 303 1
120 319 1
120 320 1
120 322 1
120 324 1
120 329 1
120 336 1
120 337 1
120 338 1
120 349 1
120 353 1
120 366 1
120 367 1
120 372 1
120 381 1
120 390 1
120 391 1
120 392 1
120 395 1
120 410 1
120 417 1
120 425 1
120 428 1
120 429 1
120 434 1
120 436 1
120 438 1
120 440 1
120 452 1
120 455 1
120 462 1
120 466 1
120 470 1
120 475 1
120 482 1
120 489 1
120 494 1
120 496 1
120 497 1
120 499 1
121 3 1
121 4 1
121 11 1
121 27 1
121 29 1
121 31 1
121 38 1
121 39 1
121 41 1
121 42 1
121 45 1
121 46 1
121 49 1
121 50 1
121 52 1
121 53 1
121 55 1
121 56 1
121 63 1
121 67 1
121 78 1
121 86 1
121 97 1
121 107 1
121 110 1
121 113 1
121 114 1
121 118 1
121 119 1
121 123 1
121 126 1
121 133 1
121 142 1
121 148 1
121 149 1
121 151 1
121 152 1
121 158 1
121 167 1
121 169 1
121 170 1
121 180 1
121 187 1
121 190 1
121 199 1
121 202 1
121 206 1
121 208 1
121 209 1
121 211 1
121 216 1
121 223 1
121 224 1
121 225 1
121 226 1
121 232 1
121 235 1
121 236 1
121 250 1
121 252 1
121 259 1
121 260 1
121 261 1
121 263 1
121 268 1
121 286 1
121 288 1
121 289 1
121 310 1
121 317 1
121 323 1
121 329 1
121 331 1
121 333 1
121 334 1
121 341 1
121 354 1
121 355 1
121 362 1
121 371 1
121 372 1
121 383 1
121 387 1
121 393 1
121 397 1
121 399 1
121 414 1
121 425 1
121 428 1
121 435 1
121 446 1
121 447 1
121 450 1
121 454 1
121 455 1
121 456 1
121 458 1
121 460 1
121 461 1
121 463 1
121 469 1
121 476 1
121 478 1
121 479 1
121 481 1
121 487 1
121 488 1
121 497 1
122 3 1
122 19 1
122 23 1
122 24 1
122 31 1
122 37 1
122 38 1
122 44 1
122 49 1
122 59 1
122 66 1
122 68 1
122 79 1
122 83 1
122 93 1
122 97 1
122 104 1
122 109 1
122 111 1
122 113 1
122 116 1
122 125 1
122 134 1
122 154 1
122 155 1
122 158 1
122 163 1
122 164 1
122 189 1
122 196 1
122 197 1
122 201 1
122 202 1
122 204 1
122 216 1
122 221 1
122 222 1
122 232 1
122 234 1
122 238 1
122 254 1
122 257 1
122 260 1
122 261 1
122 270 1
122 271 1
122 275 1
122 280 1
122 281 1
122 283 1
122 284 1
122 287 1
122 288 1
122 295 1
122 305 1
122 309 1
122 322 1
122 330 1
122 339 1
122 346 1
122 348 1
122 350 1
122 359 1
122 360 1
122 362 1
122 365 1
122 368 1
122 373 1
122 379 1
122 380 1
122 381 1
122 389 1
122 390 1
122 395 1
122 397 1
122 398 1
122 401 1
122 406 1
122 424 1
122 425 1
122 426 1
122 434 1
122 435 1
122 444 1
122 448 1
122 450 1
122 453 1
122 464 1
122 465 1
122 471 1
122 475 1
122 480 1
122 495 1
123 4 1
123 10 1
123 17 1
123 21 1
123 29 1
123 31 1
123 33 1
123 36 1
123 51 1
123 57 1
123 69 1
123 72 1
123 77 1
123 85 1
123 87 1
123 89 1
123 94 1
123 99 1
123 102 1
123 107 1
123 111 1
123 115 1
123 121 1
123 125 1
123 126 1
123 134 1
123 141 1
123 144 1
123 151 1
123 157 1
123 159 1
123 160 1
123 161 1
123 166 1
123 167 1
123 169 1
123 171 1
123 173 1
123 174 1
123 175 1
123 181 1
123 185 1
123 193 1
123 195 1
123 198 1
123 201 1
123 204 1
123 211 1
123 213 1
123 214 1
123 237 1
123 243 1
123 251 1
123 254 1
123 257 1
123 261 1
123 271 1
123 291 1
123 295 1
123 302 1
123 303 1
123 307 1
123 310 1
123 320 1
123 324 1
123 332 1
123 346 1
123 354 1
123 357 1
123 371 1
123 377 1
123 380 1
123 386 1
123 392 1
123 405 1
123 408 1
123 412 1
123 416 1
123 438 1
123 443 1
123 447 1
123 454 1
123 455 1
123 467 1
123 470 1
123 473 1
123 477 1
123 480 1
123 481 1
123 484 1
123 494 1
123 497 1
124 6 1
124 23 1
124 29 1
124 30 1
124 31 1
124 39 1
124 40 1
124 42 1
124 46 1
124 51 1
124 54 1
124 57 1
124 58 1
124 64 1
124 66 1
124 68 1
124 72 1
124 82 1
124 83 1
124 85 1
124 88 1
124 97 1
124 99 1
124 113 1
124 116 1
124 117 1
124 119 1
124 125 1
124 148 1
124 150 1
124 152 1
124 158 1
124 163 1
124 164 1
124 169 1
124 172 1
124 173 1
124 183 1
124 184 1
124 187 1
124 188 1
124 189 1
124 197 1
124 204 1
124 205 1
124 210 1
124 213 1
124 218 1
124 221 1
124 224 1
124 226 1
124 233 1
124 245 1
124 250 1
124 260 1
124 273 1
124 277 1
124 282 1
124 283 1
124 288 1
124 290 1
124 292 1
124 293 1
124 297 1
124 305 1
124 306 1
124 307 1
124 308 1
124 310 1
124 326 1
124 329 1
124 333 1
124 336 1
124 338 1
124 343 1
124 344 1
124 345 1
124 353 1
124 358 1
124 360 1
124 361 1
124 364 1
124 368 1
124 372 1
124 377 1
124 391 1
124 406 1
124 408 1
124 410 1
124 417 1
124 429 1
124 437 1
124 438 1
124 443 1
124 447 1
124 451 1
124 454 1
124 456 1
124 463 1
124 468 1
124 474 1
124 476 1
124 489 1
124 494 1
124 500 1
125 1 1
125 2 1
125 3 1
125 9 1
125 13 1
125 18 1
125 22 1
125 27 1
125 28 1
125 32 1
125 35 1
125 37 1
125 43 1
125 50 1
125 65 1
125 68 1
125 71 1
125 81 1
125 87 1
125 89 1
125 94 1
125 104 1
125 114 1
125 115 1
125 116 1
125 122 1
125 123 1
125 124 1
125 126 1
125 127 1
125 130 1
125 132 1
125 134 1
125 139 1
125 145 1
125 147 1
125 154 1
125 166 1
125 170 1
125 175 1
125 184 1
125 187 1
125 193 1
125 198 1
125 203 1
125 206 1
125 210 1
125 211 1
125 216 1
125 237 1
125 238 1
125 250 1
125 259 1
125 262 1
125 264 1
125 271 1
125 272 1
125 274 1
125 284 1
125 286 1
125 289 1
125 291 1
125 297 1
125 303 1
125 305 1
125 308 1
125 310 1
125 313 1
125 321 1
125 323 1
125 325 1
125 335 1
125 337 1
125 339 1
125 350 1
125 353 1
125 359 1
125 360 1
125 363 1
125 389 1
125 390 1
125 392 1
125 396 1
125 403 1
125 411 1
125 412 1
125 415 1
125 430 1
125 433 1
125 438 1
125 443 1
125 447 1
125 453 1
125 456 1
125 457 1
125 458 1
125 470 1
125 473 1
125 475 1
125 477 1
125 478 1
125 483 1
125 484 1
125 485 1
125 497 1
125 499 1
126 2 1
126 3 1
126 7 1
126 8 1
126 12 1
126 18 1
126 21 1
126 29 1
126 30 1
126 33 1
126 34 1
126 37 1
126 45 1
126 50 1
126 63 1
126 67 1
126 71 1
126 85 1
126 113 1
126 115 1
126 119 1
126 121 1
126 123 1
126 125 1
126 133 1
126 135 1
126 149 1
126 151 1
126 154 1
126 162 1
126 168 1
126 184 1
126 185 1
126 192 1
126 198 1
126 201 1
126 204 1
126 207 1
126 209 1
126 213 1
126 215 1
126 226 1
126 227 1
126 233 1
126 235 1
126 236 1
126 239 1
126 246 1
126 248 1
126 250 1
126 254 1
126 258 1
126 263 1
126 283 1
126 284 1
126 285 1
126 290 1
126 300 1
126 303 1
126 314 1
126 318 1
126 320 1
126 322 1
126 332 1
126 341 1
126 344 1
126 350 1
126 351 1
126 353 1
126 368 1
126 373 1
126 385 1
126 390 1
126 402 1
126 403 1
126 415 1
126 423 1
126 424 1
126 432 1
126 442 1
126 447 1
126 459 1
126 464 1
126 466 1
126 473 1
126 479 1
126 480 1
126 490 1
126 495 1
126 497 1
126 498 1
127 2 1
127 6 1
127 10 1
127 26 1
127 28 1
127 29 1
127 31 1
127 32 1
127 33 1
127 48 1
127 53 1
127 56 1
127 70 1
127 76 1
127 78 1
127 84 1
127 88 1
127 106 1
127 109 1
127 111 1
127 118 1
127 125 1
127 130 1
127 131 1
127 135 1
127 142 1
127 158 1
127 159 1
127 162 1
127 163 1
127 173 1
127 182 1
127 183 1
127 190 1
127 196 1
127 209 1
127 214 1
127 218 1
127 221 1
127 222 1
127 226 1
127 230 1
127 235 1
127 238 1
127 241 1
127 243 1
127 246 1
127 250 1
127 253 1
127 260 1
127 267 1
127 269 1
127 274 1
127 285 1
127 293 1
127 308 1
127 310 1
127 312 1
127 313 1
127 314 1
127 321 1
127 326 1
127 330 1
127 334 1
127 346 1
127 347 1
127 349 1
127 356 1
127 358 1
127 359 1
127 370 1
127 372 1
127 378 1
127 386 1
127 387 1
127 392 1
127 393 1
127 398 1
127 402 1
127 405 1
127 419 1
127 421 1
127 422 1
127 424 1
127 426 1
127 428 1
127 430 1
127 434 1
127 441 1
127 445 1
127 457 1
127 459 1
127 475 1
127 476 1
127 482 1
127 493 1
127 496 1
128 3 1
128 10 1
128 15 1
128 19 1
128 22 1
128 24 1
128 36 1
128 40 1
128 41 1
128 44 1
128 48 1
128 60 1
128 62 1
128 63 1
128 66 1
128 68 1
128 69 1
128 73 1
128 74 1
128 84 1
128 90 1
128 92 1
128 96 1
128 99 1
128 107 1
128 111 1
128 115 1
128 131 1
128 132 1
128 135 1
128 140 1
128 145 1
128 154 1
128 160 1
128 161 1
128 169 1
128 181 1
128 186 1
128 190 1
128 192 1
128 193 1
128 194 1
128 197 1
128 199 1
128 208 1
128 209 1
128 224 1
128 230 1
128 235 1
128 240 1
128 250 1
128 256 1
128 263 1
128 269 1
128 279 1
128 285 1
128 286 1
128 287 1
128 291 1
128 294 1
128 295 1
128 300 1
128 301 1
128 309 1
128 316 1
128 317 1
128 329 1
128 330 1
128 331 1
128 351 1
128 360 1
128 368 1
128 369 1
128 370 1
128 373 1
128 375 1
128 384 1
128 393 1
128 395 1
128 399 1
128 404 1
128 413 1
128 428 1
128 430 1
128 434 1
128 438 1
128 443 1
128 444 1
128 451 1
128 452 1
128 464 1
128 467 1
128 472 1
128 484 1
129 4 1
129 10 1
129 12 1
129 14 1
129 16 1
129 22 1
129 27 1
129 33 1
129 37 1
129 43 1
129 51 1
129 52 1
129 60 1
129 66 1
129 75 1
129 77 1
129 78 1
129 83 1
129 90 1
129 95 1
129 98 1
129 102 1
129 105 1
129 106 1
129 108 1
129 114 1
129 115 1
129 116 1
129 118 1
129 120 1
129 136 1
129 143 1
129 154 1
129 159 1
129 161 1
129 166 1
129 170 1
129 175 1
129 180 1
129 186 1
129 200 1
129 204 1
129 205 1
129 211 1
129 217 1
129 223 1
129 226 1
129 227 1
129 229 1
129 233 1
129 241 1
129 242 1
129 243 1
129 247 1
129 249 1
129 253 1
129 256 1
129 269 1
129 287 1
129 298 1
129 310 1
129 311 1
129 321 1
129 323 1
129 334 1
129 335 1
129 338 1
129 342 1
129 345 1
129 366 1
129 367 1
129 375 1
129 380 1
129 384 1
129 385 1
129 388 1
129 390 1
129 392 1
129 395 1
129 396 1
129 397 1
129 399 1
129 405 1
129 411 1
129 418 1
129 419 1
129 425 1
129 427 1
129 439 1
129 444 1
129 446 1
129 454 1
129 459 1
129 467 1
129 469 1
129 475 1
129 476 1
129 478 1
129 479 1
129 481 1
129 484 1
129 486 1
129 493 1
129 496 1
130 1 1
130 3 1
130 5 1
130 7 1
130 17 1
130 18 1
130 30 1
130 44 1
130 55 1
130 56 1
130 58 1
130 75 1
130 76 1
130 80 1
130 83 1
130 92 1
130 100 1
130 103 1
130 107 1
130 110 1
130 125 1
130 127 1
130 131 1
130 138 1
130 148 1
130 149 1
130 152 1
130 153 1
130 159 1
130 165 1
130 168 1
130 169 1
130 183 1
130 187 1
130 196 1
130 202 1
130 210 1
130 211 1
130 214 1
130 226 1
130 229 1
130 237 1
130 240 1
130 246 1
130 253 1
130 255 1
130 264 1
130 265 1
130 273 1
130 274 1
130 283 1
130 285 1
130 286 1
130 288 1
130 296 1
130 297 1
130 298 1
130 306 1
130 310 1
130 313 1
130 314 1
130 315 1
130 321 1
130 323 1
130 332 1
130 333 1
130 336 1
130 346 1
130 349 1
130 354 1
130 364 1
130 369 1
130 371 1
130 372 1
130 373 1
130 376 1
130 378 1
130 382 1
130 387 1
130 391 1
130 394 1
130 398 1
130 401 1
130 406 1
130 415 1
130 420 1
130 421 1
130 426 1
130 434 1
130 435 1
130 445 1
130 458 1
130 470 1
130 472 1
130 474 1
130 475 1
130 481 1
130 483 1
130 499 1
131 1 1
131 18 1
131 26 1
131 29 1
131 39 1
131 42 1
131 50 1
131 55 1
131 60 1
131 68 1
131 70 1
131 75 1
131 87 1
131 90 1
131 94 1
131 96 1
131 99 1
131 101 1
131 103 1
131 104 1
131 107 1
131 127 1
131 128 1
131 130 1
131 132 1
131 135 1
131 142 1
131 144 1
131 148 1
131 149 1
131 150 1
131 156 1
131 160 1
131 163 1
131 165 1
131 169 1
131 171 1
131 176 1
131 179 1
131 191 1
131 194 1
131 195 1
131 196 1
131 203 1
131 206 1
131 207 1
131 210 1
131 213 1
131 226 1
131 233 1
131 237 1
131 238 1
131 248 1
131 250 1
131 257 1
131 258 1
131 267 1
131 272 1
131 273 1
131 278 1
131 282 1
131 286 1
131 291 1
131 299 1
131 305 1
131 332 1
131 334 1
131 335 1
131 338 1
131 339 1
131 342 1
131 343 1
131 348 1
131 353 1
131 361 1
131 367 1
131 378 1
131 381 1
131 388 1
131 389 1
131 391 1
131 395 1
131 399 1
131 401 1
131 404 1
131 410 1
131 414 1
131 416 1
131 426 1
131 430 1
131 439 1
131 451 1
131 462 1
131 466 1
131 472 1
131 482 1
131 487 1
131 492 1
131 497 1
132 1 1
132 2 1
132 5 1
132 8 1
132 10 1
132 15 1
132 19 1
132 20 1
132 27 1
132 34 1
132 72 1
132 74 1
132 76 1
132 79 1
132 80 1
132 81 1
132 84 1
132 94 1
132 98 1
132 100 1
132 107 1
132 110 1
132 111 1
132 112 1
132 114 1
132 117 1
132 118 1
132 125 1
132 128 1
132 131 1
132 133 1
132 145 1
132 149 1
132 158 1
132 162 1
132 166 1
132 172 1
132 173 1
132 174 1
132 179 1
132 186 1
132 187 1
132 188 1
132 189 1
132 193 1
132 194 1
132 196 1
132 199 1
132 201 1
132 211 1
132 212 1
132 231 1
132 233 1
132 254 1
132 257 1
132 262 1
132 266 1
132 268 1
132 273 1
132 279 1
132 300 1
132 302 1
132 312 1
132 315 1
132 316 1
132 319 1
132 321 1
132 329 1
132 335 1
132 358 1
132 360 1
132 364 1
132 365 1
132 368 1
132 370 1
132 378 1
132 387 1
132 390 1
132 391 1
132 402 1
132 409 1
132 421 1
132 423 1
132 437 1
132 439 1
132 440 1
132 449 1
132 455 1
132 458 1
132 471 1
132 479 1
132 481 1
132 484 1
132 490 1
132 495 1
132 500 1
133 1 1
133 2 1
133 5 1
133 6 1
133 7 1
133 11 1
133 12 1
133 22 1
133 28 1
133 34 1
133 36 1
133 38 1
133 39 1
133 40 1
133 41 1
133 43 1
133 52 1
133 56 1
133 60 1
133 75 1
133 78 1
133 84 1
133 94 1
133 99 1
133 109 1
133 114 1
133 115 1
133 119 1
133 120 1
133 121 1
133 126 1
133 132 1
133 146 1
133 149 1
133 161 1
133 168 1
133 170 1
133 182 1
133 184 1
133 185 1
133 188 1
133 191 1
133 192 1
133 198 1
133 199 1
133 202 1
133 207 1
133 209 1
133 211 1
133 215 1
133 219 1
133 228 1
133 235 1
133 244 1
133 246 1
133 247 1
133 252 1
133 253 1
133 263 1
133 266 1
133 267 1
133 275 1
133 278 1
133 280 1
133 284 1
133 291 1
133 293 1
133 298 1
133 299 1
133 314 1
133 315 1
133 319 1
133 321 1
133 322 1
133 326 1
133 327 1
133 330 1
133 333 1
133 334 1
133 339 1
133 341 1
133 350 1
133 358 1
133 361 1
133 365 1
133 369 1
133 372 1
133 375 1
133 377 1
133 387 1
133 394 1
133 406 1
133 412 1
133 413 1
133 414 1
133 421 1
133 426 1
133 427 1
133 434 1
133 441 1
133 442 1
133 443 1
133 445 1
133 463 1
133 466 1
133 470 1
133 474 1
133 478 1
133 479 1
133 499 1
134 5 1
134 10 1
134 15 1
134 17 1
134 19 1
134 30 1
134 32 1
134 37 1
134 46 1
134 47 1
134 50 1
134 53 1
134 57 1
134 59 1
134 68 1
134 69 1
134 81 1
134 87 1
134 89 1
134 90 1
134 92 1
134 96 1
134 98 1
134 108 1
134 111 1
134 115 1
134 116 1
134 117 1
134 118 1
134 119 1
134 122 1
134 123 1
134 125 1
134 135 1
134 146 1
134 160 1
134 171 1
134 172 1
134 176 1
134 182 1
134 184 1
134 185 1
134 186 1
134 189 1
134 196 1
134 204 1
134 208 1
134 211 1
134 212 1
134 216 1
134 217 1
134 219 1
134 223 1
134 232 1
134 235 1
134 240 1
134 249 1
134 252 1
134 253 1
134 254 1
134 256 1
134 260 1
134 268 1
134 273 1
134 274 1
134 279 1
134 281 1
134 285 1
134 298 1
134 301 1
134 303 1
134 304 1
134 307 1
134 311 1
134 313 1
134 318 1
134 325 1
134 326 1
134 327 1
134 330 1
134 332 1
134 337 1
134 340 1
134 344 1
134 351 1
134 359 1
134 360 1
134 361 1
134 370 1
134 375 1
134 377 1
134 387 1
134 388 1
134 392 1
134 393 1
134 394 1
134 396 1
134 403 1
134 411 1
134 413 1
134 420 1
134 423 1
134 429 1
134 431 1
134 446 1
134 453 1
134 457 1
134 460 1
134 465 1
134 471 1
134 472 1
134 488 1
134 500 1
135 4 1
135 15 1
135 23 1
135 26 1
135 47 1
135 53 1
135 55 1
135 63 1
135 68 1
135 75 1
135 104 1
135 105 1
135 109 1
135 110 1
135 113 1
135 116 1
135 118 1
135 126 1
135 127 1
135 128 1
135 131 1
135 134 1
135 137 1
135 146 1
135 147 1
135 151 1
135 158 1
135 161 1
135 163 1
135 176 1
135 180 1
135 196 1
135 201 1
135 202 1
135 203 1
135 206 1
135 213 1
135 216 1
135 223 1
135 227 1
135 232 1
135 234 1
135 247 1
135 248 1
135 254 1
135 279 1
135 284 1
135 287 1
135 309 1
135 310 1
135 315 1
135 316 1
135 319 1
135 324 1
135 325 1
135 328 1
135 330 1
135 331 1
135 335 1
135 336 1
135 340 1
135 360 1
135 364 1
135 366 1
135 370 1
135 371 1
135 378 1
135 391 1
135 405 1
135 407 1
135 408 1
135 414 1
135 418 1
135 420 1
135 428 1
135 434 1
135 439 1
135 440 1
135 448 1
135 449 1
135 452 1
135 459 1
135 461 1
135 465 1
135 466 1
135 478 1
135 479 1
135 481 1
135 489 1
135 496 1
136 3 1
136 5 1
136 14 1
136 26 1
136 35 1
136 36 1
136 50 1
136 51 1
136 53 1
136 56 1
136 58 1
136 63 1
136 67 1
136 69 1
136 72 1
136 80 1
136 83 1
136 85 1
136 88 1
136 94 1
136 111 1
136 112 1
136 117 1
136 118 1
136 129 1
136 141 1
136 146 1
136 187 1
136 196 1
136 208 1
136 212 1
136 223 1
136 230 1
136 235 1
136 236 1
136 240 1
136 246 1
136 250 1
136 253 1
136 264 1
136 275 1
136 279 1
136 284 1
136 287 1
136 289 1
136 291 1
136 292 1
136 299 1
136 303 1
136 304 1
136 307 1
136 312 1
136 317 1
136 321 1
136 322 1
136 325 1
136 330 1
136 331 1
136 332 1
136 333 1
136 337 1
136 343 1
136 344 1
136 355 1
136 357 1
136 364 1
136 365 1
136 366 1
136 373 1
136 375 1
136 386 1
136 387 1
136 390 1
136 395 1
136 396 1
136 397 1
136 398 1
136 399 1
136 401 1
136 403 1
136 410 1
136 412 1
136 421 1
136 425 1
136 426 1
136 440 1
136 441 1
136 443 1
136 445 1
136 454 1
136 456 1
136 464 1
136 465 1
136 467 1
136 470 1
136 474 1
136 476 1
136 479 1
136 482 1
136 483 1
136 484 1
136 485 1
136 488 1
136 496 1
137 7 1
137 9 1
137 13 1
137 15 1
137 16 1
137 17 1
137 22 1
137 23 1
137 25 1
137 28 1
137 32 1
137 34 1
137 40 1
137 41 1
137 48 1
137 55 1
137 70 1
137 71 1
137 72 1
137 73 1
137 76 1
137 80 1
137 81 1
137 84 1
137 86 1
137 87 1
137 92 1
137 100 1
137 106 1
137 109 1
137 135 1
137 144 1
137 147 1
137 148 1
137 149 1
137 156 1
137 167 1
137 182 1
137 192 1
137 195 1
137 204 1
137 208 1
137 210 1
137 213 1
137 218 1
137 225 1
137 231 1
137 234 1
137 240 1
137 252 1
137 257 1
137 260 1
137 261 1
137 271 1
137 276 1
137 278 1
137 283 1
137 284 1
137 286 1
137 291 1
137 297 1
137 306 1
137 307 1
137 308 1
137 310 1
137 311 1
137 314 1
137 320 1
137 325 1
137 326 1
137 328 1
137 341 1
137 343 1
137 361 1
137 363 1
137 370 1
137 379 1
137 390 1
137 397 1
137 417 1
137 418 1
137 434 1
137 448 1
137 449 1
137 456 1
137 457 1
137 469 1
137 470 1
137 473 1
137 480 1
137 482 1
137 485 1
137 488 1
138 4 1
138 5 1
138 15 1
138 17 1
138 23 1
138 27 1
138 32 1
138 33 1
138 34 1
138 36 1
138 41 1
138 45 1
138 47 1
138 50 1
138 54 1
138 58 1
138 59 1
138 83 1
138 95 1
138 102 1
138 103 1
138 118 1
138 119 1
138 120 1
138 130 1
138 143 1
138 146 1
138 151 1
138 154 1
138 155 1
138 158 1
138 159 1
138 161 1
138 167 1
138 170 1
138 176 1
138 177 1
138 178 1
138 180 1
138 184 1
138 189 1
138 206 1
138 210 1
138 219 1
138 224 1
138 227 1
138 231 1
138 232 1
138 240 1
138 242 1
138 243 1
138 244 1
138 246 1
138 248 1
138 249 1
138 266 1
138 272 1
138 278 1
138 282 1
138 291 1
138 293 1
138 295 1
138 298 1
138 300 1
138 301 1
138 304 1
138 306 1
138 309 1
138 313 1
138 334 1
138 342 1
138 344 1
138 347 1
138 348 1
138 352 1
138 353 1
138 354 1
138 360 1
138 372 1
138 381 1
138 385 1
138 390 1
138 391 1
138 394 1
138 398 1
138 402 1
138 410 1
138 413 1
138 419 1
138 425 1
138 428 1
138 434 1
138 437 1
138 446 1
138 449 1
138 450 1
138 456 1
138 458 1
138 459 1
138 460 1
138 465 1
138 467 1
138 474 1
138 479 1
138 493 1
138 497 1
138 498 1
139 2 1
139 4 1
139 5 1
139 13 1
139 19 1
139 22 1
139 26 1
139 33 1
139 37 1
139 40 1
139 47 1
139 54 1
139 55 1
139 61 1
139 76 1
139 78 1
139 84 1
139 85 1
139 92 1
139 94 1
139 96 1
139 115 1
139 117 1
139 125 1
139 146 1
139 166 1
139 167 1
139 168 1
139 169 1
139 181 1
139 194 1
139 197 1
139 199 1
139 200 1
139 204 1
139 207 1
139 214 1
139 218 1
139 225 1
139 228 1
139 240 1
139 242 1
139 243 1
139 251 1
139 260 1
139 268 1
139 276 1
139 277 1
139 278 1
139 296 1
139 302 1
139 306 1
139 310 1
139 313 1
139 314 1
139 317 1
139 319 1
139 323 1
139 329 1
139 330 1
139 331 1
139 333 1
139 337 1
139 353 1
139 354 1
139 358 1
139 361 1
139 365 1
139 367 1
139 372 1
139 377 1
139 380 1
139 381 1
139 385 1
139 388 1
139 392 1
139 398 1
139 399 1
139 413 1
139 416 1
139 419 1
139 420 1
139 424 1
139 427 1
139 439 1
139 447 1
139 459 1
139 460 1
139 463 1
139 466 1
139 467 1
139 473 1
139 474 1
139 475 1
139 477 1
139 480 1
139 482 1
139 492 1
139 493 1
139 497 1
139 498 1
140 12 1
140 15 1
140 17 1
140 22 1
140 26 1
140 28 1
140 36 1
140 39 1
140 42 1
140 47 1
140 60 1
140 62 1
140 64 1
140 65 1
140 75 1
140 76 1
140 78 1
140 84 1
140 92 1
140 95 1
140 96 1
140 98 1
140 109 1
140 118 1
140 128 1
140 144 1
140 147 1
140 148 1
140 151 1
140 165 1
140 172 1
140 173 1
140 175 1
140 177 1
140 182 1
140 186 1
140 188 1
140 200 1
140 218 1
140 228 1
140 229 1
140 230 1
140 235 1
140 243 1
140 254 1
140 265 1
140 273 1
140 278 1
140 279 1
140 280 1
140 288 1
140 294 1
140 300 1
140 303 1
140 308 1
140 311 1
140 312 1
140 317 1
140 337 1
140 338 1
140 345 1
140 348 1
140 354 1
140 361 1
140 364 1
140 376 1
140 377 1
140 380 1
140 382 1
140 386 1
140 390 1
140 391 1
140 400 1
140 404 1
140 405 1
140 407 1
140 408 1
140 425 1
140 426 1
140 430 1
140 432 1
140 433 1
140 440 1
140 445 1
140 446 1
140 448 1
140 449 1
140 450 1
140 468 1
140 480 1
140 484 1
140 488 1
140 499 1
141 3 1
141 4 1
141 12 1
141 13 1
141 22 1
141 25 1
141 26 1
141 44 1
141 45 1
141 46 1
141 49 1
141 54 1
141 61 1
141 70 1
141 72 1
141 74 1
141 76 1
141 80 1
141 82 1
141 91 1
141 93 1
141 96 1
141 97 1
141 104 1
141 108 1
141 112 1
141 123 1
141 136 1
141 146 1
141 151 1
141 152 1
141 156 1
141 171 1
141 172 1
141 185 1
141 188 1
141 190 1
141 196 1
141 201 1
141 205 1
141 211 1
141 217 1
141 219 1
141 221 1
141 225 1
141 230 1
141 233 1
141 237 1
141 238 1
141 239 1
141 241 1
141 242 1
141 251 1
141 254 1
141 258 1
141 260 1
141 261 1
141 262 1
141 264 1
141 265 1
141 268 1
141 269 1
141 270 1
141 286 1
141 291 1
141 292 1
141 296 1
141 297 1
141 305 1
141 309 1
141 310 1
141 319 1
141 320 1
141 321 1
141 327 1
141 342 1
141 345 1
141 353 1
141 355 1
141 357 1
141 360 1
141 362 1
141 374 1
141 378 1
141 392 1
141 396 1
141 398 1
141 399 1
141 401 1
141 402 1
141 408 1
141 413 1
141 416 1
141 427 1
141 446 1
141 447 1
141 452 1
141 457 1
141 464 1
141 467 1
141 469 1
141 472 1
141 474 1
141 482 1
141 485 1
141 487 1
141 489 1
141 493 1
141 497 1
142 2 1
142 3 1
142 4 1
142 6 1
142 10 1
142 12 1
142 16 1
142 24 1
142 27 1
142 35 1
142 36 1
142 37 1
142 39 1
142 40 1
142 41 1
142 50 1
142 62 1
142 73 1
142 78 1
142 81 1
142 83 1
142 84 1
142 89 1
142 90 1
142 92 1
142 116 1
142 121 1
142 127 1
142 131 1
142 153 1
142 155 1
142 156 1
142 157 1
142 160 1
142 161 1
142 164 1
142 170 1
142 173 1
142 183 1
142 188 1
142 190 1
142 192 1
142 197 1
142 207 1
142 214 1
142 225 1
142 230 1
142 232 1
142 233 1
142 235 1
142 237 1
142 243 1
142 249 1
142 252 1
142 257 1
142 258 1
142 266 1
142 267 1
142 274 1
142 275 1
142 277 1
142 292 1
142 299 1
142 301 1
142 303 1
142 309 1
142 313 1
142 315 1
142 327 1
142 331 1
142 339 1
142 343 1
142 350 1
142 358 1
142 359 1
142 360 1
142 368 1
142 369 1
142 371 1
142 372 1
142 376 1
142 382 1
142 392 1
142 398 1
142 406 1
142 407 1
142 408 1
142 409 1
142 411 1
142 415 1
142 421 1
142 433 1
142 435 1
142 436 1
142 445 1
142 453 1
142 455 1
142 459 1
142 470 1
142 474 1
142 488 1
142 493 1
142 495 1
142 499 1
143 2 1
143 3 1
143 4 1
143 11 1
143 18 1
143 20 1
143 22 1
143 27 1
143 33 1
143 43 1
143 51 1
143 55 1
143 57 1
143 62 1
143 68 1
143 81 1
143 82 1
143 83 1
143 112 1
143 116 1
143 129 1
143 138 1
143 148 1
143 150 1
143 151 1
143 153 1
143 162 1
143 166 1
143 170 1
143 175 1
143 177 1
143 181 1
143 187 1
143 191 1
143 192 1
143 193 1
143 194 1
143 202 1
143 206 1
143 218 1
143 221 1
143 226 1
143 228 1
143 230 1
143 233 1
143 235 1
143 238 1
143 246 1
143 256 1
143 276 1
143 280 1
143 287 1
143 288 1
143 292 1
143 293 1
143 298 1
143 300 1
143 301 1
143 303 1
143 308 1
143 324 1
143 331 1
143 333 1
143 337 1
143 342 1
143 346 1
143 351 1
143 354 1
143 358 1
143 363 1
143 364 1
143 369 1
143 370 1
143 371 1
143 374 1
143 375 1
143 376 1
143 378 1
143 394 1
143 396 1
143 398 1
143 403 1
143 404 1
143 406 1
143 410 1
143 416 1
143 419 1
143 421 1
143 427 1
143 432 1
143 434 1
143 435 1
143 436 1
143 438 1
143 440 1
143 443 1
143 445 1
143 446 1
143 457 1
143 464 1
143 467 1
143 470 1
143 471 1
143 474 1
143 477 1
143 492 1
143 493 1
143 496 1
143 497 1
144 17 1
144 30 1
144 33 1
144 37 1
144 54 1
144 57 1
144 59 1
144 60 1
144 63 1
144 64 1
144 66 1
144 74 1
144 81 1
144 85 1
144 89 1
144 90 1
144 92 1
144 95 1
144 106 1
144 109 1
144 114 1
144 116 1
144 117 1
144 123 1
144 131 1
144 137 1
144 140 1
144 149 1
144 154 1
144 159 1
144 162 1
144 169 1
144 170 1
144 175 1
144 180 1
144 182 1
144 185 1
144 188 1
144 190 1
144 192 1
144 193 1
144 196 1
144 208 1
144 215 1
144 217 1
144 241 1
144 249 1
144 260 1
144 261 1
144 262 1
144 264 1
144 270 1
144 274 1
144 276 1
144 280 1
144 281 1
144 286 1
144 287 1
144 289 1
144 291 1
144 292 1
144 297 1
144 298 1
144 300 1
144 306 1
144 312 1
144 319 1
144 321 1
144 326 1
144 327 1
144 329 1
144 338 1
144 340 1
144 343 1
144 352 1
144 357 1
144 365 1
144 366 1
144 374 1
144 377 1
144 384 1
144 392 1
144 405 1
144 412 1
144 418 1
144 419 1
144 427 1
144 430 1
144 433 1
144 435 1
144 438 1
144 439 1
144 440 1
144 449 1
144 453 1
144 457 1
144 463 1
144 473 1
144 474 1
144 476 1
144 486 1
144 487 1
144 490 1
144 493 1
144 495 1
144 499 1
145 3 1
145 10 1
145 14 1
145 15 1
145 24 1
145 26 1
145 38 1
145 47 1
145 48 1
145 50 1
145 58 1
145 70 1
145 72 1
145 82 1
145 83 1
145 89 1
145 90 1
145 92 1
145 96 1
145 101 1
145 103 1
145 107 1
145 110 1
145 115 1
145 125 1
145 128 1
145 132 1
145 151 1
145 154 1
145 155 1
145 163 1
145 179 1
145 185 1
145 186 1
145 190 1
145 200 1
145 203 1
145 208 1
145 210 1
145 211 1
145 212 1
145 218 1
145 222 1
145 223 1
145 229 1
145 235 1
145 236 1
145 248 1
145 254 1
145 255 1
145 263 1
145 267 1
145 270 1
145 283 1
145 288 1
145 289 1
145 294 1
145 301 1
145 303 1
145 305 1
145 311 1
145 315 1
145 319 1
145 320 1
145 323 1
145 329 1
145 338 1
145 339 1
145 345 1
145 358 1
145 363 1
145 370 1
145 385 1
145 387 1
145 394 1
145 403 1
145 414 1
145 424 1
145 444 1
145 452 1
145 456 1
145 475 1
145 479 1
145 481 1
145 491 1
145 492 1
145 497 1
145 500 1
146 2 1
146 3 1
146 14 1
146 15 1
146 17 1
146 25 1
146 28 1
146 31 1
146 32 1
146 35 1
146 39 1
146 43 1
146 47 1
146 68 1
146 71 1
146 95 1
146 109 1
146 110 1
146 133 1
146 134 1
146 135 1
146 136 1
146 138 1
146 139 1
146 141 1
146 151 1
146 152 1
146 164 1
146 165 1
146 183 1
146 187 1
146 202 1
146 210 1
146 217 1
146 221 1
146 222 1
146 234 1
146 247 1
146 260 1
146 269 1
146 272 1
146 273 1
146 274 1
146 282 1
146 283 1
146 284 1
146 293 1
146 294 1
146 298 1
146 301 1
146 303 1
146 315 1
146 318 1
146 323 1
146 324 1
146 328 1
146 339 1
146 344 1
146 349 1
146 350 1
146 351 1
146 356 1
146 363 1
146 371 1
146 378 1
146 389 1
146 392 1
146 394 1
146 395 1
146 401 1
146 402 1
146 408 1
146 409 1
146 410 1
146 412 1
146 419 1
146 424 1
146 426 1
146 428 1
146 431 1
146 436 1
146 438 1
146 441 1
146 443 1
146 452 1
146 454 1
146 457 1
146 479 1
146 491 1
146 497 1
146 499 1
146 500 1
147 2 1
147 8 1
147 13 1
147 16 1
147 17 1
147 30 1
147 31 1
147 32 1
147 40 1
147 42 1
147 46 1
147 47 1
147 49 1
147 55 1
147 57 1
147 66 1
147 67 1
147 71 1
147 78 1
147 79 1
147 84 1
147 89 1
147 95 1
147 109 1
147 115 1
147 117 1
147 118 1
147 119 1
147 125 1
147 135 1
147 137 1
147 140 1
147 150 1
147 156 1
147 160 1
147 165 1
147 186 1
147 193 1
147 195 1
147 199 1
147 201 1
147 203 1
147 208 1
147 210 1
147 211 1
147 218 1
147 224 1
147 237 1
147 239 1
147 245 1
147 247 1
147 248 1
147 250 1
147 253 1
147 258 1
147 265 1
147 267 1
147 268 1
147 276 1
147 289 1
147 296 1
147 299 1
147 301 1
147 302 1
147 304 1
147 314 1
147 318 1
147 320 1
147 326 1
147 337 1
147 341 1
147 342 1
147 348 1
147 352 1
147 357 1
147 359 1
147 360 1
147 364 1
147 379 1
147 381 1
147 391 1
147 393 1
147 394 1
147 407 1
147 415 1
147 418 1
147 423 1
147 430 1
147 431 1
147 434 1
147 436 1
147 439 1
147 444 1
147 448 1
147 454 1
147 461 1
147 474 1
147 478 1
147 484 1
147 488 1
147 490 1
147 497 1
147 499 1
148 6 1
148 19 1
148 22 1
148 23 1
148 24 1
148 42 1
148 49 1
148 52 1
148 55 1
148 57 1
148 59 1
148 60 1
148 63 1
148 66 1
148 68 1
148 70 1
148 71 1
148 82 1
148 83 1
148 86 1
148 93 1
148 98 1
148 107 1
148 111 1
148 116 1
148 119 1
148 121 1
148 124 1
148 130 1
148 131 1
148 137 1
148 140 1
148 143 1
148 153 1
148 158 1
148 165 1
148 167 1
148 173 1
148 174 1
148 182 1
148 188 1
148 190 1
148 193 1
148 197 1
148 201 1
148 202 1
148 204 1
148 205 1
148 217 1
148 219 1
148 220 1
148 227 1
148 230 1
148 236 1
148 249 1
148 254 1
148 257 1
148 262 1
148 268 1
148 269 1
148 283 1
148 287 1
148 289 1
148 290 1
148 294 1
148 305 1
148 313 1
148 317 1
148 320 1
148 322 1
148 324 1
148 359 1
148 363 1
148 366 1
148 368 1
148 377 1
148 389 1
148 396 1
148 405 1
148 406 1
148 412 1
148 417 1
148 418 1
148 424 1
148 429 1
148 447 1
148 454 1
148 463 1
148 471 1
148 472 1
148 474 1
148 492 1
148 494 1
149 2 1
149 4 1
149 5 1
149 9 1
149 20 1
149 23 1
149 28 1
149 30 1
149 37 1
149 41 1
149 45 1
149 46 1
149 48 1
149 49 1
149 51 1
149 57 1
149 63 1
149 70 1
149 76 1
149 79 1
149 82 1
149 86 1
149 88 1
149 89 1
149 91 1
149 92 1
149 93 1
149 96 1
149 101 1
149 102 1
149 103 1
149 111 1
149 112 1
149 116 1
149 117 1
149 119 1
149 121 1
149 126 1
149 130 1
149 131 1
149 132 1
149 133 1
149 137 1
149 144 1
149 169 1
149 175 1
149 180 1
149 182 1
149 183 1
149 184 1
149 186 1
149 190 1
149 199 1
149 210 1
149 211 1
149 217 1
149 219 1
149 220 1
149 227 1
149 239 1
149 242 1
149 247 1
149 258 1
149 265 1
149 274 1
149 276 1
149 279 1
149 284 1
149 294 1
149 303 1
149 310 1
149 311 1
149 314 1
149 318 1
149 319 1
149 320 1
149 323 1
149 325 1
149 326 1
149 327 1
149 330 1
149 332 1
149 344 1
149 345 1
149 346 1
149 358 1
149 364 1
149 366 1
149 367 1
149 368 1
149 371 1
149 372 1
149 374 1
149 377 1
149 379 1
149 389 1
149 396 1
149 399 1
149 407 1
149 416 1
149 417 1
149 423 1
149 425 1
149 437 1
149 441 1
149 444 1
149 447 1
149 450 1
149 451 1
149 452 1
149 458 1
149 466 1
149 468 1
149 472 1
149 477 1
149 481 1
149 483 1
149 484 1
149 492 1
150 2 1
150 12 1
150 18 1
150 28 1
150 31 1
150 32 1
150 34 1
150 46 1
150 49 1
150 59 1
150 63 1
150 66 1
150 70 1
150 73 1
150 75 1
150 76 1
150 80 1
150 84 1
150 92 1
150 99 1
150 101 1
150 103 1
150 106 1
150 112 1
150 119 1
150 120 1
150 124 1
150 131 1
150 143 1
150 147 1
150 151 1
150 152 1
150 156 1
150 157 1
150 159 1
150 166 1
150 174 1
150 178 1
150 180 1
150 182 1
150 188 1
150 191 1
150 193 1
150 194 1
150 195 1
150 198 1
150 201 1
150 206 1
150 212 1
150 215 1
150 218 1
150 226 1
150 247 1
150 250 1
150 254 1
150 257 1
150 259 1
150 261 1
150 263 1
150 271 1
150 272 1
150 275 1
150 284 1
150 285 1
150 286 1
150 295 1
150 297 1
150 301 1
150 303 1
150 304 1
150 308 1
150 316 1
150 317 1
150 325 1
150 327 1
150 336 1
150 337 1
150 339 1
150 343 1
150 351 1
150 352 1
150 357 1
150 360 1
150 361 1
150 381 1
150 383 1
150 391 1
150 393 1
150 396 1
150 402 1
150 405 1
150 406 1
150 410 1
150 414 1
150 421 1
150 426 1
150 427 1
150 432 1
150 436 1
150 437 1
150 441 1
150 444 1
150 456 1
150 466 1
150 469 1
150 471 1
150 474 1
150 476 1
150 478 1
150 481 1
150 490 1
150 496 1
150 498 1
151 9 1
151 12 1
151 14 1
151 19 1
151 20 1
151 31 1
151 37 1
151 52 1
151 54 1
151 60 1
151 62 1
151 63 1
151 64 1
151 67 1
151 71 1
151 73 1
151 74 1
151 75 1
151 79 1
151 80 1
151 82 1
151 86 1
151 88 1
151 89 1
151 91 1
151 99 1
151 104 1
151 105 1
151 114 1
151 118 1
151 121 1
151 123 1
151 126 1
151 135 1
151 138 1
151 140 1
151 141 1
151 143 1
151 145 1
151 146 1
151 150 1
151 155 1
151 163 1
151 168 1
151 181 1
151 183 1
151 194 1
151 196 1
151 198 1
151 206 1
151 211 1
151 221 1
151 225 1
151 231 1
151 232 1
151 247 1
151 250 1
151 260 1
151 277 1
151 283 1
151 289 1
151 290 1
151 291 1
151 293 1
151 298 1
151 313 1
151 320 1
151 324 1
151 327 1
151 338 1
151 350 1
151 358 1
151 361 1
151 363 1
151 372 1
151 374 1
151 377 1
151 378 1
151 383 1
151 386 1
151 387 1
151 394 1
151 395 1
151 401 1
151 410 1
151 411 1
151 414 1
151 419 1
151 420 1
151 423 1
151 424 1
151 430 1
151 434 1
151 436 1
151 438 1
151 439 1
151 440 1
151 445 1
151 450 1
151 460 1
151 466 1
151 467 1
151 468 1
151 470 1
151 472 1
151 486 1
151 490 1
151 497 1
151 499 1
151 500 1
152 14 1
152 23 1
152 28 1
152 34 1
152 37 1
152 47 1
152 52 1
152 63 1
152 65 1
152 77 1
152 79 1
152 80 1
152 83 1
152 88 1
152 112 1
152 120 1
152 121 1
152 124 1
152 130 1
152 141 1
152 146 1
152 150 1
152 161 1
152 163 1
152 168 1
152 173 1
152 180 1
152 181 1
152 184 1
152 197 1
152 203 1
152 205 1
152 209 1
152 212 1
152 213 1
152 216 1
152 218 1
152 241 1
152 252 1
152 262 1
152 267 1
152 271 1
152 272 1
152 280 1
152 282 1
152 283 1
152 286 1
152 287 1
152 292 1
152 296 1
152 304 1
152 314 1
152 317 1
152 318 1
152 323 1
152 328 1
152 332 1
152 348 1
152 352 1
152 361 1
152 367 1
152 369 1
152 379 1
152 380 1
152 381 1
152 384 1
152 385 1
152 387 1
152 393 1
152 410 1
152 411 1
152 413 1
152 417 1
152 422 1
152 423 1
152 426 1
152 427 1
152 434 1
152 436 1
152 437 1
152 448 1
152 450 1
152 471 1
152 473 1
152 474 1
152 475 1
152 478 1
152 480 1
152 491 1
152 493 1
152 494 1
152 495 1
152 496 1
152 500 1
153 1 1
153 3 1
153 5 1
153 8 1
153 20 1
153 23 1
153 37 1
153 38 1
153 39 1
153 42 1
153 49 1
153 55 1
153 58 1
153 65 1
153 67 1
153 69 1
153 71 1
153 80 1
153 82 1
153 100 1
153 108 1
153 130 1
153 142 1
153 143 1
153 148 1
153 166 1
153 172 1
153 175 1
153 177 1
153 179 1
153 182 1
153 185 1
153 204 1
153 205 1
153 207 1
153 210 1
153 216 1
153 218 1
153 235 1
153 240 1
153 242 1
153 254 1
153 270 1
153 278 1
153 281 1
153 285 1
153 291 1
153 292 1
153 294 1
153 307 1
153 323 1
153 335 1
153 339 1
153 342 1
153 347 1
153 350 1
153 351 1
153 352 1
153 355 1
153 358 1
153 359 1
153 361 1
153 362 1
153 364 1
153 365 1
153 369 1
153 380 1
153 381 1
153 394 1
153 402 1
153 407 1
153 414 1
153 415 1
153 416 1
153 418 1
153 420 1
153 425 1
153 441 1
153 442 1
153 445 1
153 446 1
153 448 1
153 452 1
153 454 1
153 456 1
153 461 1
153 479 1
153 486 1
153 489 1
153 493 1
153 494 1
154 2 1
154 5 1
154 7 1
154 8 1
154 15 1
154 21 1
154 23 1
154 29 1
154 30 1
154 34 1
154 37 1
154 40 1
154 45 1
154 49 1
154 50 1
154 51 1
154 57 1
154 64 1
154 68 1
154 71 1
154 74 1
154 81 1
154 87 1
154 90 1
154 96 1
154 99 1
154 103 1
154 105 1
154 107 1
154 110 1
154 112 1
154 120 1
154 122 1
154 125 1
154 126 1
154 128 1
154 129 1
154 138 1
154 144 1
154 145 1
154 157 1
154 163 1
154 164 1
154 165 1
154 173 1
154 174 1
154 175 1
154 178 1
154 179 1
154 183 1
154 185 1
154 188 1
154 189 1
154 204 1
154 205 1
154 206 1
154 207 1
154 216 1
154 225 1
154 232 1
154 233 1
154 236 1
154 238 1
154 242 1
154 252 1
154 253 1
154 254 1
154 266 1
154 271 1
154 273 1
154 276 1
154 278 1
154 282 1
154 287 1
154 291 1
154 301 1
154 307 1
154 309 1
154 310 1
154 311 1
154 312 1
154 313 1
154 314 1
154 315 1
154 326 1
154 331 1
154 349 1
154 351 1
154 353 1
154 354 1
154 364 1
154 374 1
154 376 1
154 382 1
154 399 1
154 400 1
154 405 1
154 408 1
154 409 1
154 414 1
154 417 1
154 418 1
154 429 1
154 434 1
154 437 1
154 439 1
154 448 1
154 456 1
154 467 1
154 475 1
154 481 1
154 486 1
154 487 1
154 489 1
154 490 1
154 495 1
154 497 1
154 500 1
155 1 1
155 2 1
155 3 1
155 8 1
155 9 1
155 10 1
155 19 1
155 20 1
155 21 1
155 23 1
155 26 1
155 32 1
155 33 1
155 35 1
155 47 1
155 49 1
155 50 1
155 54 1
155 58 1
155 61 1
155 62 1
155 76 1
155 78 1
155 85 1
155 87 1
155 88 1
155 94 1
155 98 1
155 100 1
155 108 1
155 114 1
155 117 1
155 118 1
155 119 1
155 122 1
155 138 1
155 142 1
155 145 1
155 151 1
155 157 1
155 163 1
155 170 1
155 175 1
155 182 1
155 189 1
155 193 1
155 196 1
155 197 1
155 198 1
155 200 1
155 201 1
155 209 1
155 214 1
155 225 1
155 228 1
155 233 1
155 239 1
155 249 1
155 257 1
155 269 1
155 278 1
155 279 1
155 284 1
155 285 1
155 286 1
155 293 1
155 301 1
155 302 1
155 306 1
155 311 1
155 317 1
155 319 1
155 324 1
155 332 1
155 337 1
155 347 1
155 349 1
155 352 1
155 378 1
155 384 1
155 385 1
155 386 1
155 393 1
155 396 1
155 398 1
155 399 1
155 402 1
155 404 1
155 405 1
155 411 1
155 413 1
155 415 1
155 416 1
155 417 1
155 419 1
155 420 1
155 422 1
155 429 1
155 435 1
155 436 1
155 439 1
155 441 1
155 446 1
155 447 1
155 448 1
155 452 1
155 467 1
155 468 1
155 470 1
155 471 1
155 480 1
155 482 1
155 485 1
155 490 1
155 497 1
156 3 1
156 4 1
156 6 1
156 8 1
156 9 1
156 10 1
156 25 1
156 34 1
156 40 1
156 42 1
156 43 1
156 45 1
156 55 1
156 57 1
156 62 1
156 73 1
156 84 1
156 92 1
156 94 1
156 95 1
156 108 1
156 110 1
156 114 1
156 115 1
156 131 1
156 137 1
156 141 1
156 142 1
156 147 1
156 150 1
156 163 1
156 164 1
156 165 1
156 169 1
156 170 1
156 171 1
156 189 1
156 196 1
156 197 1
156 200 1
156 211 1
156 218 1
156 229 1
156 230 1
156 237 1
156 248 1
156 249 1
156 258 1
156 261 1
156 267 1
156 272 1
156 273 1
156 276 1
156 292 1
156 295 1
156 297 1
156 298 1
156 305 1
156 307 1
156 308 1
156 311 1
156 316 1
156 333 1
156 345 1
156 352 1
156 356 1
156 363 1
156 372 1
156 377 1
156 379 1
156 383 1
156 388 1
156 392 1
156 393 1
156 396 1
156 407 1
156 408 1
156 410 1
156 419 1
156 423 1
156 428 1
156 433 1
156 437 1
156 439 1
156 442 1
156 443 1
156 445 1
156 452 1
156 454 1
156 460 1
156 469 1
156 477 1
156 484 1
156 487 1
156 491 1
156 494 1
156 498 1
157 1 1
157 3 1
157 8 1
157 11 1
157 14 1
157 18 1
157 30 1
157 31 1
157 32 1
157 34 1
157 48 1
157 61 1
157 68 1
157 73 1
157 77 1
157 81 1
157 83 1
157 85 1
157 88 1
157 92 1
157 98 1
157 99 1
157 102 1
157 104 1
157 106 1
157 109 1
157 123 1
157 142 1
157 150 1
157 154 1
157 155 1
157 161 1
157 166 1
157 169 1
157 174 1
157 181 1
157 182 1
157 186 1
157 190 1
157 197 1
157 198 1
157 210 1
157 220 1
157 224 1
157 226 1
157 227 1
157 232 1
157 237 1
157 241 1
157 245 1
157 246 1
157 248 1
157 250 1
157 258 1
157 259 1
157 270 1
157 275 1
157 276 1
157 279 1
157 285 1
157 287 1
157 302 1
157 305 1
157 320 1
157 341 1
157 350 1
157 361 1
157 362 1
157 364 1
157 365 1
157 371 1
157 372 1
157 376 1
157 378 1
157 384 1
157 385 1
157 391 1
157 392 1
157 395 1
157 396 1
157 398 1
157 407 1
157 408 1
157 410 1
157 421 1
157 433 1
157 434 1
157 436 1
157 437 1
157 445 1
157 449 1
157 451 1
157 460 1
157 463 1
157 468 1
157 472 1
157 474 1
157 475 1
157 478 1
157 479 1
157 484 1
157 489 1
157 493 1
157 497 1
158 1 1
158 4 1
158 10 1
158 26 1
158 28 1
158 36 1
158 38 1
158 39 1
158 43 1
158 46 1
158 52 1
158 63 1
158 67 1
158 69 1
158 70 1
158 71 1
158 74 1
158 76 1
158 80 1
158 83 1
158 86 1
158 107 1
158 108 1
158 112 1
158 121 1
158 122 1
158 124 1
158 127 1
158 132 1
158 135 1
158 138 1
158 148 1
158 169 1
158 174 1
158 181 1
158 187 1
158 191 1
158 192 1
158 194 1
158 196 1
158 203 1
158 206 1
158 212 1
158 214 1
158 215 1
158 222 1
158 224 1
158 231 1
158 232 1
158 241 1
158 243 1
158 245 1
158 247 1
158 250 1
158 253 1
158 256 1
158 275 1
158 300 1
158 303 1
158 306 1
158 307 1
158 308 1
158 317 1
158 323 1
158 328 1
158 334 1
158 335 1
158 339 1
158 340 1
158 346 1
158 353 1
158 359 1
158 367 1
158 370 1
158 374 1
158 382 1
158 385 1
158 398 1
158 401 1
158 403 1
158 405 1
158 406 1
158 411 1
158 418 1
158 428 1
158 439 1
158 443 1
158 446 1
158 447 1
158 448 1
158 451 1
158 456 1
158 462 1
158 463 1
158 467 1
158 470 1
158 481 1
158 482 1
158 485 1
158 495 1
159 2 1
159 8 1
159 12 1
159 14 1
159 15 1
159 27 1
159 31 1
159 32 1
159 34 1
159 35 1
159 49 1
159 55 1
159 60 1
159 61 1
159 83 1
159 89 1
159 91 1
159 94 1
159 98 1
159 104 1
159 105 1
159 113 1
159 123 1
159 127 1
159 129 1
159 130 1
159 138 1
159 144 1
159 150 1
159 160 1
159 163 1
159 168 1
159 171 1
159 179 1
159 183 1
159 187 1
159 192 1
159 193 1
159 196 1
159 198 1
159 201 1
159 202 1
159 203 1
159 204 1
159 221 1
159 222 1
159 225 1
159 238 1
159 239 1
159 245 1
159 248 1
159 249 1
159 255 1
159 270 1
159 275 1
159 285 1
159 287 1
159 294 1
159 295 1
159 298 1
159 306 1
159 317 1
159 318 1
159 321 1
159 333 1
159 335 1
159 338 1
159 340 1
159 345 1
159 349 1
159 351 1
159 352 1
159 353 1
159 360 1
159 361 1
159 370 1
159 373 1
159 376 1
159 390 1
159 396 1
159 397 1
159 398 1
159 404 1
159 407 1
159 410 1
159 412 1
159 414 1
159 417 1
159 420 1
159 428 1
159 434 1
159 438 1
159 447 1
159 454 1
159 455 1
159 459 1
159 463 1
159 465 1
159 471 1
159 473 1
159 476 1
159 480 1
159 486 1
159 487 1
159 492 1
160 2 1
160 4 1
160 5 1
160 9 1
160 11 1
160 16 1
160 17 1
160 18 1
160 19 1
160 23 1
160 25 1
160 27 1
160 30 1
160 34 1
160 36 1
160 44 1
160 45 1
160 48 1
160 49 1
160 52 1
160 55 1
160 56 1
160 63 1
160 67 1
160 75 1
160 76 1
160 80 1
160 84 1
160 85 1
160 89 1
160 90 1
160 94 1
160 97 1
160 98 1
160 99 1
160 101 1
160 102 1
160 108 1
160 112 1
160 119 1
160 123 1
160 128 1
160 131 1
160 134 1
160 142 1
160 147 1
160 159 1
160 162 1
160 168 1
160 169 1
160 184 1
160 185 1
160 186 1
160 189 1
160 208 1
160 209 1
160 231 1
160 233 1
160 239 1
160 241 1
160 248 1
160 249 1
160 255 1
160 258 1
160 265 1
160 267 1
160 270 1
160 272 1
160 277 1
160 293 1
160 295 1
160 297 1
160 298 1
160 301 1
160 302 1
160 314 1
160 315 1
160 317 1
160 318 1
160 334 1
160 336 1
160 339 1
160 349 1
160 352 1
160 355 1
160 358 1
160 360 1
160 361 1
160 366 1
160 368 1
160 369 1
160 376 1
160 378 1
160 383 1
160 385 1
160 395 1
160 400 1
160 401 1
160 410 1
160 413 1
160 419 1
160 421 1
160 435 1
160 437 1
160 439 1
160 449 1
160 459 1
160 461 1
160 473 1
160 474 1
160 484 1
160 487 1
160 488 1
160 497 1
161 1 1
161 5 1
161 7 1
161 29 1
161 34 1
161 36 1
161 38 1
161 40 1
161 43 1
161 44 1
161 46 1
161 51 1
161 57 1
161 59 1
161 62 1
161 63 1
161 70 1
161 75 1
161 79 1
161 101 1
161 108 1
161 110 1
161 111 1
161 112 1
161 115 1
161 119 1
161 123 1
161 128 1
161 129 1
161 133 1
161 135 1
161 138 1
161 142 1
161 152 1
161 157 1
161 165 1
161 184 1
161 185 1
161 202 1
161 205 1
161 212 1
161 225 1
161 226 1
161 227 1
161 228 1
161 237 1
161 242 1
161 245 1
161 247 1
161 248 1
161 251 1
161 257 1
161 261 1
161 263 1
161 264 1
161 272 1
161 273 1
161 277 1
161 279 1
161 281 1
161 287 1
161 289 1
161 294 1
161 296 1
161 301 1
161 302 1
161 305 1
161 306 1
161 311 1
161 320 1
161 322 1
161 332 1
161 333 1
161 337 1
161 339 1
161 340 1
161 342 1
161 346 1
161 349 1
161 351 1
161 352 1
161 354 1
161 356 1
161 362 1
161 364 1
161 365 1
161 368 1
161 371 1
161 376 1
161 380 1
161 381 1
161 389 1
161 392 1
161 393 1
161 403 1
161 408 1
161 414 1
161 428 1
161 437 1
161 438 1
161 440 1
161 450 1
161 451 1
161 466 1
161 469 1
161 479 1
161 482 1
161 488 1
161 489 1
161 495 1
161 499 1
162 14 1
162 21 1
162 23 1
162 31 1
162 33 1
162 35 1
162 47 1
162 48 1
162 52 1
162 54 1
162 56 1
162 59 1
162 61 1
162 64 1
162 71 1
162 74 1
162 79 1
162 82 1
162 84 1
162 85 1
162 92 1
162 98 1
162 100 1
162 110 1
162 112 1
162 114 1
162 126 1
162 127 1
162 132 1
162 143 1
162 144 1
162 160 1
162 163 1
162 170 1
162 172 1
162 177 1
162 181 1
162 182 1
162 194 1
162 198 1
162 199 1
162 201 1
162 209 1
162 222 1
162 223 1
162 229 1
162 231 1
162 238 1
162 241 1
162 243 1
162 249 1
162 250 1
162 252 1
162 263 1
162 265 1
162 266 1
162 274 1
162 275 1
162 277 1
162 284 1
162 286 1
162 287 1
162 289 1
162 293 1
162 294 1
162 299 1
162 305 1
162 308 1
162 310 1
162 313 1
162 316 1
162 318 1
162 328 1
162 340 1
162 352 1
162 355 1
162 369 1
162 380 1
162 381 1
162 385 1
162 389 1
162 390 1
162 392 1
162 398 1
162 404 1
162 406 1
162 408 1
162 413 1
162 424 1
162 427 1
162 432 1
162 438 1
162 442 1
162 444 1
162 445 1
162 452 1
162 456 1
162 457 1
162 459 1
162 469 1
162 475 1
162 479 1
162 482 1
162 488 1
162 492 1
162 495 1
163 3 1
163 10 1
163 13 1
163 17 1
163 19 1
163 20 1
163 21 1
163 22 1
163 29 1
163 30 1
163 34 1
163 38 1
163 44 1
163 49 1
163 66 1
163 67 1
163 70 1
163 73 1
163 76 1
163 80 1
163 89 1
163 95 1
163 97 1
163 98 1
163 108 1
163 110 1
163 111 1
163 120 1
163 122 1
163 124 1
163 127 1
163 131 1
163 135 1
163 145 1
163 151 1
163 152 1
163 154 1
163 155 1
163 156 1
163 159 1
163 162 1
163 168 1
163 171 1
163 180 1
163 181 1
163 189 1
163 194 1
163 195 1
163 198 1
163 199 1
163 206 1
163 221 1
163 222 1
163 224 1
163 234 1
163 235 1
163 240 1
163 245 1
163 250 1
163 256 1
163 263 1
163 268 1
163 270 1
163 271 1
163 279 1
163 280 1
163 284 1
163 286 1
163 291 1
163 294 1
163 300 1
163 304 1
163 306 1
163 311 1
163 314 1
163 316 1
163 322 1
163 336 1
163 340 1
163 341 1
163 368 1
163 369 1
163 372 1
163 376 1
163 383 1
163 386 1
163 387 1
163 402 1
163 405 1
163 416 1
163 429 1
163 450 1
163 455 1
163 460 1
163 463 1
163 465 1
163 467 1
163 468 1
163 480 1
163 492 1
163 498 1
164 21 1
164 28 1
164 30 1
164 47 1
164 50 1
164 59 1
164 75 1
164 76 1
164 79 1
164 83 1
164 86 1
164 90 1
164 92 1
164 95 1
164 97 1
164 100 1
164 103 1
164 104 1
164 109 1
164 111 1
164 113 1
164 122 1
164 124 1
164 142 1
164 146 1
164 154 1
164 156 1
164 180 1
164 184 1
164 187 1
164 192 1
164 193 1
164 196 1
164 197 1
164 199 1
164 212 1
164 215 1
164 220 1
164 221 1
164 222 1
164 226 1
164 233 1
164 241 1
164 243 1
164 246 1
164 250 1
164 252 1
164 254 1
164 255 1
164 256 1
164 257 1
164 258 1
164 262 1
164 270 1
164 271 1
164 274 1
164 275 1
164 291 1
164 301 1
164 305 1
164 310 1
164 312 1
164 315 1
164 322 1
164 326 1
164 340 1
164 344 1
164 348 1
164 352 1
164 364 1
164 368 1
164 376 1
164 377 1
164 385 1
164 392 1
164 393 1
164 396 1
164 400 1
164 403 1
164 415 1
164 426 1
164 428 1
164 430 1
164 445 1
164 446 1
164 465 1
164 468 1
164 477 1
164 490 1
164 492 1
164 494 1
165 1 1
165 2 1
165 3 1
165 6 1
165 11 1
165 14 1
165 17 1
165 27 1
165 34 1
165 42 1
165 50 1
165 62 1
165 69 1
165 72 1
165 77 1
165 80 1
165 88 1
165 89 1
165 100 1
165 101 1
165 102 1
165 112 1
165 113 1
165 120 1
165 130 1
165 131 1
165 140 1
165 146 1
165 147 1
165 148 1
165 154 1
165 156 1
165 161 1
165 170 1
165 171 1
165 173 1
165 174 1
165 182 1
165 187 1
165 188 1
165 189 1
165 190 1
165 193 1
165 194 1
165 198 1
165 201 1
165 207 1
165 212 1
165 213 1
165 214 1
165 216 1
165 220 1
165 232 1
165 239 1
165 247 1
165 253 1
165 260 1
165 261 1
165 262 1
165 265 1
165 266 1
165 267 1
165 269 1
165 272 1
165 276 1
165 285 1
165 295 1
165 301 1
165 302 1
165 306 1
165 308 1
165 319 1
165 322 1
165 334 1
165 335 1
165 339 1
165 340 1
165 341 1
165 351 1
165 353 1
165 357 1
165 368 1
165 369 1
165 370 1
165 378 1
165 379 1
165 384 1
165 387 1
165 398 1
165 399 1
165 402 1
165 403 1
165 410 1
165 421 1
165 425 1
165 435 1
165 437 1
165 439 1
165 449 1
165 455 1
165 457 1
165 462 1
165 466 1
165 468 1
165 469 1
165 473 1
165 475 1
165 482 1
165 495 1
166 2 1
166 5 1
166 6 1
166 11 1
166 12 1
166 22 1
166 26 1
166 27 1
166 29 1
166 33 1
166 39 1
166 40 1
166 41 1
166 69 1
166 70 1
166 76 1
166 92 1
166 93 1
166 95 1
166 100 1
166 103 1
166 104 1
166 123 1
166 125 1
166 129 1
166 132 1
166 139 1
166 143 1
166 150 1
166 153 1
166 157 1
166 171 1
166 176 1
166 181 1
166 184 1
166 185 1
166 187 1
166 189 1
166 198 1
166 206 1
166 207 1
166 210 1
166 214 1
166 218 1
166 220 1
166 223 1
166 228 1
166 231 1
166 234 1
166 235 1
166 239 1
166 240 1
166 242 1
166 244 1
166 251 1
166 253 1
166 254 1
166 259 1
166 260 1
166 265 1
166 276 1
166 278 1
166 282 1
166 283 1
166 284 1
166 290 1
166 295 1
166 297 1
166 298 1
166 301 1
166 302 1
166 304 1
166 305 1
166 314 1
166 318 1
166 323 1
166 326 1
166 328 1
166 335 1
166 337 1
166 338 1
166 339 1
166 340 1
166 347 1
166 352 1
166 354 1
166 356 1
166 367 1
166 368 1
166 371 1
166 379 1
166 380 1
166 386 1
166 388 1
166 405 1
166 413 1
166 418 1
166 419 1
166 421 1
166 430 1
166 434 1
166 443 1
166 445 1
166 446 1
166 452 1
166 458 1
166 460 1
166 466 1
166 469 1
166 481 1
166 487 1
166 498 1
167 3 1
167 4 1
167 6 1
167 9 1
167 15 1
167 16 1
167 19 1
167 23 1
167 26 1
167 28 1
167 31 1
167 41 1
167 44 1
167 47 1
167 50 1
167 57 1
167 61 1
167 67 1
167 74 1
167 75 1
167 77 1
167 80 1
167 92 1
167 96 1
167 100 1
167 103 1
167 106 1
167 112 1
167 113 1
167 114 1
167 116 1
167 119 1
167 120 1
167 121 1
167 123 1
167 137 1
167 138 1
167 139 1
167 148 1
167 179 1
167 188 1
167 199 1
167 203 1
167 206 1
167 207 1
167 208 1
167 220 1
167 230 1
167 232 1
167 233 1
167 241 1
167 242 1
167 252 1
167 255 1
167 256 1
167 259 1
167 266 1
167 268 1
167 274 1
167 277 1
167 278 1
167 282 1
167 285 1
167 287 1
167 289 1
167 291 1
167 293 1
167 303 1
167 304 1
167 305 1
167 310 1
167 312 1
167 321 1
167 330 1
167 341 1
167 343 1
167 347 1
167 350 1
167 377 1
167 378 1
167 382 1
167 384 1
167 390 1
167 397 1
167 402 1
167 403 1
167 413 1
167 415 1
167 422 1
167 426 1
167 428 1
167 440 1
167 441 1
167 444 1
167 449 1
167 455 1
167 458 1
167 463 1
167 467 1
167 472 1
167 473 1
167 479 1
167 482 1
167 483 1
167 488 1
167 498 1
168 4 1
168 5 1
168 16 1
168 23 1
168 25 1
168 27 1
168 33 1
168 48 1
168 65 1
168 70 1
168 71 1
168 79 1
168 82 1
168 83 1
168 93 1
168 95 1
168 101 1
168 105 1
168 126 1
168 130 1
168 133 1
168 139 1
168 151 1
168 152 1
168 159 1
168 160 1
168 163 1
168 180 1
168 182 1
168 189 1
168 190 1
168 208 1
168 209 1
168 211 1
168 223 1
168 224 1
168 228 1
168 229 1
168 232 1
168 243 1
168 251 1
168 256 1
168 259 1
168 268 1
168 270 1
168 283 1
168 284 1
168 291 1
168 292 1
168 293 1
168 297 1
168 310 1
168 317 1
168 318 1
168 321 1
168 325 1
168 329 1
168 337 1
168 338 1
168 342 1
168 344 1
168 360 1
168 379 1
168 383 1
168 387 1
168 392 1
168 394 1
168 399 1
168 401 1
168 408 1
168 409 1
168 416 1
168 425 1
168 426 1
168 436 1
168 440 1
168 442 1
168 445 1
168 449 1
168 450 1
168 452 1
168 453 1
168 463 1
168 476 1
168 479 1
168 480 1
168 483 1
168 494 1
168 497 1
169 7 1
169 15 1
169 23 1
169 29 1
169 30 1
169 35 1
169 36 1
169 49 1
169 53 1
169 58 1
169 61 1
169 65 1
169 66 1
169 76 1
169 80 1
169 85 1
169 86 1
169 94 1
169 98 1
169 100 1
169 105 1
169 106 1
169 115 1
169 116 1
169 120 1
169 121 1
169 123 1
169 124 1
169 128 1
169 130 1
169 131 1
169 139 1
169 144 1
169 149 1
169 156 1
169 157 1
169 158 1
169 160 1
169 170 1
169 179 1
169 182 1
169 194 1
169 202 1
169 205 1
169 206 1
169 212 1
169 213 1
169 215 1
169 216 1
169 218 1
169 221 1
169 224 1
169 225 1
169 226 1
169 231 1
169 232 1
169 233 1
169 235 1
169 246 1
169 259 1
169 260 1
169 275 1
169 281 1
169 282 1
169 283 1
169 287 1
169 291 1
169 293 1
169 297 1
169 298 1
169 299 1
169 302 1
169 308 1
169 309 1
169 311 1
169 313 1
169 318 1
169 323 1
169 333 1
169 338 1
169 340 1
169 353 1
169 354 1
169 357 1
169 359 1
169 366 1
169 368 1
169 369 1
169 371 1
169 373 1
169 374 1
169 376 1
169 377 1
169 388 1
169 395 1
169 397 1
169 399 1
169 400 1
169 402 1
169 403 1
169 406 1
169 407 1
169 412 1
169 415 1
169 422 1
169 424 1
169 428 1
169 429 1
169 431 1
169 433 1
169 435 1
169 437 1
169 444 1
169 445 1
169 466 1
169 469 1
169 472 1
169 478 1
169 483 1
169 485 1
169 491 1
169 492 1
169 497 1
169 500 1
170 1 1
170 6 1
170 16 1
170 25 1
170 28 1
170 37 1
170 44 1
170 45 1
170 49 1
170 52 1
170 56 1
170 64 1
170 68 1
170 74 1
170 83 1
170 89 1
170 94 1
170 95 1
170 97 1
170 104 1
170 119 1
170 121 1
170 125 1
170 129 1
170 133 1
170 138 1
170 142 1
170 143 1
170 144 1
170 155 1
170 156 1
170 162 1
170 165 1
170 169 1
170 174 1
170 178 1
170 184 1
170 191 1
170 192 1
170 198 1
170 204 1
170 211 1
170 214 1
170 222 1
170 223 1
170 226 1
170 232 1
170 235 1
170 243 1
170 245 1
170 246 1
170 252 1
170 257 1
170 262 1
170 266 1
170 267 1
170 275 1
170 278 1
170 279 1
170 286 1
170 293 1
170 304 1
170 305 1
170 309 1
170 312 1
170 313 1
170 314 1
170 315 1
170 316 1
170 321 1
170 324 1
170 330 1
170 342 1
170 345 1
170 348 1
170 357 1
170 360 1
170 361 1
170 367 1
170 371 1
170 381 1
170 382 1
170 383 1
170 384 1
170 386 1
170 397 1
170 402 1
170 407 1
170 417 1
170 420 1
170 425 1
170 434 1
170 440 1
170 444 1
170 454 1
170 456 1
170 460 1
170 461 1
170 462 1
170 463 1
170 464 1
170 466 1
170 488 1
170 494 1
171 3 1
171 7 1
171 18 1
171 23 1
171 27 1
171 28 1
171 30 1
171 31 1
171 40 1
171 46 1
171 47 1
171 53 1
171 55 1
171 57 1
171 58 1
171 61 1
171 63 1
171 68 1
171 70 1
171 73 1
171 79 1
171 81 1
171 84 1
171 86 1
171 87 1
171 92 1
171 94 1
171 95 1
171 110 1
171 123 1
171 131 1
171 134 1
171 141 1
171 156 1
171 159 1
171 163 1
171 165 1
171 166 1
171 180 1
171 183 1
171 194 1
171 208 1
171 223 1
171 230 1
171 233 1
171 243 1
171 248 1
171 253 1
171 258 1
171 267 1
171 268 1
171 270 1
171 274 1
171 276 1
171 279 1
171 283 1
171 294 1
171 295 1
171 298 1
171 305 1
171 306 1
171 310 1
171 312 1
171 313 1
171 315 1
171 334 1
171 335 1
171 342 1
171 344 1
171 347 1
171 349 1
171 352 1
171 355 1
171 357 1
171 361 1
171 368 1
171 374 1
171 379 1
171 382 1
171 393 1
171 394 1
171 396 1
171 403 1
171 409 1
171 412 1
171 413 1
171 421 1
171 423 1
171 426 1
171 437 1
171 440 1
171 443 1
171 446 1
171 454 1
171 460 1
171 465 1
171 473 1
171 479 1
171 499 1
172 13 1
172 16 1
172 17 1
172 21 1
172 23 1
172 26 1
172 27 1
172 29 1
172 41 1
172 43 1
172 51 1
172 52 1
172 54 1
172 56 1
172 61 1
172 63 1
172 64 1
172 73 1
172 81 1
172 90 1
172 92 1
172 93 1
172 97 1
172 100 1
172 104 1
172 108 1
172 114 1
172 124 1
172 132 1
172 134 1
172 140 1
172 141 1
172 153 1
172 162 1
172 174 1
172 182 1
172 185 1
172 186 1
172 190 1
172 197 1
172 204 1
172 206 1
172 211 1
172 219 1
172 221 1
172 235 1
172 239 1
172 248 1
172 251 1
172 253 1
172 274 1
172 277 1
172 281 1
172 282 1
172 283 1
172 298 1
172 310 1
172 313 1
172 320 1
172 324 1
172 330 1
172 333 1
172 334 1
172 339 1
172 343 1
172 345 1
172 346 1
172 347 1
172 349 1
172 352 1
172 363 1
172 385 1
172 388 1
172 389 1
172 390 1
172 398 1
172 401 1
172 403 1
172 419 1
172 429 1
172 431 1
172 433 1
172 440 1
172 450 1
172 455 1
172 458 1
172 461 1
172 466 1
172 467 1
172 474 1
172 478 1
172 481 1
172 482 1
172 486 1
172 491 1
172 493 1
172 499 1
173 2 1
173 12 1
173 21 1
173 24 1
173 27 1
173 30 1
173 32 1
173 36 1
173 45 1
173 47 1
173 48 1
173 50 1
173 57 1
173 59 1
173 60 1
173 64 1
173 67 1
173 72 1
173 75 1
173 85 1
173 87 1
173 92 1
173 94 1
173 102 1
173 112 1
173 116 1
173 117 1
173 118 1
173 123 1
173 124 1
173 127 1
173 132 1
173 140 1
173 142 1
173 148 1
173 152 1
173 154 1
173 165 1
173 174 1
173 192 1
173 199 1
173 200 1
173 204 1
173 215 1
173 218 1
173 254 1
173 269 1
173 273 1
173 281 1
173 284 1
173 287 1
173 295 1
173 297 1
173 298 1
173 310 1
173 321 1
173 324 1
173 329 1
173 335 1
173 337 1
173 338 1
173 339 1
173 346 1
173 347 1
173 349 1
173 352 1
173 359 1
173 360 1
173 365 1
173 366 1
173 367 1
173 370 1
173 375 1
173 376 1
173 383 1
173 384 1
173 387 1
173 404 1
173 411 1
173 412 1
173 426 1
173 431 1
173 433 1
173 435 1
173 437 1
173 439 1
173 440 1
173 441 1
173 443 1
173 449 1
173 453 1
173 456 1
173 460 1
173 466 1
173 476 1
173 478 1
173 479 1
173 490 1
173 491 1
173 492 1
174 13 1
174 14 1
174 17 1
174 21 1
174 25 1
174 27 1
174 28 1
174 35 1
174 42 1
174 45 1
174 53 1
174 56 1
174 72 1
174 78 1
174 82 1
174 84 1
174 89 1
174 98 1
174 102 1
174 104 1
174 110 1
174 116 1
174 123 1
174 132 1
174 148 1
174 150 1
174 154 1
174 157 1
174 158 1
174 165 1
174 170 1
174 172 1
174 173 1
174 178 1
174 182 1
174 185 1
174 195 1
174 196 1
174 207 1
174 213 1
174 215 1
174 216 1
174 220 1
174 228 1
174 249 1
174 258 1
174 270 1
174 275 1
174 278 1
174 283 1
174 285 1
174 286 1
174 295 1
174 300 1
174 302 1
174 314 1
174 315 1
174 317 1
174 322 1
174 323 1
174 324 1
174 346 1
174 350 1
174 362 1
174 365 1
174 389 1
174 391 1
174 401 1
174 405 1
174 412 1
174 414 1
174 416 1
174 425 1
174 426 1
174 427 1
174 439 1
174 449 1
174 469 1
174 472 1
174 474 1
174 478 1
174 492 1
174 497 1
174 498 1
175 5 1
175 27 1
175 28 1
175 31 1
175 45 1
175 54 1
175 73 1
175 77 1
175 78 1
175 81 1
175 86 1
175 92 1
175 94 1
175 100 1
175 101 1
175 112 1
175 117 1
175 123 1
175 125 1
175 129 1
175 140 1
175 143 1
175 144 1
175 149 1
175 153 1
175 154 1
175 155 1
175 179 1
175 184 1
175 185 1
175 187 1
175 188 1
175 196 1
175 199 1
175 200 1
175 206 1
175 213 1
175 218 1
175 223 1
175 226 1
175 230 1
175 236 1
175 239 1
175 241 1
175 243 1
175 244 1
175 245 1
175 257 1
175 263 1
175 264 1
175 274 1
175 275 1
175 277 1
175 279 1
175 280 1
175 296 1
175 299 1
175 304 1
175 308 1
175 310 1
175 320 1
175 322 1
175 325 1
175 330 1
175 336 1
175 339 1
175 341 1
175 345 1
175 366 1
175 370 1
175 371 1
175 379 1
175 382 1
175 394 1
175 398 1
175 402 1
175 409 1
175 412 1
175 413 1
175 419 1
175 432 1
175 442 1
175 451 1
175 464 1
175 466 1
175 476 1
175 477 1
175 483 1
175 486 1
175 489 1
175 495 1
175 500 1
176 2 1
176 4 1
176 14 1
176 19 1
176 24 1
176 31 1
176 35 1
176 41 1
176 46 1
176 49 1
176 57 1
176 62 1
176 65 1
176 69 1
176 73 1
176 75 1
176 76 1
176 77 1
176 79 1
176 82 1
176 89 1
176 91 1
176 95 1
176 97 1
176 99 1
176 104 1
176 109 1
176 111 1
176 112 1
176 118 1
176 119 1
176 131 1
176 134 1
176 135 1
176 138 1
176 166 1
176 177 1
176 178 1
176 182 1
176 188 1
176 189 1
176 193 1
176 202 1
176 221 1
176 224 1
176 228 1
176 239 1
176 241 1
176 243 1
176 246 1
176 247 1
176 260 1
176 263 1
176 268 1
176 274 1
176 276 1
176 277 1
176 283 1
176 285 1
176 291 1
176 298 1
176 304 1
176 305 1
176 310 1
176 318 1
176 319 1
176 324 1
176 325 1
176 326 1
176 327 1
176 330 1
176 336 1
176 342 1
176 362 1
176 364 1
176 367 1
176 373 1
176 376 1
176 377 1
176 378 1
176 382 1
176 385 1
176 386 1
176 387 1
176 390 1
176 391 1
176 393 1
176 401 1
176 405 1
176 411 1
176 418 1
176 420 1
176 421 1
176 425 1
176 426 1
176 429 1
176 430 1
176 431 1
176 432 1
176 440 1
176 445 1
176 447 1
176 449 1
176 454 1
176 455 1
176 459 1
176 461 1
176 464 1
176 467 1
176 468 1
176 469 1
176 470 1
176 472 1
176 486 1
176 490 1
176 491 1
176 492 1
176 494 1
176 496 1
176 497 1
177 4 1
177 8 1
177 10 1
177 18 1
177 19 1
177 20 1
177 23 1
177 25 1
177 35 1
177 39 1
177 41 1
177 48 1
177 54 1
177 74 1
177 75 1
177 80 1
177 92 1
177 93 1
177 94 1
177 98 1
177 102 1
177 103 1
177 105 1
177 106 1
177 116 1
177 118 1
177 120 1
177 138 1
177 140 1
177 143 1
177 153 1
177 162 1
177 176 1
177 179 1
177 186 1
177 200 1
177 212 1
177 217 1
177 218 1
177 223 1
177 225 1
177 226 1
177 231 1
177 238 1
177 241 1
177 246 1
177 255 1
177 256 1
177 262 1
177 263 1
177 280 1
177 290 1
177 306 1
177 307 1
177 315 1
177 330 1
177 333 1
177 340 1
177 341 1
177 343 1
177 350 1
177 353 1
177 357 1
177 365 1
177 366 1
177 377 1
177 386 1
177 398 1
177 401 1
177 403 1
177 404 1
177 409 1
177 426 1
177 431 1
177 437 1
177 439 1
177 444 1
177 452 1
177 459 1
177 462 1
177 464 1
177 466 1
177 475 1
177 482 1
178 9 1
178 16 1
178 26 1
178 27 1
178 38 1
178 48 1
178 69 1
178 71 1
178 72 1
178 84 1
178 93 1
178 94 1
178 102 1
178 106 1
178 108 1
178 112 1
178 117 1
178 138 1
178 150 1
178 154 1
178 170 1
178 174 1
178 176 1
178 179 1
178 182 1
178 184 1
178 186 1
178 187 1
178 196 1
178 199 1
178 200 1
178 217 1
178 220 1
178 223 1
178 228 1
178 233 1
178 238 1
178 252 1
178 253 1
178 265 1
178 268 1
178 284 1
178 287 1
178 291 1
178 297 1
178 298 1
178 300 1
178 301 1
178 302 1
178 306 1
178 308 1
178 311 1
178 312 1
178 314 1
178 315 1
178 324 1
178 325 1
178 330 1
178 348 1
178 349 1
178 353 1
178 361 1
178 366 1
178 369 1
178 372 1
178 376 1
178 377 1
178 380 1
178 385 1
178 386 1
178 395 1
178 398 1
178 404 1
178 423 1
178 424 1
178 432 1
178 440 1
178 445 1
178 447 1
178 448 1
178 457 1
178 458 1
178 462 1
178 465 1
178 466 1
178 482 1
178 490 1
178 495 1
179 5 1
179 8 1
179 18 1
179 19 1
179 20 1
179 21 1
179 22 1
179 30 1
179 34 1
179 40 1
179 49 1
179 60 1
179 63 1
179 69 1
179 70 1
179 71 1
179 80 1
179 85 1
179 86 1
179 91 1
179 131 1
179 132 1
179 145 1
179 153 1
179 154 1
179 159 1
179 167 1
179 169 1
179 175 1
179 177 1
179 178 1
179 180 1
179 182 1
179 184 1
179 189 1
179 193 1
179 196 1
179 198 1
179 200 1
179 202 1
179 214 1
179 218 1
179 219 1
179 226 1
179 229 1
179 235 1
179 239 1
179 241 1
179 245 1
179 251 1
179 252 1
179 261 1
179 262 1
179 264 1
179 275 1
179 276 1
179 278 1
179 280 1
179 284 1
179 288 1
179 293 1
179 294 1
179 301 1
179 308 1
179 312 1
179 315 1
179 318 1
179 321 1
179 322 1
179 324 1
179 326 1
179 337 1
179 340 1
179 342 1
179 349 1
179 357 1
179 369 1
179 377 1
179 384 1
179 387 1
179 390 1
179 393 1
179 394 1
179 403 1
179 408 1
179 411 1
179 412 1
179 415 1
179 417 1
179 420 1
179 426 1
179 443 1
179 445 1
179 448 1
179 453 1
179 456 1
179 459 1
179 460 1
179 476 1
179 483 1
179 486 1
179 497 1
180 4 1
180 6 1
180 9 1
180 13 1
180 15 1
180 21 1
180 22 1
180 23 1
180 25 1
180 26 1
180 33 1
180 37 1
180 40 1
180 43 1
180 44 1
180 45 1
180 46 1
180 51 1
180 57 1
180 59 1
180 70 1
180 71 1
180 74 1
180 75 1
180 78 1
180 79 1
180 83 1
180 84 1
180 86 1
180 88 1
180 89 1
180 90 1
180 91 1
180 95 1
180 103 1
180 104 1
180 105 1
180 114 1
180 121 1
180 129 1
180 135 1
180 138 1
180 144 1
180 149 1
180 150 1
180 152 1
180 163 1
180 164 1
180 168 1
180 171 1
180 179 1
180 182 1
180 183 1
180 192 1
180 195 1
180 204 1
180 209 1
180 216 1
180 218 1
180 220 1
180 228 1
180 229 1
180 232 1
180 233 1
180 240 1
180 244 1
180 245 1
180 253 1
180 261 1
180 281 1
180 284 1
180 292 1
180 311 1
180 315 1
180 316 1
180 317 1
180 320 1
180 323 1
180 325 1
180 326 1
180 327 1
180 336 1
180 343 1
180 350 1
180 355 1
180 364 1
180 365 1
180 373 1
180 380 1
180 402 1
180 407 1
180 415 1
180 424 1
180 429 1
180 434 1
180 436 1
180 441 1
180 446 1
180 450 1
180 460 1
180 461 1
180 475 1
180 479 1
180 488 1
180 489 1
180 492 1
180 496 1
181 8 1
181 10 1
181 12 1
181 15 1
181 22 1
181 26 1
181 27 1
181 28 1
181 39 1
181 45 1
181 47 1
181 48 1
181 53 1
181 62 1
181 63 1
181 66 1
181 67 1
181 77 1
181 95 1
181 105 1
181 108 1
181 112 1
181 113 1
181 118 1
181 120 1
181 123 1
181 128 1
181 139 1
181 143 1
181 151 1
181 152 1
181 157 1
181 158 1
181 162 1
181 163 1
181 166 1
181 182 1
181 188 1
181 192 1
181 201 1
181 205 1
181 207 1
181 220 1
181 223 1
181 226 1
181 229 1
181 247 1
181 249 1
181 250 1
181 252 1
181 255 1
181 259 1
181 264 1
181 267 1
181 271 1
181 275 1
181 288 1
181 289 1
181 294 1
181 297 1
181 312 1
181 316 1
181 329 1
181 339 1
181 340 1
181 342 1
181 343 1
181 356 1
181 363 1
181 392 1
181 398 1
181 400 1
181 402 1
181 404 1
181 407 1
181 409 1
181 411 1
181 418 1
181 419 1
181 423 1
181 424 1
181 426 1
181 429 1
181 437 1
181 447 1
181 457 1
181 460 1
181 461 1
181 469 1
181 470 1
181 478 1
181 492 1
182 1 1
182 6 1
182 10 1
182 14 1
182 15 1
182 19 1
182 21 1
182 35 1
182 45 1
182 46 1
182 49 1
182 60 1
182 65 1
182 70 1
182 75 1
182 97 1
182 127 1
182 133 1
182 134 1
182 137 1
182 140 1
182 144 1
182 148 1
182 149 1
182 150 1
182 153 1
182 155 1
182 157 1
182 162 1
182 165 1
182 168 1
182 169 1
182 172 1
182 174 1
182 176 1
182 178 1
182 179 1
182 180 1
182 181 1
182 185 1
182 191 1
182 193 1
182 202 1
182 211 1
182 214 1
182 223 1
182 224 1
182 235 1
182 237 1
182 243 1
182 253 1
182 254 1
182 260 1
182 264 1
182 265 1
182 267 1
182 271 1
182 272 1
182 273 1
182 283 1
182 285 1
182 288 1
182 292 1
182 293 1
182 296 1
182 298 1
182 309 1
182 310 1
182 311 1
182 312 1
182 315 1
182 320 1
182 323 1
182 324 1
182 329 1
182 332 1
182 333 1
182 335 1
182 338 1
182 340 1
182 346 1
182 350 1
182 353 1
182 368 1
182 371 1
182 373 1
182 376 1
182 390 1
182 393 1
182 408 1
182 410 1
182 417 1
182 420 1
182 426 1
182 429 1
182 430 1
182 435 1
182 437 1
182 444 1
182 445 1
182 453 1
182 458 1
182 462 1
182 466 1
182 473 1
182 475 1
182 480 1
182 481 1
182 485 1
182 486 1
182 494 1
183 5 1
183 10 1
183 13 1
183 18 1
183 19 1
183 32 1
183 43 1
183 48 1
183 52 1
183 56 1
183 71 1
183 74 1
183 78 1
183 82 1
183 88 1
183 91 1
183 92 1
183 94 1
183 104 1
183 110 1
183 117 1
183 124 1
183 127 1
183 130 1
183 142 1
183 146 1
183 149 1
183 151 1
183 154 1
183 159 1
183 171 1
183 180 1
183 186 1
183 196 1
183 202 1
183 203 1
183 206 1
183 224 1
183 226 1
183 227 1
183 230 1
183 232 1
183 233 1
183 234 1
183 235 1
183 248 1
183 249 1
183 255 1
183 264 1
183 267 1
183 273 1
183 277 1
183 283 1
183 292 1
183 308 1
183 309 1
183 318 1
183 321 1
183 328 1
183 331 1
183 332 1
183 342 1
183 347 1
183 350 1
183 361 1
183 362 1
183 370 1
183 374 1
183 375 1
183 376 1
183 378 1
183 388 1
183 394 1
183 402 1
183 404 1
183 405 1
183 415 1
183 416 1
183 418 1
183 419 1
183 422 1
183 426 1
183 428 1
183 430 1
183 431 1
183 439 1
183 446 1
183 452 1
183 467 1
183 474 1
183 476 1
183 481 1
183 485 1
183 488 1
183 494 1
183 496 1
183 499 1
184 11 1
184 29 1
184 46 1
184 52 1
184 54 1
184 55 1
184 57 1
184 61 1
184 64 1
184 70 1
184 71 1
184 74 1
184 76 1
184 88 1
184 93 1
184 101 1
184 105 1
184 115 1
184 124 1
184 125 1
184 126 1
184 133 1
184 134 1
184 138 1
184 149 1
184 152 1
184 160 1
184 161 1
184 164 1
184 166 1
184 170 1
184 175 1
184 178 1
184 179 1
184 194 1
184 207 1
184 209 1
184 210 1
184 228 1
184 230 1
184 232 1
184 235 1
184 241 1
184 249 1
184 258 1
184 265 1
184 268 1
184 269 1
184 276 1
184 281 1
184 294 1
184 295 1
184 306 1
184 314 1
184 323 1
184 328 1
184 330 1
184 336 1
184 344 1
184 349 1
184 352 1
184 355 1
184 356 1
184 357 1
184 364 1
184 376 1
184 396 1
184 403 1
184 411 1
184 430 1
184 456 1
184 461 1
184 470 1
184 471 1
184 474 1
184 476 1
184 492 1
184 499 1
184 500 1
185 1 1
185 10 1
185 19 1
185 25 1
185 30 1
185 33 1
185 34 1
185 36 1
185 37 1
185 43 1
185 48 1
185 54 1
185 65 1
185 66 1
185 69 1
185 78 1
185 82 1
185 84 1
185 87 1
185 93 1
185 96 1
185 97 1
185 105 1
185 112 1
185 118 1
185 123 1
185 126 1
185 133 1
185 134 1
185 141 1
185 144 1
185 145 1
185 153 1
185 154 1
185 160 1
185 161 1
185 166 1
185 172 1
185 174 1
185 175 1
185 182 1
185 192 1
185 194 1
185 195 1
185 198 1
185 199 1
185 209 1
185 210 1
185 221 1
185 222 1
185 226 1
185 233 1
185 240 1
185 247 1
185 250 1
185 252 1
185 260 1
185 262 1
185 263 1
185 268 1
185 269 1
185 273 1
185 275 1
185 286 1
185 292 1
185 302 1
185 308 1
185 309 1
185 314 1
185 316 1
185 344 1
185 346 1
185 352 1
185 360 1
185 361 1
185 370 1
185 373 1
185 377 1
185 381 1
185 382 1
185 383 1
185 387 1
185 402 1
185 403 1
185 416 1
185 419 1
185 423 1
185 424 1
185 431 1
185 432 1
185 435 1
185 436 1
185 444 1
185 459 1
185 465 1
185 475 1
185 476 1
185 479 1
185 480 1
185 493 1
185 494 1
185 495 1
186 2 1
186 4 1
186 12 1
186 21 1
186 24 1
186 26 1
186 36 1
186 47 1
186 49 1
186 52 1
186 54 1
186 57 1
186 59 1
186 65 1
186 67 1
186 81 1
186 92 1
186 93 1
186 94 1
186 95 1
186 98 1
186 99 1
186 106 1
186 109 1
186 110 1
186 111 1
186 115 1
186 128 1
186 129 1
186 132 1
186 134 1
186 140 1
186 145 1
186 147 1
186 149 1
186 157 1
186 160 1
186 172 1
186 177 1
186 178 1
186 183 1
186 193 1
186 200 1
186 204 1
186 207 1
186 221 1
186 222 1
186 229 1
186 237 1
186 243 1
186 247 1
186 255 1
186 259 1
186 261 1
186 263 1
186 264 1
186 267 1
186 282 1
186 283 1
186 286 1
186 288 1
186 293 1
186 308 1
186 314 1
186 315 1
186 319 1
186 336 1
186 338 1
186 345 1
186 361 1
186 365 1
186 368 1
186 372 1
186 385 1
186 386 1
186 399 1
186 403 1
186 413 1
186 416 1
186 426 1
186 429 1
186 433 1
186 449 1
186 452 1
186 457 1
186 459 1
186 460 1
186 462 1
186 466 1
186 472 1
186 476 1
186 479 1
186 483 1
186 486 1
186 487 1
186 495 1
186 496 1
187 9 1
187 12 1
187 13 1
187 22 1
187 26 1
187 28 1
187 35 1
187 47 1
187 50 1
187 55 1
187 65 1
187 67 1
187 68 1
187 70 1
187 73 1
187 78 1
187 100 1
187 104 1
187 106 1
187 110 1
187 115 1
187 121 1
187 124 1
187 125 1
187 130 1
187 132 1
187 136 1
187 143 1
187 146 1
187 158 1
187 159 1
187 164 1
187 165 1
187 166 1
187 175 1
187 178 1
187 190 1
187 197 1
187 198 1
187 202 1
187 203 1
187 205 1
187 211 1
187 213 1
187 215 1
187 220 1
187 232 1
187 239 1
187 240 1
187 242 1
187 244 1
187 248 1
187 258 1
187 260 1
187 261 1
187 273 1
187 276 1
187 281 1
187 284 1
187 292 1
187 293 1
187 297 1
187 298 1
187 317 1
187 330 1
187 347 1
187 353 1
187 360 1
187 373 1
187 381 1
187 385 1
187 404 1
187 407 1
187 416 1
187 419 1
187 420 1
187 423 1
187 427 1
187 428 1
187 430 1
187 442 1
187 447 1
187 451 1
187 452 1
187 455 1
187 457 1
187 458 1
187 460 1
187 462 1
187 463 1
187 469 1
187 474 1
187 476 1
187 477 1
187 481 1
187 484 1
187 485 1
187 487 1
187 490 1
187 491 1
187 494 1
187 495 1
188 3 1
188 5 1
188 13 1
188 18 1
188 27 1
188 30 1
188 34 1
188 41 1
188 46 1
188 47 1
188 59 1
188 62 1
188 73 1
188 78 1
188 79 1
188 82 1
188 87 1
188 89 1
188 98 1
188 106 1
188 110 1
188 111 1
188 114 1
188 116 1
188 124 1
188 132 1
188 133 1
188 140 1
188 141 1
188 142 1
188 144 1
188 148 1
188 150 1
188 154 1
188 165 1
188 167 1
188 175 1
188 176 1
188 181 1
188 191 1
188 203 1
188 204 1
188 206 1
188 215 1
188 216 1
188 219 1
188 223 1
188 225 1
188 235 1
188 245 1
188 248 1
188 251 1
188 252 1
188 254 1
188 266 1
188 281 1
188 303 1
188 311 1
188 316 1
188 318 1
188 320 1
188 325 1
188 331 1
188 333 1
188 338 1
188 343 1
188 346 1
188 348 1
188 349 1
188 352 1
188 363 1
188 366 1
188 371 1
188 374 1
188 385 1
188 399 1
188 406 1
188 411 1
188 413 1
188 417 1
188 431 1
188 435 1
188 437 1
188 443 1
188 455 1
188 456 1
188 464 1
188 469 1
188 470 1
188 478 1
188 480 1
188 490 1
188 493 1
188 495 1
188 499 1
189 1 1
189 7 1
189 14 1
189 17 1
189 24 1
189 35 1
189 41 1
189 62 1
189 66 1
189 72 1
189 77 1
189 86 1
189 88 1
189 98 1
189 101 1
189 105 1
189 113 1
189 114 1
189 122 1
189 124 1
189 132 1
189 134 1
189 138 1
189 154 1
189 155 1
189 156 1
189 160 1
189 163 1
189 165 1
189 166 1
189 168 1
189 176 1
189 179 1
189 211 1
189 221 1
189 227 1
189 234 1
189 240 1
189 242 1
189 256 1
189 263 1
189 269 1
189 275 1
189 278 1
189 282 1
189 286 1
189 290 1
189 303 1
189 309 1
189 319 1
189 326 1
189 334 1
189 338 1
189 340 1
189 346 1
189 347 1
189 348 1
189 350 1
189 356 1
189 358 1
189 367 1
189 369 1
189 370 1
189 371 1
189 373 1
189 376 1
189 387 1
189 388 1
189 389 1
189 391 1
189 403 1
189 404 1
189 407 1
189 410 1
189 415 1
189 420 1
189 421 1
189 424 1
189 426 1
189 431 1
189 434 1
189 436 1
189 440 1
189 441 1
189 442 1
189 447 1
189 458 1
189 461 1
189 465 1
189 467 1
189 474 1
189 483 1
189 484 1
189 487 1
189 491 1
189 492 1
189 497 1
189 500 1
190 2 1
190 26 1
190 28 1
190 32 1
190 35 1
190 36 1
190 39 1
190 40 1
190 42 1
190 55 1
190 56 1
190 64 1
190 65 1
190 74 1
190 78 1
190 79 1
190 82 1
190 94 1
190 105 1
190 106 1
190 107 1
190 110 1
190 111 1
190 112 1
190 116 1
190 117 1
190 121 1
190 127 1
190 128 1
190 141 1
190 142 1
190 144 1
190 145 1
190 148 1
190 149 1
190 157 1
190 165 1
190 168 1
190 172 1
190 187 1
190 194 1
190 195 1
190 204 1
190 210 1
190 222 1
190 227 1
190 229 1
190 234 1
190 239 1
190 246 1
190 249 1
190 252 1
190 258 1
190 259 1
190 260 1
190 261 1
190 263 1
190 265 1
190 270 1
190 272 1
190 280 1
190 283 1
190 290 1
190 296 1
190 297 1
190 298 1
190 304 1
190 317 1
190 319 1
190 330 1
190 345 1
190 349 1
190 360 1
190 370 1
190 373 1
190 374 1
190 375 1
190 387 1
190 404 1
190 405 1
190 407 1
190 410 1
190 412 1
190 414 1
190 415 1
190 419 1
190 430 1
190 432 1
190 434 1
190 438 1
190 441 1
190 443 1
190 456 1
190 458 1
190 462 1
190 465 1
190 477 1
190 479 1
190 480 1
190 488 1
190 489 1
190 498 1
191 5 1
191 8 1
191 20 1
191 26 1
191 29 1
191 38 1
191 47 1
191 51 1
191 59 1
191 61 1
191 70 1
191 72 1
191 73 1
191 74 1
191 76 1
191 79 1
191 82 1
191 88 1
191 94 1
191 100 1
191 109 1
191 110 1
191 119 1
191 131 1
191 133 1
191 143 1
191 150 1
191 158 1
191 170 1
191 182 1
191 188 1
191 193 1
191 199 1
191 202 1
191 206 1
191 209 1
191 210 1
191 211 1
191 217 1
191 224 1
191 234 1
191 245 1
191 253 1
191 259 1
191 262 1
191 263 1
191 264 1
191 266 1
191 276 1
191 280 1
191 283 1
191 285 1
191 288 1
191 289 1
191 296 1
191 300 1
191 307 1
191 312 1
191 317 1
191 321 1
191 323 1
191 327 1
191 331 1
191 335 1
191 336 1
191 338 1
191 345 1
191 346 1
191 350 1
191 354 1
191 358 1
191 369 1
191 370 1
191 371 1
191 373 1
191 382 1
191 383 1
191 395 1
191 400 1
191 408 1
191 424 1
191 426 1
191 428 1
191 441 1
191 443 1
191 447 1
191 452 1
191 454 1
191 459 1
191 463 1
191 467 1
191 470 1
191 471 1
191 481 1
191 482 1
191 494 1
192 11 1
192 19 1
192 22 1
192 25 1
192 27 1
192 30 1
192 35 1
192 36 1
192 42 1
192 45 1
192 48 1
192 50 1
192 55 1
192 63 1
192 65 1
192 80 1
192 85 1
192 98 1
192 99 1
192 101 1
192 104 1
192 109 1
192 120 1
192 126 1
192 128 1
192 133 1
192 137 1
192 142 1
192 143 1
192 144 1
192 158 1
192 159 1
192 164 1
192 170 1
192 173 1
192 180 1
192 181 1
192 185 1
192 198 1
192 200 1
192 201 1
192 203 1
192 205 1
192 213 1
192 217 1
192 218 1
192 225 1
192 229 1
192 234 1
192 239 1
192 249 1
192 251 1
192 256 1
192 260 1
192 265 1
192 275 1
192 279 1
192 283 1
192 285 1
192 287 1
192 288 1
192 289 1
192 292 1
192 294 1
192 295 1
192 302 1
192 305 1
192 310 1
192 326 1
192 333 1
192 343 1
192 352 1
192 355 1
192 359 1
192 361 1
192 362 1
192 364 1
192 367 1
192 372 1
192 380 1
192 398 1
192 413 1
192 417 1
192 423 1
192 426 1
192 435 1
192 436 1
192 438 1
192 445 1
192 454 1
192 456 1
192 480 1
192 487 1
192 488 1
192 500 1
193 14 1
193 20 1
193 29 1
193 35 1
193 37 1
193 43 1
193 45 1
193 49 1
193 51 1
193 52 1
193 54 1
193 60 1
193 73 1
193 75 1
193 77 1
193 78 1
193 81 1
193 84 1
193 94 1
193 98 1
193 101 1
193 107 1
193 113 1
193 116 1
193 123 1
193 125 1
193 128 1
193 132 1
193 143 1
193 144 1
193 147 1
193 148 1
193 150 1
193 155 1
193 159 1
193 164 1
193 165 1
193 176 1
193 179 1
193 182 1
193 186 1
193 191 1
193 199 1
193 212 1
193 214 1
193 217 1
193 224 1
193 227 1
193 234 1
193 245 1
193 246 1
193 249 1
193 252 1
193 254 1
193 259 1
193 271 1
193 273 1
193 284 1
193 288 1
193 293 1
193 297 1
193 303 1
193 304 1
193 309 1
193 316 1
193 326 1
193 332 1
193 337 1
193 338 1
193 347 1
193 357 1
193 358 1
193 361 1
193 364 1
193 365 1
193 377 1
193 388 1
193 391 1
193 403 1
193 406 1
193 407 1
193 414 1
193 418 1
193 419 1
193 421 1
193 423 1
193 427 1
193 428 1
193 433 1
193 438 1
193 447 1
193 452 1
193 454 1
193 458 1
193 461 1
193 474 1
193 482 1
193 494 1
193 500 1
194 1 1
194 10 1
194 11 1
194 19 1
194 26 1
194 29 1
194 36 1
194 51 1
194 54 1
194 67 1
194 68 1
194 69 1
194 79 1
194 80 1
194 83 1
194 86 1
194 89 1
194 93 1
194 96 1
194 98 1
194 102 1
194 114 1
194 118 1
194 128 1
194 131 1
194 132 1
194 139 1
194 143 1
194 150 1
194 151 1
194 158 1
194 162 1
194 163 1
194 165 1
194 169 1
194 171 1
194 184 1
194 185 1
194 190 1
194 195 1
194 198 1
194 201 1
194 203 1
194 207 1
194 209 1
194 248 1
194 258 1
194 262 1
194 267 1
194 270 1
194 277 1
194 280 1
194 284 1
194 297 1
194 303 1
194 315 1
194 322 1
194 325 1
194 327 1
194 329 1
194 335 1
194 341 1
194 353 1
194 355 1
194 363 1
194 364 1
194 365 1
194 374 1
194 384 1
194 387 1
194 388 1
194 404 1
194 405 1
194 407 1
194 409 1
194 413 1
194 420 1
194 428 1
194 431 1
194 436 1
194 439 1
194 446 1
194 448 1
194 450 1
194 459 1
194 461 1
194 471 1
194 473 1
194 478 1
194 488 1
194 493 1
194 494 1
194 498 1
195 3 1
195 4 1
195 11 1
195 22 1
195 30 1
195 32 1
195 44 1
195 45 1
195 48 1
195 50 1
195 52 1
195 53 1
195 54 1
195 64 1
195 75 1
195 77 1
195 83 1
195 84 1
195 104 1
195 107 1
195 123 1
195 131 1
195 137 1
195 147 1
195 150 1
195 163 1
195 174 1
195 180 1
195 185 1
195 190 1
195 194 1
195 196 1
195 197 1
195 198 1
195 204 1
195 206 1
195 210 1
195 214 1
195 217 1
195 218 1
195 220 1
195 231 1
195 238 1
195 243 1
195 247 1
195 248 1
195 250 1
195 253 1
195 259 1
195 270 1
195 271 1
195 289 1
195 295 1
195 298 1
195 305 1
195 311 1
195 317 1
195 322 1
195 327 1
195 337 1
195 339 1
195 342 1
195 356 1
195 359 1
195 362 1
195 365 1
195 369 1
195 384 1
195 385 1
195 387 1
195 388 1
195 393 1
195 397 1
195 403 1
195 404 1
195 406 1
195 411 1
195 412 1
195 420 1
195 424 1
195 429 1
195 434 1
195 438 1
195 445 1
195 455 1
195 459 1
195 461 1
195 462 1
195 468 1
195 474 1
195 477 1
195 481 1
195 485 1
195 489 1
195 492 1
195 496 1
195 497 1
195 498 1
195 500 1
196 6 1
196 7 1
196 8 1
196 9 1
196 15 1
196 19 1
196 23 1
196 37 1
196 47 1
196 54 1
196 56 1
196 60 1
196 71 1
196 76 1
196 90 1
196 91 1
196 93 1
196 97 1
196 98 1
196 103 1
196 107 1
196 108 1
196 109 1
196 115 1
196 119 1
196 122 1
196 127 1
196 130 1
196 131 1
196 132 1
196 134 1
196 135 1
196 136 1
196 141 1
196 144 1
196 151 1
196 155 1
196 156 1
196 158 1
196 159 1
196 164 1
196 174 1
196 175 1
196 178 1
196 179 1
196 183 1
196 195 1
196 202 1
196 219 1
196 224 1
196 225 1
196 227 1
196 241 1
196 243 1
196 246 1
196 254 1
196 256 1
196 258 1
196 264 1
196 266 1
196 269 1
196 285 1
196 298 1
196 300 1
196 304 1
196 307 1
196 317 1
196 322 1
196 323 1
196 332 1
196 333 1
196 340 1
196 342 1
196 346 1
196 352 1
196 353 1
196 358 1
196 364 1
196 392 1
196 394 1
196 397 1
196 398 1
196 399 1
196 401 1
196 402 1
196 411 1
196 418 1
196 421 1
196 424 1
196 425 1
196 432 1
196 436 1
196 439 1
196 442 1
196 451 1
196 453 1
196 454 1
196 459 1
196 464 1
196 480 1
196 481 1
196 484 1
196 490 1
196 494 1
196 497 1
196 499 1
196 500 1
197 7 1
197 11 1
197 12 1
197 25 1
197 36 1
197 51 1
197 53 1
197 60 1
197 65 1
197 82 1
197 83 1
197 86 1
197 89 1
197 95 1
197 97 1
197 100 1
197 102 1
197 103 1
197 106 1
197 117 1
197 118 1
197 119 1
197 122 1
197 124 1
197 128 1
197 139 1
197 142 1
197 148 1
197 152 1
197 155 1
197 156 1
197 157 1
197 164 1
197 172 1
197 187 1
197 195 1
197 200 1
197 202 1
197 215 1
197 216 1
197 232 1
197 233 1
197 234 1
197 246 1
197 255 1
197 257 1
197 263 1
197 264 1
197 272 1
197 278 1
197 279 1
197 290 1
197 307 1
197 309 1
197 313 1
197 318 1
197 319 1
197 324 1
197 329 1
197 331 1
197 334 1
197 344 1
197 351 1
197 354 1
197 368 1
197 369 1
197 373 1
197 386 1
197 393 1
197 402 1
197 411 1
197 412 1
197 428 1
197 429 1
197 430 1
197 433 1
197 437 1
197 456 1
197 457 1
197 459 1
197 460 1
197 462 1
197 464 1
197 469 1
197 476 1
197 481 1
197 487 1
197 491 1
198 8 1
198 10 1
198 11 1
198 38 1
198 40 1
198 44 1
198 52 1
198 55 1
198 56 1
198 57 1
198 61 1
198 66 1
198 71 1
198 80 1
198 94 1
198 100 1
198 102 1
198 103 1
198 104 1
198 106 1
198 115 1
198 123 1
198 125 1
198 126 1
198 133 1
198 150 1
198 151 1
198 155 1
198 157 1
198 159 1
198 162 1
198 163 1
198 165 1
198 166 1
198 170 1
198 179 1
198 185 1
198 187 1
198 192 1
198 194 1
198 195 1
198 207 1
198 213 1
198 217 1
198 226 1
198 228 1
198 232 1
198 236 1
198 251 1
198 262 1
198 263 1
198 273 1
198 276 1
198 278 1
198 281 1
198 284 1
198 288 1
198 290 1
198 303 1
198 304 1
198 305 1
198 313 1
198 317 1
198 320 1
198 325 1
198 328 1
198 338 1
198 340 1
198 352 1
198 353 1
198 360 1
198 369 1
198 373 1
198 379 1
198 385 1
198 387 1
198 388 1
198 423 1
198 424 1
198 426 1
198 431 1
198 432 1
198 433 1
198 437 1
198 447 1
198 458 1
198 477 1
198 479 1
198 483 1
198 484 1
198 486 1
198 498 1
198 499 1
199 2 1
199 3 1
199 12 1
199 18 1
199 22 1
199 23 1
199 32 1
199 43 1
199 45 1
199 51 1
199 52 1
199 53 1
199 67 1
199 68 1
199 69 1
199 70 1
199 74 1
199 79 1
199 80 1
199 91 1
199 99 1
199 102 1
199 106 1
199 109 1
199 116 1
199 119 1
199 121 1
199 128 1
199 132 1
199 133 1
199 139 1
199 147 1
199 149 1
199 162 1
199 163 1
199 164 1
199 167 1
199 173 1
199 175 1
199 178 1
199 185 1
199 191 1
199 193 1
199 206 1
199 208 1
199 213 1
199 215 1
199 220 1
199 225 1
199 226 1
199 235 1
199 240 1
199 252 1
199 255 1
199 257 1
199 272 1
199 289 1
199 295 1
199 298 1
199 307 1
199 310 1
199 328 1
199 332 1
199 335 1
199 340 1
199 343 1
199 359 1
199 360 1
199 363 1
199 364 1
199 373 1
199 375 1
199 376 1
199 380 1
199 385 1
199 398 1
199 399 1
199 400 1
199 404 1
199 407 1
199 411 1
199 415 1
199 422 1
199 430 1
199 440 1
199 442 1
199 443 1
199 448 1
199 449 1
199 451 1
199 454 1
199 458 1
199 473 1
199 475 1
199 488 1
199 491 1
199 492 1
199 499 1
200 6 1
200 7 1
200 10 1
200 13 1
200 15 1
200 25 1
200 26 1
200 36 1
200 42 1
200 43 1
200 45 1
200 48 1
200 52 1
200 54 1
200 61 1
200 72 1
200 73 1
200 77 1
200 80 1
200 86 1
200 87 1
200 90 1
200 94 1
200 100 1
200 117 1
200 129 1
200 139 1
200 140 1
200 145 1
200 155 1
200 156 1
200 173 1
200 175 1
200 177 1
200 178 1
200 179 1
200 186 1
200 192 1
200 197 1
200 213 1
200 215 1
200 224 1
200 225 1
200 228 1
200 234 1
200 237 1
200 240 1
200 241 1
200 246 1
200 247 1
200 255 1
200 256 1
200 258 1
200 261 1
200 266 1
200 275 1
200 277 1
200 280 1
200 282 1
200 284 1
200 292 1
200 297 1
200 299 1
200 303 1
200 306 1
200 308 1
200 311 1
200 313 1
200 315 1
200 317 1
200 318 1
200 323 1
200 327 1
200 328 1
200 339 1
200 342 1
200 350 1
200 352 1
200 353 1
200 354 1
200 359 1
200 361 1
200 373 1
200 374 1
200 378 1
200 379 1
200 380 1
200 381 1
200 383 1
200 391 1
200 394 1
200 401 1
200 402 1
200 403 1
200 404 1
200 406 1
200 425 1
200 431 1
200 432 1
200 435 1
200 438 1
200 442 1
200 454 1
200 468 1
200 470 1
200 472 1
200 474 1
200 480 1
200 484 1
200 485 1
200 487 1
200 489 1
200 490 1
200 493 1
201 5 1
201 6 1
201 16 1
201 17 1
201 33 1
201 34 1
201 36 1
201 53 1
201 59 1
201 62 1
201 67 1
201 68 1
201 72 1
201 80 1
201 81 1
201 87 1
201 91 1
201 92 1
201 111 1
201 116 1
201 117 1
201 122 1
201 123 1
201 126 1
201 132 1
201 135 1
201 141 1
201 147 1
201 148 1
201 150 1
201 155 1
201 159 1
201 162 1
201 165 1
201 181 1
201 192 1
201 194 1
201 204 1
201 212 1
201 218 1
201 224 1
201 232 1
201 243 1
201 250 1
201 260 1
201 262 1
201 263 1
201 267 1
201 270 1
201 271 1
201 290 1
201 296 1
201 302 1
201 305 1
201 307 1
201 319 1
201 326 1
201 331 1
201 336 1
201 337 1
201 341 1
201 342 1
201 350 1
201 354 1
201 366 1
201 367 1
201 373 1
201 376 1
201 381 1
201 389 1
201 391 1
201 397 1
201 399 1
201 406 1
201 415 1
201 418 1
201 420 1
201 430 1
201 438 1
201 441 1
201 446 1
201 452 1
201 455 1
201 456 1
201 457 1
201 461 1
201 463 1
201 473 1
201 479 1
201 480 1
201 482 1
201 483 1
201 486 1
201 492 1
202 3 1
202 4 1
202 9 1
202 13 1
202 18 1
202 26 1
202 32 1
202 48 1
202 53 1
202 59 1
202 71 1
202 74 1
202 83 1
202 96 1
202 97 1
202 98 1
202 108 1
202 113 1
202 115 1
202 116 1
202 121 1
202 122 1
202 130 1
202 133 1
202 135 1
202 143 1
202 146 1
202 148 1
202 159 1
202 161 1
202 169 1
202 176 1
202 179 1
202 182 1
202 183 1
202 187 1
202 191 1
202 196 1
202 197 1
202 203 1
202 206 1
202 209 1
202 214 1
202 215 1
202 223 1
202 228 1
202 238 1
202 251 1
202 272 1
202 274 1
202 286 1
202 295 1
202 301 1
202 302 1
202 304 1
202 309 1
202 312 1
202 322 1
202 324 1
202 327 1
202 332 1
202 344 1
202 352 1
202 356 1
202 357 1
202 361 1
202 363 1
202 364 1
202 369 1
202 382 1
202 392 1
202 400 1
202 405 1
202 407 1
202 415 1
202 421 1
202 425 1
202 431 1
202 450 1
202 451 1
202 452 1
202 454 1
202 456 1
202 466 1
202 471 1
202 479 1
202 482 1
202 484 1
202 492 1
202 493 1
203 6 1
203 9 1
203 10 1
203 20 1
203 23 1
203 25 1
203 26 1
203 33 1
203 41 1
203 50 1
203 64 1
203 66 1
203 67 1
203 68 1
203 75 1
203 81 1
203 82 1
203 89 1
203 96 1
203 99 1
203 103 1
203 109 1
203 112 1
203 115 1
203 116 1
203 119 1
203 125 1
203 131 1
203 135 1
203 145 1
203 147 1
203 152 1
203 158 1
203 159 1
203 167 1
203 183 1
203 187 1
203 188 1
203 192 1
203 194 1
203 202 1
203 207 1
203 219 1
203 241 1
203 242 1
203 253 1
203 254 1
203 255 1
203 257 1
203 268 1
203 278 1
203 284 1
203 285 1
203 292 1
203 299 1
203 301 1
203 304 1
203 306 1
203 317 1
203 326 1
203 332 1
203 336 1
203 342 1
203 345 1
203 347 1
203 350 1
203 355 1
203 376 1
203 384 1
203 385 1
203 386 1
203 402 1
203 405 1
203 408 1
203 414 1
203 420 1
203 423 1
203 431 1
203 432 1
203 433 1
203 434 1
203 437 1
203 446 1
203 448 1
203 452 1
203 453 1
203 460 1
203 469 1
203 478 1
203 490 1
203 493 1
203 495 1
203 497 1
204 1 1
204 3 1
204 5 1
204 6 1
204 9 1
204 21 1
204 33 1
204 35 1
204 39 1
204 40 1
204 43 1
204 46 1
204 49 1
204 50 1
204 51 1
204 53 1
204 59 1
204 66 1
204 78 1
204 82 1
204 92 1
204 102 1
204 105 1
204 106 1
204 109 1
204 113 1
204 117 1
204 122 1
204 123 1
204 124 1
204 126 1
204 129 1
204 134 1
204 137 1
204 139 1
204 148 1
204 153 1
204 154 1
204 159 1
204 170 1
204 172 1
204 173 1
204 180 1
204 186 1
204 188 1
204 190 1
204 195 1
204 201 1
204 207 1
204 220 1
204 223 1
204 230 1
204 234 1
204 239 1
204 240 1
204 247 1
204 250 1
204 261 1
204 268 1
204 280 1
204 284 1
204 292 1
204 296 1
204 298 1
204 299 1
204 301 1
204 307 1
204 308 1
204 311 1
204 312 1
204 325 1
204 326 1
204 328 1
204 332 1
204 335 1
204 336 1
204 341 1
204 345 1
204 360 1
204 366 1
204 392 1
204 393 1
204 397 1
204 403 1
204 421 1
204 425 1
204 436 1
204 438 1
204 443 1
204 448 1
204 452 1
204 459 1
204 460 1
204 468 1
204 474 1
204 479 1
204 486 1
204 488 1
204 491 1
205 6 1
205 9 1
205 12 1
205 16 1
205 27 1
205 28 1
205 32 1
205 39 1
205 50 1
205 59 1
205 61 1
205 69 1
205 71 1
205 73 1
205 77 1
205 80 1
205 93 1
205 100 1
205 105 1
205 110 1
205 117 1
205 124 1
205 129 1
205 141 1
205 148 1
205 152 1
205 153 1
205 154 1
205 161 1
205 169 1
205 181 1
205 187 1
205 192 1
205 213 1
205 217 1
205 218 1
205 233 1
205 236 1
205 238 1
205 242 1
205 254 1
205 255 1
205 260 1
205 264 1
205 266 1
205 275 1
205 276 1
205 284 1
205 286 1
205 291 1
205 295 1
205 301 1
205 306 1
205 312 1
205 319 1
205 320 1
205 322 1
205 328 1
205 330 1
205 331 1
205 332 1
205 340 1
205 343 1
205 355 1
205 357 1
205 361 1
205 364 1
205 372 1
205 382 1
205 393 1
205 404 1
205 405 1
205 417 1
205 419 1
205 425 1
205 429 1
205 435 1
205 438 1
205 444 1
205 455 1
205 456 1
205 460 1
205 462 1
205 463 1
205 465 1
205 466 1
205 467 1
205 474 1
205 482 1
205 490 1
205 494 1
205 496 1
205 499 1
206 2 1
206 4 1
206 6 1
206 11 1
206 16 1
206 22 1
206 27 1
206 33 1
206 38 1
206 40 1
206 45 1
206 48 1
206 50 1
206 52 1
206 58 1
206 59 1
206 66 1
206 70 1
206 77 1
206 79 1
206 91 1
206 96 1
206 97 1
206 100 1
206 113 1
206 117 1
206 121 1
206 125 1
206 131 1
206 135 1
206 138 1
206 143 1
206 150 1
206 151 1
206 154 1
206 158 1
206 163 1
206 166 1
206 167 1
206 169 1
206 172 1
206 175 1
206 183 1
206 188 1
206 191 1
206 195 1
206 199 1
206 202 1
206 213 1
206 216 1
206 218 1
206 225 1
206 228 1
206 229 1
206 244 1
206 248 1
206 249 1
206 262 1
206 266 1
206 272 1
206 273 1
206 274 1
206 279 1
206 289 1
206 290 1
206 296 1
206 298 1
206 299 1
206 304 1
206 306 1
206 312 1
206 318 1
206 320 1
206 321 1
206 322 1
206 323 1
206 325 1
206 329 1
206 331 1
206 341 1
206 358 1
206 359 1
206 368 1
206 371 1
206 391 1
206 393 1
206 394 1
206 399 1
206 408 1
206 415 1
206 416 1
206 419 1
206 423 1
206 432 1
206 443 1
206 450 1
206 463 1
206 467 1
206 474 1
206 477 1
206 480 1
206 481 1
206 482 1
206 483 1
206 487 1
206 489 1
206 497 1
207 1 1
207 11 1
207 22 1
207 29 1
207 31 1
207 34 1
207 37 1
207 43 1
207 50 1
207 56 1
207 62 1
207 64 1
207 70 1
207 80 1
207 82 1
207 83 1
207 91 1
207 93 1
207 100 1
207 106 1
207 107 1
207 117 1
207 119 1
207 120 1
207 126 1
207 131 1
207 133 1
207 139 1
207 142 1
207 153 1
207 154 1
207 165 1
207 166 1
207 167 1
207 174 1
207 181 1
207 184 1
207 186 1
207 194 1
207 198 1
207 203 1
207 204 1
207 214 1
207 215 1
207 221 1
207 223 1
207 232 1
207 241 1
207 242 1
207 246 1
207 251 1
207 256 1
207 258 1
207 267 1
207 268 1
207 274 1
207 277 1
207 279 1
207 286 1
207 287 1
207 288 1
207 289 1
207 293 1
207 297 1
207 311 1
207 315 1
207 319 1
207 322 1
207 323 1
207 331 1
207 333 1
207 343 1
207 345 1
207 347 1
207 352 1
207 354 1
207 362 1
207 364 1
207 367 1
207 380 1
207 387 1
207 390 1
207 391 1
207 399 1
207 402 1
207 404 1
207 406 1
207 424 1
207 429 1
207 435 1
207 438 1
207 440 1
207 442 1
207 445 1
207 447 1
207 450 1
207 455 1
207 456 1
207 458 1
207 475 1
207 477 1
207 490 1
207 493 1
207 499 1
207 500 1
208 12 1
208 13 1
208 18 1
208 21 1
208 22 1
208 23 1
208 26 1
208 44 1
208 47 1
208 52 1
208 54 1
208 55 1
208 58 1
208 74 1
208 75 1
208 76 1
208 78 1
208 92 1
208 93 1
208 98 1
208 99 1
208 104 1
208 107 1
208 108 1
208 111 1
208 113 1
208 119 1
208 120 1
208 121 1
208 128 1
208 134 1
208 136 1
208 137 1
208 144 1
208 145 1
208 147 1
208 160 1
208 167 1
208 168 1
208 171 1
208 199 1
208 209 1
208 211 1
208 220 1
208 221 1
208 223 1
208 225 1
208 241 1
208 256 1
208 264 1
208 265 1
208 272 1
208 280 1
208 292 1
208 294 1
208 295 1
208 297 1
208 298 1
208 308 1
208 310 1
208 311 1
208 313 1
208 319 1
208 322 1
208 324 1
208 335 1
208 340 1
208 341 1
208 344 1
208 345 1
208 352 1
208 353 1
208 360 1
208 361 1
208 363 1
208 379 1
208 381 1
208 382 1
208 397 1
208 399 1
208 410 1
208 413 1
208 415 1
208 427 1
208 444 1
208 445 1
208 449 1
208 460 1
208 462 1
208 466 1
208 470 1
208 472 1
208 474 1
208 479 1
208 486 1
208 489 1
208 491 1
208 496 1
208 499 1
208 500 1
209 11 1
209 30 1
209 34 1
209 42 1
209 50 1
209 59 1
209 60 1
209 61 1
209 64 1
209 65 1
209 68 1
209 74 1
209 79 1
209 81 1
209 83 1
209 88 1
209 91 1
209 93 1
209 95 1
209 96 1
209 101 1
209 105 1
209 106 1
209 107 1
209 114 1
209 121 1
209 126 1
209 127 1
209 128 1
209 133 1
209 152 1
209 155 1
209 160 1
209 162 1
209 168 1
209 180 1
209 184 1
209 185 1
209 191 1
209 194 1
209 202 1
209 208 1
209 224 1
209 228 1
209 236 1
209 240 1
209 241 1
209 243 1
209 251 1
209 258 1
209 260 1
209 262 1
209 265 1
209 269 1
209 273 1
209 275 1
209 276 1
209 277 1
209 280 1
209 287 1
209 296 1
209 297 1
209 302 1
209 303 1
209 307 1
209 311 1
209 315 1
209 323 1
209 324 1
209 341 1
209 342 1
209 346 1
209 349 1
209 362 1
209 371 1
209 372 1
209 375 1
209 382 1
209 383 1
209 384 1
209 385 1
209 391 1
209 395 1
209 402 1
209 415 1
209 425 1
209 429 1
209 433 1
209 442 1
209 445 1
209 446 1
209 450 1
209 457 1
209 458 1
209 462 1
209 467 1
209 471 1
209 476 1
209 489 1
209 492 1
209 498 1
210 5 1
210 6 1
210 18 1
210 19 1
210 20 1
210 29 1
210 32 1
210 38 1
210 46 1
210 53 1
210 55 1
210 66 1
210 72 1
210 73 1
210 74 1
210 82 1
210 88 1
210 91 1
210 99 1
210 103 1
210 105 1
210 114 1
210 116 1
210 118 1
210 124 1
210 125 1
210 130 1
210 131 1
210 137 1
210 138 1
210 145 1
210 146 1
210 147 1
210 149 1
210 153 1
210 157 1
210 166 1
210 184 1
210 185 1
210 190 1
210 191 1
210 195 1
210 214 1
210 219 1
210 224 1
210 226 1
210 229 1
210 230 1
210 240 1
210 243 1
210 244 1
210 259 1
210 271 1
210 275 1
210 277 1
210 280 1
210 287 1
210 290 1
210 293 1
210 301 1
210 303 1
210 304 1
210 310 1
210 312 1
210 314 1
210 319 1
210 324 1
210 329 1
210 330 1
210 336 1
210 342 1
210 344 1
210 349 1
210 356 1
210 360 1
210 363 1
210 365 1
210 370 1
210 371 1
210 376 1
210 380 1
210 389 1
210 390 1
210 391 1
210 393 1
210 397 1
210 401 1
210 402 1
210 403 1
210 413 1
210 414 1
210 417 1
210 420 1
210 421 1
210 424 1
210 434 1
210 444 1
210 447 1
210 448 1
210 457 1
210 461 1
210 465 1
210 470 1
210 473 1
210 478 1
210 479 1
210 487 1
210 489 1
210 492 1
210 495 1
210 500 1
211 1 1
211 2 1
211 6 1
211 10 1
211 13 1
211 17 1
211 19 1
211 25 1
211 26 1
211 27 1
211 31 1
211 44 1
211 47 1
211 54 1
211 57 1
211 58 1
211 61 1
211 64 1
211 74 1
211 79 1
211 83 1
211 94 1
211 100 1
211 103 1
211 107 1
211 109 1
211 111 1
211 120 1
211 121 1
211 123 1
211 125 1
211 129 1
211 130 1
211 132 1
211 133 1
211 134 1
211 141 1
211 145 1
211 147 1
211 149 1
211 151 1
211 156 1
211 168 1
211 170 1
211 172 1
211 182 1
211 187 1
211 189 1
211 191 1
211 208 1
211 212 1
211 213 1
211 216 1
211 228 1
211 234 1
211 239 1
211 242 1
211 250 1
211 252 1
211 254 1
211 256 1
211 259 1
211 272 1
211 277 1
211 280 1
211 284 1
211 286 1
211 290 1
211 292 1
211 295 1
211 297 1
211 313 1
211 315 1
211 323 1
211 329 1
211 337 1
211 339 1
211 354 1
211 370 1
211 371 1
211 373 1
211 374 1
211 377 1
211 379 1
211 393 1
211 394 1
211 396 1
211 403 1
211 407 1
211 410 1
211 412 1
211 415 1
211 419 1
211 429 1
211 434 1
211 437 1
211 441 1
211 442 1
211 444 1
211 445 1
211 446 1
211 448 1
211 451 1
211 453 1
211 455 1
211 456 1
211 459 1
211 464 1
211 465 1
211 466 1
211 467 1
211 470 1
211 474 1
211 475 1
211 480 1
211 483 1
211 486 1
211 488 1
211 498 1
212 6 1
212 12 1
212 25 1
212 31 1
212 32 1
212 34 1
212 37 1
212 43 1
212 44 1
212 54 1
212 60 1
212 63 1
212 64 1
212 67 1
212 68 1
212 70 1
212 72 1
212 84 1
212 87 1
212 91 1
212 92 1
212 104 1
212 109 1
212 110 1
212 112 1
212 113 1
212 119 1
212 132 1
212 134 1
212 136 1
212 145 1
212 150 1
212 152 1
212 158 1
212 161 1
212 164 1
212 165 1
212 169 1
212 177 1
212 193 1
212 201 1
212 211 1
212 217 1
212 220 1
212 222 1
212 224 1
212 235 1
212 242 1
212 243 1
212 246 1
212 247 1
212 249 1
212 250 1
212 251 1
212 253 1
212 254 1
212 261 1
212 268 1
212 272 1
212 274 1
212 276 1
212 293 1
212 294 1
212 297 1
212 299 1
212 301 1
212 317 1
212 321 1
212 323 1
212 324 1
212 325 1
212 328 1
212 329 1
212 330 1
212 338 1
212 339 1
212 340 1
212 349 1
212 352 1
212 355 1
212 365 1
212 370 1
212 376 1
212 380 1
212 383 1
212 385 1
212 392 1
212 393 1
212 397 1
212 398 1
212 401 1
212 404 1
212 411 1
212 412 1
212 422 1
212 436 1
212 444 1
212 446 1
212 450 1
212 454 1
212 456 1
212 461 1
212 464 1
212 466 1
212 467 1
212 474 1
212 476 1
212 480 1
212 481 1
212 482 1
212 483 1
212 490 1
213 5 1
213 16 1
213 20 1
213 22 1
213 24 1
213 32 1
213 38 1
213 53 1
213 58 1
213 59 1
213 61 1
213 72 1
213 78 1
213 85 1
213 93 1
213 94 1
213 107 1
213 110 1
213 113 1
213 114 1
213 119 1
213 123 1
213 124 1
213 126 1
213 131 1
213 135 1
213 137 1
213 152 1
213 165 1
213 169 1
213 174 1
213 175 1
213 187 1
213 192 1
213 198 1
213 199 1
213 200 1
213 205 1
213 206 1
213 211 1
213 221 1
213 222 1
213 229 1
213 238 1
213 243 1
213 250 1
213 251 1
213 262 1
213 269 1
213 271 1
213 274 1
213 276 1
213 277 1
213 278 1
213 286 1
213 287 1
213 290 1
213 291 1
213 292 1
213 296 1
213 301 1
213 302 1
213 303 1
213 314 1
213 315 1
213 317 1
213 323 1
213 324 1
213 328 1
213 346 1
213 348 1
213 350 1
213 356 1
213 357 1
213 362 1
213 365 1
213 366 1
213 367 1
213 368 1
213 372 1
213 373 1
213 375 1
213 376 1
213 379 1
213 382 1
213 385 1
213 387 1
213 396 1
213 403 1
213 411 1
213 414 1
213 420 1
213 423 1
213 429 1
213 430 1
213 431 1
213 434 1
213 438 1
213 439 1
213 446 1
213 449 1
213 457 1
213 464 1
213 466 1
213 468 1
213 476 1
213 486 1
213 495 1
213 498 1
214 7 1
214 8 1
214 16 1
214 17 1
214 18 1
214 20 1
214 31 1
214 32 1
214 42 1
214 43 1
214 44 1
214 50 1
214 51 1
214 53 1
214 57 1
214 58 1
214 63 1
214 65 1
214 66 1
214 69 1
214 73 1
214 82 1
214 85 1
214 86 1
214 89 1
214 100 1
214 102 1
214 103 1
214 110 1
214 111 1
214 112 1
214 119 1
214 120 1
214 123 1
214 127 1
214 130 1
214 139 1
214 142 1
214 155 1
214 158 1
214 165 1
214 166 1
214 170 1
214 179 1
214 182 1
214 193 1
214 195 1
214 202 1
214 207 1
214 210 1
214 219 1
214 220 1
214 221 1
214 226 1
214 235 1
214 238 1
214 244 1
214 255 1
214 258 1
214 260 1
214 264 1
214 280 1
214 281 1
214 292 1
214 293 1
214 297 1
214 299 1
214 304 1
214 307 1
214 313 1
214 318 1
214 321 1
214 322 1
214 332 1
214 334 1
214 336 1
214 337 1
214 339 1
214 342 1
214 343 1
214 344 1
214 352 1
214 360 1
214 366 1
214 367 1
214 370 1
214 374 1
214 385 1
214 386 1
214 387 1
214 394 1
214 397 1
214 398 1
214 402 1
214 406 1
214 417 1
214 422 1
214 425 1
214 435 1
214 438 1
214 439 1
214 442 1
214 446 1
214 450 1
214 455 1
214 463 1
214 467 1
214 470 1
214 473 1
214 478 1
214 484 1
214 493 1
214 495 1
214 497 1
214 498 1
215 2 1
215 3 1
215 9 1
215 13 1
215 19 1
215 30 1
215 49 1
215 50 1
215 52 1
215 64 1
215 65 1
215 66 1
215 72 1
215 81 1
215 82 1
215 89 1
215 98 1
215 102 1
215 104 1
215 109 1
215 111 1
215 119 1
215 126 1
215 133 1
215 144 1
215 150 1
215 158 1
215 164 1
215 169 1
215 173 1
215 174 1
215 187 1
215 188 1
215 197 1
215 199 1
215 200 1
215 202 1
215 207 1
215 222 1
215 227 1
215 228 1
215 233 1
215 234 1
215 236 1
215 246 1
215 253 1
215 260 1
215 263 1
215 265 1
215 266 1
215 271 1
215 283 1
215 290 1
215 295 1
215 297 1
215 301 1
215 303 1
215 310 1
215 316 1
215 319 1
215 321 1
215 323 1
215 326 1
215 337 1
215 342 1
215 343 1
215 345 1
215 349 1
215 352 1
215 357 1
215 361 1
215 362 1
215 369 1
215 372 1
215 374 1
215 376 1
215 380 1
215 381 1
215 383 1
215 387 1
215 393 1
215 394 1
215 395 1
215 396 1
215 397 1
215 404 1
215 409 1
215 412 1
215 414 1
215 422 1
215 427 1
215 428 1
215 430 1
215 432 1
215 437 1
215 448 1
215 459 1
215 460 1
215 461 1
215 462 1
215 466 1
215 470 1
215 471 1
215 473 1
215 498 1
216 2 1
216 4 1
216 8 1
216 24 1
216 28 1
216 31 1
216 34 1
216 43 1
216 44 1
216 52 1
216 55 1
216 65 1
216 78 1
216 86 1
216 91 1
216 92 1
216 101 1
216 105 1
216 111 1
216 113 1
216 118 1
216 121 1
216 122 1
216 125 1
216 134 1
216 135 1
216 152 1
216 153 1
216 154 1
216 165 1
216 169 1
216 174 1
216 180 1
216 188 1
216 197 1
216 206 1
216 211 1
216 217 1
216 225 1
216 227 1
216 229 1
216 236 1
216 237 1
216 239 1
216 242 1
216 244 1
216 245 1
216 248 1
216 250 1
216 257 1
216 258 1
216 260 1
216 263 1
216 269 1
216 271 1
216 277 1
216 283 1
216 284 1
216 291 1
216 294 1
216 309 1
216 316 1
216 317 1
216 321 1
216 336 1
216 338 1
216 341 1
216 348 1
216 349 1
216 350 1
216 355 1
216 357 1
216 363 1
216 365 1
216 373 1
216 378 1
216 379 1
216 384 1
216 387 1
216 392 1
216 407 1
216 408 1
216 409 1
216 416 1
216 417 1
216 437 1
216 440 1
216 446 1
216 450 1
216 451 1
216 473 1
216 475 1
216 482 1
216 485 1
216 489 1
216 492 1
216 499 1
217 2 1
217 7 1
217 14 1
217 15 1
217 24 1
217 33 1
217 39 1
217 47 1
217 56 1
217 61 1
217 63 1
217 64 1
217 76 1
217 77 1
217 84 1
217 90 1
217 93 1
217 97 1
217 98 1
217 100 1
217 107 1
217 113 1
217 114 1
217 118 1
217 129 1
217 134 1
217 141 1
217 144 1
217 146 1
217 148 1
217 149 1
217 177 1
217 178 1
217 191 1
217 192 1
217 193 1
217 195 1
217 198 1
217 205 1
217 212 1
217 216 1
217 226 1
217 228 1
217 231 1
217 235 1
217 236 1
217 239 1
217 256 1
217 258 1
217 263 1
217 269 1
217 270 1
217 279 1
217 281 1
217 282 1
217 289 1
217 293 1
217 295 1
217 297 1
217 302 1
217 316 1
217 319 1
217 328 1
217 330 1
217 342 1
217 345 1
217 349 1
217 350 1
217 353 1
217 356 1
217 360 1
217 366 1
217 370 1
217 373 1
217 377 1
217 385 1
217 393 1
217 403 1
217 404 1
217 413 1
217 414 1
217 424 1
217 425 1
217 439 1
217 450 1
217 453 1
217 473 1
217 476 1
217 479 1
217 480 1
217 481 1
217 484 1
218 2 1
218 3 1
218 4 1
218 7 1
218 12 1
218 15 1
218 16 1
218 23 1
218 29 1
218 39 1
218 40 1
218 41 1
218 47 1
218 50 1
218 52 1
218 57 1
218 65 1
218 67 1
218 70 1
218 75 1
218 87 1
218 89 1
218 101 1
218 102 1
218 117 1
218 124 1
218 127 1
218 137 1
218 139 1
218 140 1
218 143 1
218 145 1
218 147 1
218 150 1
218 152 1
218 153 1
218 156 1
218 166 1
218 169 1
218 173 1
218 175 1
218 177 1
218 179 1
218 180 1
218 192 1
218 195 1
218 201 1
218 205 1
218 206 1
218 219 1
218 220 1
218 228 1
218 237 1
218 240 1
218 241 1
218 249 1
218 253 1
218 260 1
218 269 1
218 276 1
218 279 1
218 280 1
218 281 1
218 284 1
218 285 1
218 287 1
218 292 1
218 299 1
218 301 1
218 302 1
218 304 1
218 305 1
218 309 1
218 313 1
218 315 1
218 325 1
218 329 1
218 331 1
218 332 1
218 336 1
218 347 1
218 348 1
218 355 1
218 360 1
218 361 1
218 377 1
218 379 1
218 382 1
218 385 1
218 398 1
218 404 1
218 408 1
218 409 1
218 411 1
218 414 1
218 420 1
218 427 1
218 429 1
218 435 1
218 437 1
218 438 1
218 440 1
218 447 1
218 450 1
218 459 1
218 462 1
218 468 1
218 470 1
218 471 1
218 474 1
218 482 1
218 484 1
218 487 1
218 492 1
218 496 1
218 498 1
219 13 1
219 26 1
219 28 1
219 34 1
219 44 1
219 49 1
219 50 1
219 57 1
219 59 1
219 60 1
219 63 1
219 67 1
219 69 1
219 72 1
219 74 1
219 75 1
219 80 1
219 90 1
219 102 1
219 104 1
219 105 1
219 114 1
219 133 1
219 134 1
219 138 1
219 141 1
219 148 1
219 149 1
219 172 1
219 179 1
219 188 1
219 196 1
219 203 1
219 210 1
219 214 1
219 218 1
219 231 1
219 240 1
219 242 1
219 245 1
219 249 1
219 252 1
219 266 1
219 271 1
219 273 1
219 274 1
219 288 1
219 310 1
219 322 1
219 323 1
219 327 1
219 331 1
219 333 1
219 341 1
219 354 1
219 359 1
219 361 1
219 366 1
219 372 1
219 381 1
219 404 1
219 411 1
219 417 1
219 424 1
219 446 1
219 449 1
219 453 1
219 456 1
219 458 1
219 460 1
219 462 1
219 464 1
219 470 1
219 478 1
219 484 1
219 488 1
219 490 1
219 495 1
219 500 1
220 10 1
220 12 1
220 13 1
220 19 1
220 21 1
220 28 1
220 32 1
220 37 1
220 42 1
220 49 1
220 53 1
220 55 1
220 57 1
220 58 1
220 65 1
220 71 1
220 77 1
220 78 1
220 92 1
220 95 1
220 97 1
220 108 1
220 112 1
220 116 1
220 148 1
220 149 1
220 157 1
220 164 1
220 165 1
220 166 1
220 167 1
220 174 1
220 178 1
220 180 1
220 181 1
220 187 1
220 195 1
220 199 1
220 204 1
220 208 1
220 212 1
220 214 1
220 218 1
220 223 1
220 225 1
220 230 1
220 237 1
220 238 1
220 243 1
220 247 1
220 260 1
220 261 1
220 271 1
220 273 1
220 275 1
220 278 1
220 280 1
220 291 1
220 301 1
220 305 1
220 311 1
220 318 1
220 320 1
220 330 1
220 333 1
220 334 1
220 336 1
220 337 1
220 339 1
220 347 1
220 353 1
220 355 1
220 357 1
220 366 1
220 378 1
220 379 1
220 380 1
220 387 1
220 388 1
220 391 1
220 393 1
220 402 1
220 405 1
220 412 1
220 421 1
220 423 1
220 428 1
220 430 1
220 431 1
220 441 1
220 445 1
220 446 1
220 448 1
220 457 1
220 460 1
220 463 1
220 474 1
220 479 1
220 481 1
220 486 1
220 487 1
220 495 1
220 498 1
220 499 1
221 1 1
221 3 1
221 7 1
221 19 1
221 25 1
221 32 1
221 36 1
221 41 1
221 43 1
221 44 1
221 45 1
221 51 1
221 60 1
221 68 1
221 69 1
221 72 1
221 83 1
221 93 1
221 96 1
221 97 1
221 100 1
221 106 1
221 107 1
221 109 1
221 112 1
221 122 1
221 124 1
221 127 1
221 141 1
221 143 1
221 146 1
221 151 1
221 159 1
221 163 1
221 164 1
221 169 1
221 172 1
221 176 1
221 185 1
221 186 1
221 189 1
221 207 1
221 208 1
221 213 1
221 214 1
221 247 1
221 250 1
221 253 1
221 263 1
221 273 1
221 278 1
221 279 1
221 286 1
221 297 1
221 298 1
221 302 1
221 306 1
221 307 1
221 308 1
221 312 1
221 315 1
221 318 1
221 326 1
221 342 1
221 345 1
221 346 1
221 359 1
221 364 1
221 368 1
221 369 1
221 372 1
221 374 1
221 377 1
221 380 1
221 389 1
221 391 1
221 406 1
221 414 1
221 420 1
221 423 1
221 430 1
221 433 1
221 436 1
221 445 1
221 446 1
221 455 1
221 457 1
221 458 1
221 471 1
221 476 1
221 489 1
221 490 1
221 500 1
222 1 1
222 3 1
222 7 1
222 9 1
222 10 1
222 19 1
222 22 1
222 29 1
222 37 1
222 38 1
222 44 1
222 49 1
222 52 1
222 53 1
222 60 1
222 63 1
222 65 1
222 74 1
222 78 1
222 80 1
222 86 1
222 88 1
222 90 1
222 97 1
222 98 1
222 99 1
222 105 1
222 106 1
222 114 1
222 119 1
222 122 1
222 127 1
222 145 1
222 146 1
222 158 1
222 159 1
222 162 1
222 163 1
222 164 1
222 170 1
222 185 1
222 186 1
222 190 1
222 212 1
222 213 1
222 215 1
222 224 1
222 226 1
222 227 1
222 231 1
222 244 1
222 245 1
222 254 1
222 263 1
222 273 1
222 288 1
222 291 1
222 308 1
222 313 1
222 319 1
222 324 1
222 325 1
222 329 1
222 330 1
222 333 1
222 336 1
222 347 1
222 356 1
222 363 1
222 376 1
222 379 1
222 385 1
222 390 1
222 395 1
222 396 1
222 397 1
222 407 1
222 411 1
222 412 1
222 416 1
222 422 1
222 428 1
222 430 1
222 436 1
222 446 1
222 452 1
222 453 1
222 460 1
222 462 1
222 479 1
222 490 1
223 2 1
223 3 1
223 14 1
223 16 1
223 19 1
223 20 1
223 28 1
223 29 1
223 31 1
223 36 1
223 38 1
223 40 1
223 41 1
223 44 1
223 51 1
223 54 1
223 73 1
223 75 1
223 83 1
223 85 1
223 101 1
223 102 1
223 113 1
223 117 1
223 118 1
223 120 1
223 121 1
223 129 1
223 134 1
223 135 1
223 136 1
223 145 1
223 162 1
223 166 1
223 168 1
223 170 1
223 171 1
223 175 1
223 177 1
223 178 1
223 181 1
223 182 1
223 188 1
223 202 1
223 204 1
223 207 1
223 208 1
223 220 1
223 226 1
223 236 1
223 244 1
223 252 1
223 255 1
223 259 1
223 264 1
223 270 1
223 273 1
223 274 1
223 275 1
223 278 1
223 279 1
223 281 1
223 282 1
223 287 1
223 291 1
223 293 1
223 294 1
223 297 1
223 306 1
223 314 1
223 316 1
223 323 1
223 327 1
223 329 1
223 338 1
223 347 1
223 348 1
223 350 1
223 356 1
223 370 1
223 382 1
223 404 1
223 406 1
223 420 1
223 421 1
223 422 1
223 427 1
223 430 1
223 432 1
223 433 1
223 435 1
223 438 1
223 443 1
223 447 1
223 456 1
223 460 1
223 461 1
223 462 1
223 465 1
223 472 1
223 475 1
223 478 1
223 482 1
223 490 1
223 493 1
223 494 1
223 500 1
224 4 1
224 8 1
224 9 1
224 16 1
224 25 1
224 29 1
224 54 1
224 55 1
224 57 1
224 58 1
224 83 1
224 85 1
224 86 1
224 87 1
224 90 1
224 92 1
224 93 1
224 97 1
224 98 1
224 101 1
224 108 1
224 110 1
224 112 1
224 114 1
224 116 1
224 118 1
224 119 1
224 121 1
224 124 1
224 128 1
224 138 1
224 147 1
224 157 1
224 158 1
224 163 1
224 168 1
224 169 1
224 176 1
224 182 1
224 183 1
224 191 1
224 193 1
224 196 1
224 200 1
224 201 1
224 209 1
224 210 1
224 212 1
224 222 1
224 227 1
224 230 1
224 233 1
224 238 1
224 239 1
224 242 1
224 250 1
224 251 1
224 254 1
224 258 1
224 259 1
224 260 1
224 268 1
224 270 1
224 276 1
224 279 1
224 303 1
224 304 1
224 314 1
224 318 1
224 322 1
224 332 1
224 349 1
224 353 1
224 357 1
224 358 1
224 359 1
224 360 1
224 363 1
224 371 1
224 373 1
224 375 1
224 376 1
224 378 1
224 380 1
224 386 1
224 422 1
224 428 1
224 430 1
224 431 1
224 437 1
224 438 1
224 443 1
224 448 1
224 454 1
224 458 1
224 466 1
224 470 1
224 481 1
224 482 1
224 486 1
224 490 1
224 491 1
224 494 1
224 496 1
224 497 1
225 1 1
225 6 1
225 11 1
225 12 1
225 19 1
225 26 1
225 53 1
225 58 1
225 66 1
225 72 1
225 78 1
225 79 1
225 86 1
225 100 1
225 107 1
225 108 1
225 111 1
225 117 1
225 121 1
225 137 1
225 139 1
225 141 1
225 142 1
225 151 1
225 154 1
225 155 1
225 159 1
225 161 1
225 169 1
225 177 1
225 188 1
225 192 1
225 196 1
225 199 1
225 200 1
225 206 1
225 208 1
225 216 1
225 220 1
225 236 1
225 241 1
225 244 1
225 248 1
225 249 1
225 257 1
225 264 1
225 265 1
225 267 1
225 293 1
225 294 1
225 295 1
225 299 1
225 308 1
225 309 1
225 310 1
225 314 1
225 333 1
225 338 1
225 348 1
225 350 1
225 352 1
225 353 1
225 355 1
225 356 1
225 359 1
225 370 1
225 380 1
225 386 1
225 393 1
225 415 1
225 417 1
225 418 1
225 423 1
225 424 1
225 433 1
225 435 1
225 436 1
225 439 1
225 446 1
225 447 1
225 448 1
225 452 1
225 459 1
225 462 1
225 470 1
225 471 1
225 482 1
225 487 1
225 492 1
225 496 1
226 1 1
226 2 1
226 9 1
226 11 1
226 12 1
226 23 1
226 24 1
226 31 1
226 35 1
226 38 1
226 41 1
226 42 1
226 46 1
226 53 1
226 62 1
226 63 1
226 85 1
226 91 1
226 93 1
226 101 1
226 102 1
226 105 1
226 108 1
226 113 1
226 121 1
226 124 1
226 126 1
226 127 1
226 129 1
226 130 1
226 131 1
226 143 1
226 150 1
226 157 1
226 161 1
226 164 1
226 169 1
226 170 1
226 175 1
226 177 1
226 179 1
226 181 1
226 183 1
226 185 1
226 198 1
226 199 1
226 210 1
226 214 1
226 217 1
226 222 1
226 223 1
226 238 1
226 243 1
226 248 1
226 251 1
226 265 1
226 266 1
226 274 1
226 277 1
226 279 1
226 283 1
226 291 1
226 303 1
226 308 1
226 313 1
226 321 1
226 327 1
226 328 1
226 329 1
226 334 1
226 337 1
226 343 1
226 345 1
226 351 1
226 356 1
226 377 1
226 378 1
226 381 1
226 385 1
226 390 1
226 393 1
226 395 1
226 396 1
226 405 1
226 421 1
226 424 1
226 428 1
226 430 1
226 432 1
226 435 1
226 438 1
226 444 1
226 452 1
226 466 1
226 478 1
226 481 1
226 488 1
226 489 1
226 491 1
226 497 1
227 1 1
227 2 1
227 9 1
227 16 1
227 20 1
227 26 1
227 27 1
227 33 1
227 34 1
227 35 1
227 40 1
227 41 1
227 61 1
227 77 1
227 78 1
227 83 1
227 89 1
227 90 1
227 91 1
227 95 1
227 96 1
227 98 1
227 100 1
227 110 1
227 126 1
227 129 1
227 135 1
227 138 1
227 148 1
227 149 1
227 157 1
227 161 1
227 183 1
227 189 1
227 190 1
227 193 1
227 196 1
227 215 1
227 216 1
227 222 1
227 224 1
227 231 1
227 237 1
227 238 1
227 241 1
227 244 1
227 248 1
227 252 1
227 253 1
227 272 1
227 279 1
227 280 1
227 283 1
227 284 1
227 285 1
227 290 1
227 292 1
227 294 1
227 295 1
227 311 1
227 314 1
227 327 1
227 337 1
227 343 1
227 344 1
227 346 1
227 351 1
227 357 1
227 358 1
227 360 1
227 361 1
227 366 1
227 369 1
227 372 1
227 375 1
227 383 1
227 389 1
227 394 1
227 397 1
227 404 1
227 427 1
227 438 1
227 445 1
227 447 1
227 448 1
227 450 1
227 451 1
227 460 1
227 466 1
227 475 1
227 477 1
227 478 1
227 479 1
227 485 1
227 488 1
227 490 1
227 492 1
227 493 1
228 1 1
228 8 1
228 9 1
228 14 1
228 22 1
228 26 1
228 29 1
228 31 1
228 42 1
228 45 1
228 49 1
228 60 1
228 66 1
228 69 1
228 70 1
228 75 1
228 81 1
228 88 1
228 94 1
228 97 1
228 98 1
228 102 1
228 103 1
228 133 1
228 139 1
228 140 1
228 143 1
228 155 1
228 161 1
228 166 1
228 168 1
228 174 1
228 176 1
228 178 1
228 180 1
228 184 1
228 198 1
228 200 1
228 202 1
228 206 1
228 209 1
228 211 1
228 215 1
228 217 1
228 218 1
228 242 1
228 252 1
228 259 1
228 263 1
228 266 1
228 272 1
228 280 1
228 285 1
228 296 1
228 315 1
228 318 1
228 322 1
228 325 1
228 330 1
228 332 1
228 333 1
228 335 1
228 336 1
228 345 1
228 352 1
228 354 1
228 355 1
228 358 1
228 360 1
228 362 1
228 369 1
228 385 1
228 387 1
228 389 1
228 397 1
228 402 1
228 405 1
228 409 1
228 418 1
228 419 1
228 427 1
228 433 1
228 434 1
228 440 1
228 448 1
228 450 1
228 452 1
228 458 1
228 476 1
228 488 1
228 492 1
228 495 1
229 3 1
229 9 1
229 16 1
229 18 1
229 19 1
229 23 1
229 28 1
229 29 1
229 31 1
229 35 1
229 42 1
229 44 1
229 50 1
229 72 1
229 73 1
229 74 1
229 77 1
229 81 1
229 85 1
229 87 1
229 91 1
229 107 1
229 114 1
229 120 1
229 129 1
229 130 1
229 140 1
229 145 1
229 156 1
229 162 1
229 168 1
229 179 1
229 180 1
229 181 1
229 186 1
229 190 1
229 192 1
229 206 1
229 210 1
229 213 1
229 216 1
229 230 1
229 232 1
229 234 1
229 238 1
229 239 1
229 242 1
229 262 1
229 263 1
229 264 1
229 275 1
229 279 1
229 280 1
229 291 1
229 301 1
229 303 1
229 304 1
229 305 1
229 307 1
229 312 1
229 313 1
229 321 1
229 335 1
229 342 1
229 346 1
229 358 1
229 360 1
229 365 1
229 366 1
229 371 1
229 374 1
229 378 1
229 385 1
229 394 1
229 400 1
229 401 1
229 409 1
229 412 1
229 413 1
229 415 1
229 416 1
229 421 1
229 425 1
229 426 1
229 427 1
229 434 1
229 442 1
229 443 1
229 445 1
229 448 1
229 450 1
229 452 1
229 454 1
229 455 1
229 457 1
229 469 1
229 470 1
229 479 1
229 484 1
229 489 1
229 492 1
229 495 1
229 498 1
230 3 1
230 8 1
230 10 1
230 11 1
230 27 1
230 29 1
230 34 1
230 35 1
230 38 1
230 40 1
230 49 1
230 50 1
230 56 1
230 57 1
230 67 1
230 73 1
230 81 1
230 85 1
230 89 1
230 97 1
230 102 1
230 108 1
230 111 1
230 113 1
230 119 1
230 127 1
230 128 1
230 136 1
230 140 1
230 141 1
230 142 1
230 143 1
230 148 1
230 156 1
230 167 1
230 171 1
230 175 1
230 183 1
230 184 1
230 204 1
230 210 1
230 220 1
230 224 1
230 229 1
230 233 1
230 235 1
230 238 1
230 244 1
230 251 1
230 252 1
230 254 1
230 256 1
230 271 1
230 280 1
230 286 1
230 288 1
230 292 1
230 295 1
230 297 1
230 299 1
230 300 1
230 303 1
230 304 1
230 306 1
230 307 1
230 310 1
230 316 1
230 319 1
230 323 1
230 335 1
230 339 1
230 341 1
230 343 1
230 344 1
230 349 1
230 354 1
230 355 1
230 356 1
230 358 1
230 361 1
230 364 1
230 373 1
230 389 1
230 397 1
230 400 1
230 402 1
230 404 1
230 409 1
230 414 1
230 415 1
230 418 1
230 422 1
230 428 1
230 431 1
230 433 1
230 435 1
230 437 1
230 442 1
230 444 1
230 448 1
230 450 1
230 454 1
230 459 1
230 461 1
230 469 1
230 472 1
230 474 1
230 475 1
230 487 1
230 490 1
230 492 1
230 495 1
230 497 1
230 500 1
231 3 1
231 11 1
231 12 1
231 14 1
231 18 1
231 20 1
231 22 1
231 30 1
231 39 1
231 41 1
231 42 1
231 45 1
231 46 1
231 47 1
231 50 1
231 60 1
231 64 1
231 70 1
231 74 1
231 83 1
231 85 1
231 86 1
231 88 1
231 100 1
231 103 1
231 108 1
231 111 1
231 117 1
231 132 1
231 137 1
231 138 1
231 151 1
231 158 1
231 160 1
231 162 1
231 166 1
231 169 1
231 177 1
231 195 1
231 217 1
231 219 1
231 222 1
231 227 1
231 237 1
231 243 1
231 244 1
231 245 1
231 272 1
231 274 1
231 283 1
231 284 1
231 285 1
231 287 1
231 288 1
231 291 1
231 292 1
231 308 1
231 314 1
231 316 1
231 320 1
231 323 1
231 334 1
231 336 1
231 339 1
231 341 1
231 346 1
231 353 1
231 356 1
231 357 1
231 363 1
231 365 1
231 369 1
231 375 1
231 376 1
231 391 1
231 395 1
231 404 1
231 407 1
231 409 1
231 410 1
231 412 1
231 414 1
231 421 1
231 423 1
231 426 1
231 430 1
231 434 1
231 445 1
231 452 1
231 454 1
231 458 1
231 471 1
231 472 1
231 477 1
231 478 1
231 479 1
231 483 1
231 492 1
232 2 1
232 17 1
232 25 1
232 38 1
232 49 1
232 53 1
232 54 1
232 56 1
232 66 1
232 68 1
232 75 1
232 76 1
232 77 1
232 78 1
232 87 1
232 98 1
232 105 1
232 110 1
232 112 1
232 113 1
232 114 1
232 116 1
232 120 1
232 121 1
232 122 1
232 134 1
232 135 1
232 138 1
232 142 1
232 151 1
232 154 1
232 157 1
232 158 1
232 165 1
232 167 1
232 168 1
232 169 1
232 170 1
232 180 1
232 183 1
232 184 1
232 187 1
232 197 1
232 198 1
232 201 1
232 207 1
232 229 1
232 236 1
232 242 1
232 243 1
232 251 1
232 252 1
232 253 1
232 256 1
232 260 1
232 268 1
232 269 1
232 271 1
232 276 1
232 279 1
232 280 1
232 284 1
232 286 1
232 287 1
232 289 1
232 290 1
232 307 1
232 309 1
232 344 1
232 352 1
232 361 1
232 364 1
232 368 1
232 371 1
232 373 1
232 375 1
232 380 1
232 387 1
232 391 1
232 393 1
232 395 1
232 404 1
232 423 1
232 424 1
232 428 1
232 430 1
232 431 1
232 434 1
232 447 1
232 454 1
232 455 1
232 459 1
232 485 1
232 486 1
232 490 1
232 498 1
232 500 1
233 4 1
233 12 1
233 21 1
233 26 1
233 35 1
233 37 1
233 38 1
233 41 1
233 55 1
233 58 1
233 64 1
233 65 1
233 68 1
233 73 1
233 83 1
233 89 1
233 91 1
233 101 1
233 110 1
233 120 1
233 124 1
233 126 1
233 129 1
233 131 1
233 132 1
233 141 1
233 142 1
233 143 1
233 154 1
233 155 1
233 160 1
233 164 1
233 167 1
233 169 1
233 171 1
233 178 1
233 180 1
233 183 1
233 185 1
233 197 1
233 205 1
233 215 1
233 224 1
233 230 1
233 244 1
233 247 1
233 262 1
233 270 1
233 273 1
233 274 1
233 290 1
233 291 1
233 292 1
233 294 1
233 295 1
233 297 1
233 298 1
233 305 1
233 309 1
233 320 1
233 321 1
233 341 1
233 345 1
233 348 1
233 354 1
233 362 1
233 372 1
233 376 1
233 383 1
233 392 1
233 396 1
233 398 1
233 402 1
233 406 1
233 407 1
233 421 1
233 425 1
233 427 1
233 431 1
233 435 1
233 436 1
233 440 1
233 443 1
233 446 1
233 453 1
233 454 1
233 460 1
233 466 1
233 470 1
233 472 1
233 478 1
233 488 1
233 498 1
234 5 1
234 14 1
234 18 1
234 20 1
234 22 1
234 25 1
234 26 1
234 28 1
234 32 1
234 33 1
234 37 1
234 38 1
234 41 1
234 51 1
234 57 1
234 58 1
234 60 1
234 62 1
234 65 1
234 74 1
234 90 1
234 95 1
234 104 1
234 114 1
234 115 1
234 116 1
234 117 1
234 118 1
234 119 1
234 120 1
234 122 1
234 135 1
234 137 1
234 146 1
234 163 1
234 166 1
234 183 1
234 189 1
234 190 1
234 191 1
234 192 1
234 193 1
234 197 1
234 200 1
234 204 1
234 211 1
234 215 1
234 229 1
234 236 1
234 237 1
234 239 1
234 242 1
234 246 1
234 247 1
234 250 1
234 258 1
234 260 1
234 261 1
234 262 1
234 267 1
234 272 1
234 278 1
234 281 1
234 288 1
234 289 1
234 298 1
234 302 1
234 313 1
234 322 1
234 323 1
234 325 1
234 327 1
234 329 1
234 333 1
234 335 1
234 339 1
234 340 1
234 356 1
234 361 1
234 363 1
234 366 1
234 373 1
234 374 1
234 376 1
234 382 1
234 384 1
234 386 1
234 391 1
234 395 1
234 396 1
234 405 1
234 419 1
234 422 1
234 424 1
234 426 1
234 434 1
234 435 1
234 448 1
234 450 1
234 451 1
234 455 1
234 460 1
234 464 1
234 473 1
234 479 1
234 483 1
234 484 1
234 485 1
234 490 1
234 492 1
234 499 1
235 2 1
235 8 1
235 10 1
235 12 1
235 46 1
235 47 1
235 66 1
235 72 1
235 75 1
235 83 1
235 89 1
235 101 1
235 107 1
235 114 1
235 116 1
235 121 1
235 126 1
235 127 1
235 128 1
235 133 1
235 134 1
235 136 1
235 140 1
235 142 1
235 143 1
235 145 1
235 153 1
235 163 1
235 166 1
235 169 1
235 170 1
235 172 1
235 179 1
235 182 1
235 183 1
235 184 1
235 188 1
235 199 1
235 212 1
235 214 1
235 217 1
235 230 1
235 237 1
235 241 1
235 251 1
235 260 1
235 265 1
235 279 1
235 287 1
235 292 1
235 295 1
235 296 1
235 305 1
235 307 1
235 310 1
235 320 1
235 323 1
235 325 1
235 326 1
235 334 1
235 335 1
235 338 1
235 359 1
235 362 1
235 366 1
235 374 1
235 376 1
235 381 1
235 385 1
235 388 1
235 391 1
235 392 1
235 397 1
235 405 1
235 409 1
235 412 1
235 416 1
235 419 1
235 423 1
235 426 1
235 431 1
235 442 1
235 446 1
235 449 1
235 464 1
235 471 1
235 484 1
235 488 1
236 4 1
236 12 1
236 15 1
236 19 1
236 21 1
236 27 1
236 36 1
236 38 1
236 39 1
236 44 1
236 53 1
236 60 1
236 64 1
236 69 1
236 79 1
236 83 1
236 87 1
236 93 1
236 96 1
236 99 1
236 100 1
236 106 1
236 113 1
236 114 1
236 121 1
236 126 1
236 136 1
236 145 1
236 148 1
236 154 1
236 175 1
236 198 1
236 205 1
236 209 1
236 215 1
236 216 1
236 217 1
236 223 1
236 225 1
236 232 1
236 234 1
236 243 1
236 246 1
236 253 1
236 256 1
236 260 1
236 261 1
236 265 1
236 269 1
236 273 1
236 292 1
236 293 1
236 306 1
236 311 1
236 319 1
236 329 1
236 334 1
236 340 1
236 349 1
236 352 1
236 354 1
236 359 1
236 363 1
236 369 1
236 393 1
236 399 1
236 415 1
236 422 1
236 428 1
236 436 1
236 438 1
236 452 1
236 461 1
236 466 1
236 473 1
236 476 1
236 485 1
236 489 1
236 495 1
236 497 1
236 499 1
237 1 1
237 2 1
237 6 1
237 7 1
237 20 1
237 25 1
237 26 1
237 39 1
237 40 1
237 49 1
237 50 1
237 51 1
237 76 1
237 78 1
237 86 1
237 87 1
237 90 1
237 91 1
237 96 1
237 97 1
237 99 1
237 109 1
237 116 1
237 119 1
237 123 1
237 125 1
237 130 1
237 131 1
237 141 1
237 142 1
237 147 1
237 156 1
237 157 1
237 161 1
237 182 1
237 186 1
237 200 1
237 216 1
237 218 1
237 220 1
237 227 1
237 231 1
237 234 1
237 235 1
237 243 1
237 251 1
237 255 1
237 258 1
237 260 1
237 263 1
237 266 1
237 270 1
237 280 1
237 281 1
237 287 1
237 288 1
237 296 1
237 297 1
237 303 1
237 305 1
237 309 1
237 315 1
237 321 1
237 323 1
237 328 1
237 337 1
237 342 1
237 349 1
237 353 1
237 372 1
237 377 1
237 379 1
237 381 1
237 383 1
237 385 1
237 386 1
237 393 1
237 395 1
237 401 1
237 415 1
237 420 1
237 421 1
237 424 1
237 431 1
237 433 1
237 439 1
237 441 1
237 445 1
237 451 1
237 454 1
237 455 1
237 461 1
237 463 1
237 466 1
237 480 1
237 483 1
237 494 1
237 495 1
237 500 1
238 4 1
238 9 1
238 10 1
238 11 1
238 21 1
238 25 1
238 27 1
238 29 1
238 34 1
238 35 1
238 39 1
238 46 1
238 49 1
238 58 1
238 60 1
238 61 1
238 64 1
238 75 1
238 85 1
238 92 1
238 94 1
238 98 1
238 110 1
238 119 1
238 122 1
238 125 1
238 127 1
238 131 1
238 141 1
238 143 1
238 154 1
238 159 1
238 162 1
238 177 1
238 178 1
238 195 1
238 202 1
238 205 1
238 213 1
238 214 1
238 220 1
238 224 1
238 226 1
238 227 1
238 229 1
238 230 1
238 239 1
238 242 1
238 246 1
238 257 1
238 258 1
238 261 1
238 265 1
238 269 1
238 270 1
238 271 1
238 275 1
238 282 1
238 288 1
238 291 1
238 292 1
238 294 1
238 305 1
238 308 1
238 309 1
238 316 1
238 318 1
238 319 1
238 321 1
238 329 1
238 330 1
238 338 1
238 348 1
238 355 1
238 365 1
238 366 1
238 379 1
238 382 1
238 387 1
238 392 1
238 397 1
238 403 1
238 406 1
238 407 1
238 415 1
238 418 1
238 422 1
238 423 1
238 425 1
238 433 1
238 436 1
238 439 1
238 449 1
238 456 1
238 463 1
238 464 1
238 477 1
238 495 1
238 499 1
239 2 1
239 11 1
239 13 1
239 15 1
239 29 1
239 58 1
239 63 1
239 65 1
239 68 1
239 76 1
239 87 1
239 88 1
239 92 1
239 102 1
239 106 1
239 112 1
239 113 1
239 117 1
239 119 1
239 120 1
239 126 1
239 141 1
239 147 1
239 149 1
239 155 1
239 159 1
239 160 1
239 165 1
239 166 1
239 172 1
239 175 1
239 176 1
239 179 1
239 187 1
239 190 1
239 192 1
239 204 1
239 211 1
239 216 1
239 217 1
239 224 1
239 229 1
239 234 1
239 238 1
239 259 1
239 260 1
239 262 1
239 271 1
239 272 1
239 273 1
239 274 1
239 280 1
239 286 1
239 289 1
239 296 1
239 299 1
239 309 1
239 313 1
239 318 1
239 319 1
239 329 1
239 332 1
239 340 1
239 342 1
239 345 1
239 353 1
239 359 1
239 361 1
239 364 1
239 369 1
239 372 1
239 373 1
239 374 1
239 377 1
239 381 1
239 389 1
239 392 1
239 393 1
239 394 1
239 395 1
239 397 1
239 398 1
239 405 1
239 411 1
239 412 1
239 425 1
239 432 1
239 435 1
239 439 1
239 441 1
239 442 1
239 453 1
239 462 1
239 470 1
239 472 1
239 475 1
239 477 1
239 478 1
239 479 1
239 486 1
239 487 1
239 493 1
239 496 1
239 498 1
240 3 1
240 4 1
240 7 1
240 13 1
240 14 1
240 20 1
240 23 1
240 24 1
240 31 1
240 33 1
240 36 1
240 39 1
240 41 1
240 46 1
240 51 1
240 53 1
240 62 1
240 65 1
240 67 1
240 68 1
240 75 1
240 78 1
240 84 1
240 89 1
240 91 1
240 99 1
240 100 1
240 104 1
240 107 1
240 109 1
240 115 1
240 116 1
240 128 1
240 130 1
240 134 1
240 136 1
240 137 1
240 138 1
240 139 1
240 153 1
240 163 1
240 166 1
240 180 1
240 185 1
240 187 1
240 189 1
240 199 1
240 200 1
240 204 1
240 209 1
240 210 1
240 218 1
240 219 1
240 253 1
240 265 1
240 268 1
240 270 1
240 277 1
240 287 1
240 294 1
240 296 1
240 298 1
240 301 1
240 304 1
240 312 1
240 313 1
240 314 1
240 318 1
240 320 1
240 322 1
240 323 1
240 324 1
240 325 1
240 342 1
240 347 1
240 363 1
240 365 1
240 367 1
240 368 1
240 374 1
240 375 1
240 381 1
240 405 1
240 409 1
240 410 1
240 411 1
240 414 1
240 442 1
240 445 1
240 451 1
240 460 1
240 461 1
240 464 1
240 466 1
240 467 1
240 488 1
240 494 1
240 497 1
240 500 1
241 3 1
241 4 1
241 14 1
241 23 1
241 32 1
241 43 1
241 46 1
241 51 1
241 59 1
241 60 1
241 61 1
241 65 1
241 68 1
241 78 1
241 81 1
241 82 1
241 89 1
241 94 1
241 103 1
241 114 1
241 115 1
241 117 1
241 127 1
241 129 1
241 141 1
241 144 1
241 152 1
241 157 1
241 158 1
241 160 1
241 162 1
241 164 1
241 167 1
241 175 1
241 176 1
241 177 1
241 179 1
241 184 1
241 196 1
241 200 1
241 203 1
241 207 1
241 208 1
241 209 1
241 218 1
241 225 1
241 227 1
241 235 1
241 242 1
241 244 1
241 249 1
241 251 1
241 255 1
241 262 1
241 265 1
241 268 1
241 269 1
241 271 1
241 282 1
241 291 1
241 292 1
241 294 1
241 298 1
241 302 1
241 303 1
241 309 1
241 312 1
241 318 1
241 324 1
241 325 1
241 328 1
241 343 1
241 347 1
241 370 1
241 372 1
241 374 1
241 376 1
241 380 1
241 384 1
241 392 1
241 397 1
241 398 1
241 399 1
241 400 1
241 403 1
241 405 1
241 415 1
241 427 1
241 435 1
241 437 1
241 447 1
241 449 1
241 459 1
241 471 1
241 474 1
241 480 1
241 484 1
241 490 1
241 495 1
241 496 1
241 499 1
242 3 1
242 8 1
242 19 1
242 22 1
242 26 1
242 29 1
242 45 1
242 53 1
242 57 1
242 60 1
242 65 1
242 80 1
242 81 1
242 86 1
242 88 1
242 90 1
242 91 1
242 95 1
242 106 1
242 107 1
242 109 1
242 129 1
242 138 1
242 139 1
242 141 1
242 149 1
242 153 1
242 154 1
242 161 1
242 166 1
242 167 1
242 187 1
242 189 1
242 203 1
242 205 1
242 207 1
242 211 1
242 212 1
242 216 1
242 219 1
242 224 1
242 228 1
242 229 1
242 232 1
242 234 1
242 238 1
242 241 1
242 243 1
242 251 1
242 254 1
242 256 1
242 257 1
242 262 1
242 265 1
242 267 1
242 273 1
242 274 1
242 284 1
242 285 1
242 286 1
242 292 1
242 293 1
242 295 1
242 300 1
242 303 1
242 304 1
242 306 1
242 316 1
242 322 1
242 327 1
242 330 1
242 336 1
242 349 1
242 353 1
242 358 1
242 360 1
242 363 1
242 364 1
242 369 1
242 373 1
242 378 1
242 379 1
242 385 1
242 387 1
242 393 1
242 395 1
242 400 1
242 402 1
242 406 1
242 408 1
242 412 1
242 417 1
242 419 1
242 421 1
242 438 1
242 452 1
242 456 1
242 462 1
242 464 1
242 466 1
242 471 1
242 479 1
242 480 1
242 487 1
242 492 1
242 497 1
243 3 1
243 4 1
243 8 1
243 10 1
243 13 1
243 24 1
243 27 1
243 32 1
243 36 1
243 37 1
243 56 1
243 57 1
243 60 1
243 61 1
243 73 1
243 74 1
243 80 1
243 82 1
243 85 1
243 91 1
243 92 1
243 97 1
243 100 1
243 109 1
243 110 1
243 112 1
243 116 1
243 123 1
243 127 1
243 129 1
243 138 1
243 139 1
243 140 1
243 142 1
243 158 1
243 162 1
243 164 1
243 168 1
243 170 1
243 171 1
243 175 1
243 176 1
243 182 1
243 186 1
243 195 1
243 196 1
243 201 1
243 209 1
243 210 1
243 212 1
243 213 1
243 220 1
243 226 1
243 231 1
243 232 1
243 236 1
243 237 1
243 242 1
243 245 1
243 252 1
243 255 1
243 258 1
243 266 1
243 268 1
243 272 1
243 274 1
243 280 1
243 282 1
243 286 1
243 288 1
243 294 1
243 295 1
243 310 1
243 313 1
243 314 1
243 316 1
243 322 1
243 324 1
243 330 1
243 333 1
243 334 1
243 338 1
243 342 1
243 344 1
243 348 1
243 353 1
243 358 1
243 359 1
243 364 1
243 373 1
243 375 1
243 383 1
243 384 1
243 385 1
243 388 1
243 390 1
243 400 1
243 408 1
243 419 1
243 421 1
243 422 1
243 442 1
243 447 1
243 469 1
243 476 1
243 480 1
243 481 1
243 486 1
243 498 1
244 9 1
244 28 1
244 37 1
244 49 1
244 51 1
244 57 1
244 59 1
244 83 1
244 85 1
244 87 1
244 94 1
244 97 1
244 99 1
244 133 1
244 138 1
244 166 1
244 175 1
244 180 1
244 187 1
244 206 1
244 210 1
244 214 1
244 216 1
244 222 1
244 223 1
244 225 1
244 227 1
244 230 1
244 231 1
244 233 1
244 241 1
244 245 1
244 252 1
244 254 1
244 257 1
244 261 1
244 265 1
244 269 1
244 271 1
244 272 1
244 273 1
244 276 1
244 280 1
244 281 1
244 283 1
244 285 1
244 293 1
244 295 1
244 305 1
244 317 1
244 318 1
244 323 1
244 324 1
244 341 1
244 342 1
244 348 1
244 350 1
244 351 1
244 352 1
244 353 1
244 358 1
244 360 1
244 365 1
244 374 1
244 379 1
244 381 1
244 383 1
244 384 1
244 388 1
244 391 1
244 392 1
244 394 1
244 400 1
244 410 1
244 412 1
244 425 1
244 428 1
244 430 1
244 434 1
244 436 1
244 439 1
244 445 1
244 458 1
244 469 1
244 484 1
244 497 1
244 500 1
245 2 1
245 21 1
245 30 1
245 32 1
245 41 1
245 43 1
245 44 1
245 46 1
245 53 1
245 57 1
245 58 1
245 68 1
245 72 1
245 77 1
245 85 1
245 104 1
245 106 1
245 107 1
245 110 1
245 111 1
245 112 1
245 113 1
245 124 1
245 147 1
245 157 1
245 158 1
245 159 1
245 161 1
245 163 1
245 170 1
245 175 1
245 179 1
245 180 1
245 188 1
245 191 1
245 193 1
245 216 1
245 219 1
245 222 1
245 231 1
245 243 1
245 244 1
245 246 1
245 249 1
245 258 1
245 262 1
245 271 1
245 272 1
245 274 1
245 278 1
245 281 1
245 283 1
245 287 1
245 289 1
245 313 1
245 326 1
245 328 1
245 334 1
245 345 1
245 347 1
245 359 1
245 362 1
245 364 1
245 375 1
245 378 1
245 380 1
245 383 1
245 385 1
245 392 1
245 395 1
245 403 1
245 405 1
245 413 1
245 417 1
245 422 1
245 425 1
245 426 1
245 427 1
245 428 1
245 429 1
245 430 1
245 437 1
245 440 1
245 442 1
245 444 1
245 450 1
245 457 1
245 470 1
245 471 1
245 472 1
245 488 1
245 489 1
245 497 1
246 4 1
246 9 1
246 11 1
246 17 1
246 20 1
246 21 1
246 28 1
246 29 1
246 30 1
246 45 1
246 47 1
246 50 1
246 56 1
246 65 1
246 70 1
246 72 1
246 83 1
246 88 1
246 90 1
246 91 1
246 94 1
246 97 1
246 98 1
246 101 1
246 103 1
246 106 1
246 107 1
246 110 1
246 112 1
246 113 1
246 120 1
246 126 1
246 127 1
246 130 1
246 133 1
246 136 1
246 138 1
246 143 1
246 157 1
246 164 1
246 169 1
246 170 1
246 176 1
246 177 1
246 190 1
246 193 1
246 196 1
246 197 1
246 200 1
246 207 1
246 212 1
246 215 1
246 234 1
246 236 1
246 238 1
246 245 1
246 252 1
246 259 1
246 260 1
246 263 1
246 264 1
246 267 1
246 270 1
246 280 1
246 282 1
246 288 1
246 300 1
246 302 1
246 314 1
246 319 1
246 320 1
246 333 1
246 336 1
246 344 1
246 352 1
246 354 1
246 355 1
246 362 1
246 366 1
246 373 1
246 376 1
246 380 1
246 385 1
246 387 1
246 401 1
246 402 1
246 404 1
246 405 1
246 407 1
246 408 1
246 409 1
246 412 1
246 417 1
246 426 1
246 435 1
246 439 1
246 444 1
246 448 1
246 455 1
246 472 1
246 476 1
246 482 1
246 488 1
246 489 1
246 498 1
247 12 1
247 15 1
247 18 1
247 19 1
247 27 1
247 29 1
247 31 1
247 35 1
247 44 1
247 48 1
247 52 1
247 53 1
247 57 1
247 58 1
247 59 1
247 79 1
247 83 1
247 85 1
247 93 1
247 94 1
247 101 1
247 108 1
247 109 1
247 112 1
247 116 1
247 118 1
247 120 1
247 129 1
247 133 1
247 135 1
247 146 1
247 147 1
247 149 1
247 150 1
247 151 1
247 158 1
247 161 1
247 165 1
247 176 1
247 181 1
247 185 1
247 186 1
247 195 1
247 200 1
247 204 1
247 212 1
247 220 1
247 221 1
247 233 1
247 234 1
247 248 1
247 266 1
247 272 1
247 275 1
247 279 1
247 285 1
247 288 1
247 296 1
247 298 1
247 306 1
247 307 1
247 308 1
247 324 1
247 326 1
247 328 1
247 331 1
247 339 1
247 341 1
247 344 1
247 358 1
247 360 1
247 376 1
247 378 1
247 386 1
247 395 1
247 399 1
247 405 1
247 407 1
247 430 1
247 435 1
247 439 1
247 440 1
247 444 1
247 449 1
247 451 1
247 455 1
247 473 1
247 482 1
247 484 1
247 488 1
247 490 1
247 496 1
248 7 1
248 10 1
248 14 1
248 18 1
248 21 1
248 24 1
248 27 1
248 28 1
248 30 1
248 40 1
248 61 1
248 64 1
248 74 1
248 78 1
248 86 1
248 89 1
248 93 1
248 95 1
248 99 1
248 102 1
248 105 1
248 106 1
248 116 1
248 119 1
248 126 1
248 131 1
248 135 1
248 138 1
248 145 1
248 147 1
248 156 1
248 157 1
248 159 1
248 160 1
248 161 1
248 171 1
248 172 1
248 183 1
248 187 1
248 188 1
248 194 1
248 195 1
248 206 1
248 216 1
248 225 1
248 226 1
248 227 1
248 247 1
248 251 1
248 265 1
248 287 1
248 299 1
248 301 1
248 302 1
248 305 1
248 311 1
248 314 1
248 322 1
248 331 1
248 334 1
248 335 1
248 336 1
248 338 1
248 351 1
248 355 1
248 359 1
248 366 1
248 370 1
248 371 1
248 376 1
248 380 1
248 383 1
248 384 1
248 394 1
248 396 1
248 397 1
248 398 1
248 403 1
248 410 1
248 411 1
248 417 1
248 431 1
248 434 1
248 438 1
248 441 1
248 444 1
248 456 1
248 463 1
248 477 1
248 484 1
248 485 1
248 487 1
248 492 1
248 493 1
248 495 1
248 499 1
249 2 1
249 3 1
249 13 1
249 16 1
249 25 1
249 34 1
249 39 1
249 43 1
249 45 1
249 51 1
249 54 1
249 56 1
249 57 1
249 58 1
249 70 1
249 72 1
249 73 1
249 76 1
249 87 1
249 88 1
249 91 1
249 104 1
249 106 1
249 110 1
249 116 1
249 118 1
249 129 1
249 134 1
249 138 1
249 142 1
249 144 1
249 148 1
249 155 1
249 156 1
249 159 1
249 160 1
249 162 1
249 174 1
249 181 1
249 183 1
249 184 1
249 190 1
249 192 1
249 193 1
249 206 1
249 212 1
249 218 1
249 219 1
249 225 1
249 241 1
249 245 1
249 250 1
249 254 1
249 256 1
249 279 1
249 282 1
249 289 1
249 294 1
249 297 1
249 298 1
249 302 1
249 307 1
249 310 1
249 312 1
249 313 1
249 323 1
249 324 1
249 326 1
249 329 1
249 332 1
249 337 1
249 350 1
249 351 1
249 352 1
249 353 1
249 354 1
249 355 1
249 358 1
249 359 1
249 361 1
249 365 1
249 369 1
249 372 1
249 375 1
249 379 1
249 392 1
249 400 1
249 401 1
249 405 1
249 408 1
249 409 1
249 411 1
249 413 1
249 416 1
249 420 1
249 424 1
249 427 1
249 433 1
249 438 1
249 439 1
249 442 1
249 448 1
249 469 1
249 470 1
249 481 1
249 482 1
249 483 1
249 487 1
249 490 1
250 1 1
250 3 1
250 17 1
250 21 1
250 24 1
250 26 1
250 27 1
250 28 1
250 35 1
250 54 1
250 55 1
250 60 1
250 61 1
250 62 1
250 77 1
250 84 1
250 101 1
250 106 1
250 121 1
250 124 1
250 125 1
250 126 1
250 127 1
250 128 1
250 131 1
250 136 1
250 147 1
250 150 1
250 151 1
250 157 1
250 158 1
250 162 1
250 163 1
250 164 1
250 181 1
250 185 1
250 195 1
250 201 1
250 204 1
250 211 1
250 212 1
250 213 1
250 216 1
250 221 1
250 224 1
250 234 1
250 249 1
250 251 1
250 255 1
250 259 1
250 261 1
250 262 1
250 264 1
250 266 1
250 267 1
250 269 1
250 270 1
250 271 1
250 279 1
250 280 1
250 281 1
250 287 1
250 296 1
250 297 1
250 304 1
250 307 1
250 312 1
250 313 1
250 321 1
250 325 1
250 326 1
250 327 1
250 329 1
250 330 1
250 335 1
250 337 1
250 345 1
250 353 1
250 357 1
250 363 1
250 372 1
250 377 1
250 382 1
250 383 1
250 384 1
250 407 1
250 412 1
250 415 1
250 417 1
250 426 1
250 433 1
250 437 1
250 440 1
250 448 1
250 449 1
250 451 1
250 458 1
250 462 1
250 465 1
250 469 1
250 470 1
250 482 1
250 485 1
251 4 1
251 6 1
251 12 1
251 18 1
251 27 1
251 34 1
251 40 1
251 41 1
251 50 1
251 53 1
251 55 1
251 56 1
251 64 1
251 68 1
251 69 1
251 73 1
251 86 1
251 109 1
251 113 1
251 119 1
251 120 1
251 123 1
251 139 1
251 141 1
251 161 1
251 166 1
251 168 1
251 172 1
251 179 1
251 188 1
251 192 1
251 198 1
251 202 1
251 207 1
251 209 1
251 212 1
251 213 1
251 224 1
251 226 1
251 230 1
251 232 1
251 235 1
251 237 1
251 241 1
251 242 1
251 248 1
251 250 1
251 252 1
251 255 1
251 258 1
251 264 1
251 272 1
251 273 1
251 279 1
251 285 1
251 287 1
251 295 1
251 296 1
251 303 1
251 308 1
251 310 1
251 317 1
251 342 1
251 345 1
251 347 1
251 348 1
251 355 1
251 370 1
251 374 1
251 383 1
251 389 1
251 390 1
251 393 1
251 397 1
251 406 1
251 411 1
251 415 1
251 416 1
251 420 1
251 422 1
251 431 1
251 436 1
251 439 1
251 441 1
251 445 1
251 447 1
251 467 1
251 474 1
251 475 1
251 477 1
251 479 1
251 485 1
251 496 1
251 500 1
252 1 1
252 6 1
252 10 1
252 14 1
252 15 1
252 18 1
252 22 1
252 26 1
252 31 1
252 35 1
252 42 1
252 44 1
252 48 1
252 55 1
252 61 1
252 62 1
252 63 1
252 65 1
252 75 1
252 92 1
252 97 1
252 99 1
252 110 1
252 112 1
252 113 1
252 114 1
252 115 1
252 121 1
252 133 1
252 134 1
252 137 1
252 142 1
252 152 1
252 154 1
252 162 1
252 164 1
252 167 1
252 170 1
252 178 1
252 179 1
252 181 1
252 185 1
252 188 1
252 190 1
252 193 1
252 199 1
252 211 1
252 219 1
252 223 1
252 227 1
252 228 1
252 230 1
252 232 1
252 243 1
252 244 1
252 246 1
252 251 1
252 266 1
252 271 1
252 278 1
252 288 1
252 293 1
252 294 1
252 296 1
252 299 1
252 301 1
252 304 1
252 306 1
252 308 1
252 314 1
252 318 1
252 324 1
252 325 1
252 331 1
252 344 1
252 348 1
252 349 1
252 351 1
252 356 1
252 360 1
252 363 1
252 365 1
252 366 1
252 368 1
252 371 1
252 386 1
252 387 1
252 389 1
252 394 1
252 396 1
252 404 1
252 405 1
252 410 1
252 417 1
252 422 1
252 427 1
252 428 1
252 430 1
252 434 1
252 435 1
252 441 1
252 442 1
252 454 1
252 460 1
252 466 1
252 467 1
252 468 1
252 470 1
252 473 1
252 479 1
252 482 1
252 486 1
252 488 1
252 491 1
252 493 1
252 496 1
253 3 1
253 5 1
253 16 1
253 20 1
253 27 1
253 37 1
253 38 1
253 40 1
253 41 1
253 47 1
253 49 1
253 53 1
253 62 1
253 63 1
253 70 1
253 76 1
253 77 1
253 82 1
253 84 1
253 86 1
253 91 1
253 92 1
253 96 1
253 97 1
253 99 1
253 100 1
253 103 1
253 107 1
253 109 1
253 112 1
253 120 1
253 127 1
253 129 1
253 130 1
253 133 1
253 134 1
253 136 1
253 147 1
253 154 1
253 158 1
253 165 1
253 166 1
253 171 1
253 172 1
253 178 1
253 180 1
253 182 1
253 191 1
253 195 1
253 203 1
253 212 1
253 215 1
253 218 1
253 221 1
253 227 1
253 232 1
253 236 1
253 240 1
253 272 1
253 282 1
253 284 1
253 285 1
253 286 1
253 287 1
253 289 1
253 290 1
253 303 1
253 310 1
253 312 1
253 315 1
253 318 1
253 319 1
253 320 1
253 329 1
253 334 1
253 337 1
253 339 1
253 340 1
253 348 1
253 350 1
253 351 1
253 364 1
253 368 1
253 370 1
253 372 1
253 379 1
253 380 1
253 384 1
253 391 1
253 397 1
253 400 1
253 410 1
253 411 1
253 412 1
253 416 1
253 417 1
253 419 1
253 420 1
253 423 1
253 432 1
253 435 1
253 440 1
253 446 1
253 449 1
253 455 1
253 461 1
253 467 1
253 471 1
253 477 1
253 480 1
253 483 1
253 490 1
253 491 1
253 494 1
253 495 1
253 499 1
254 1 1
254 9 1
254 15 1
254 22 1
254 25 1
254 26 1
254 31 1
254 34 1
254 41 1
254 43 1
254 44 1
254 47 1
254 56 1
254 60 1
254 63 1
254 64 1
254 66 1
254 67 1
254 68 1
254 69 1
254 79 1
254 83 1
254 84 1
254 86 1
254 91 1
254 93 1
254 99 1
254 100 1
254 102 1
254 112 1
254 117 1
254 122 1
254 123 1
254 126 1
254 132 1
254 134 1
254 135 1
254 140 1
254 141 1
254 145 1
254 148 1
254 150 1
254 153 1
254 154 1
254 164 1
254 166 1
254 173 1
254 182 1
254 188 1
254 193 1
254 196 1
254 203 1
254 205 1
254 211 1
254 212 1
254 222 1
254 224 1
254 230 1
254 242 1
254 244 1
254 249 1
254 257 1
254 269 1
254 276 1
254 278 1
254 279 1
254 282 1
254 285 1
254 286 1
254 295 1
254 296 1
254 297 1
254 299 1
254 313 1
254 318 1
254 321 1
254 328 1
254 339 1
254 357 1
254 375 1
254 377 1
254 380 1
254 383 1
254 393 1
254 394 1
254 400 1
254 407 1
254 409 1
254 411 1
254 423 1
254 437 1
254 439 1
254 440 1
254 455 1
254 456 1
254 460 1
254 462 1
254 470 1
254 471 1
254 486 1
254 487 1
254 495 1
254 496 1
254 497 1
255 6 1
255 10 1
255 15 1
255 28 1
255 50 1
255 61 1
255 65 1
255 66 1
255 70 1
255 71 1
255 77 1
255 87 1
255 90 1
255 95 1
255 105 1
255 106 1
255 109 1
255 113 1
255 118 1
255 130 1
255 145 1
255 159 1
255 160 1
255 164 1
255 167 1
255 177 1
255 181 1
255 183 1
255 186 1
255 197 1
255 199 1
255 200 1
255 203 1
255 205 1
255 214 1
255 223 1
255 237 1
255 241 1
255 243 1
255 250 1
255 251 1
255 271 1
255 272 1
255 283 1
255 286 1
255 289 1
255 290 1
255 301 1
255 302 1
255 305 1
255 312 1
255 315 1
255 323 1
255 332 1
255 343 1
255 345 1
255 348 1
255 353 1
255 356 1
255 360 1
255 371 1
255 376 1
255 382 1
255 396 1
255 410 1
255 416 1
255 434 1
255 435 1
255 436 1
255 437 1
255 440 1
255 443 1
255 448 1
255 452 1
255 469 1
255 470 1
255 473 1
255 475 1
255 483 1
255 484 1
255 486 1
255 492 1
255 496 1
256 5 1
256 9 1
256 12 1
256 24 1
256 36 1
256 37 1
256 39 1
256 44 1
256 47 1
256 59 1
256 62 1
256 64 1
256 75 1
256 78 1
256 80 1
256 95 1
256 118 1
256 128 1
256 129 1
256 134 1
256 143 1
256 158 1
256 163 1
256 164 1
256 167 1
256 168 1
256 177 1
256 189 1
256 192 1
256 196 1
256 200 1
256 207 1
256 208 1
256 211 1
256 217 1
256 230 1
256 232 1
256 236 1
256 242 1
256 249 1
256 260 1
256 261 1
256 264 1
256 267 1
256 270 1
256 281 1
256 285 1
256 300 1
256 304 1
256 305 1
256 317 1
256 333 1
256 358 1
256 360 1
256 363 1
256 366 1
256 368 1
256 373 1
256 377 1
256 379 1
256 395 1
256 398 1
256 402 1
256 404 1
256 405 1
256 409 1
256 418 1
256 420 1
256 421 1
256 425 1
256 428 1
256 431 1
256 432 1
256 433 1
256 438 1
256 446 1
256 450 1
256 452 1
256 460 1
256 462 1
256 477 1
256 481 1
256 484 1
256 485 1
256 489 1
256 490 1
256 493 1
256 497 1
257 2 1
257 14 1
257 16 1
257 19 1
257 22 1
257 28 1
257 36 1
257 37 1
257 46 1
257 51 1
257 52 1
257 61 1
257 63 1
257 66 1
257 78 1
257 86 1
257 88 1
257 89 1
257 90 1
257 93 1
257 99 1
257 101 1
257 103 1
257 114 1
257 122 1
257 123 1
257 131 1
257 132 1
257 137 1
257 142 1
257 148 1
257 150 1
257 155 1
257 161 1
257 164 1
257 170 1
257 175 1
257 197 1
257 199 1
257 203 1
257 216 1
257 225 1
257 238 1
257 242 1
257 244 1
257 254 1
257 258 1
257 266 1
257 274 1
257 277 1
257 295 1
257 300 1
257 305 1
257 320 1
257 335 1
257 339 1
257 341 1
257 344 1
257 349 1
257 353 1
257 354 1
257 359 1
257 364 1
257 365 1
257 366 1
257 367 1
257 375 1
257 376 1
257 380 1
257 384 1
257 391 1
257 392 1
257 405 1
257 416 1
257 422 1
257 423 1
257 425 1
257 427 1
257 438 1
257 440 1
257 445 1
257 460 1
257 462 1
257 465 1
257 469 1
257 473 1
257 483 1
257 485 1
257 491 1
257 495 1
258 9 1
258 17 1
258 21 1
258 24 1
258 29 1
258 30 1
258 32 1
258 34 1
258 45 1
258 55 1
258 60 1
258 61 1
258 65 1
258 84 1
258 86 1
258 93 1
258 97 1
258 106 1
258 108 1
258 113 1
258 114 1
258 119 1
258 126 1
258 131 1
258 141 1
258 142 1
258 147 1
258 149 1
258 156 1
258 157 1
258 160 1
258 164 1
258 171 1
258 174 1
258 184 1
258 187 1
258 190 1
258 194 1
258 196 1
258 200 1
258 207 1
258 209 1
258 214 1
258 216 1
258 217 1
258 224 1
258 234 1
258 237 1
258 238 1
258 243 1
258 245 1
258 251 1
258 257 1
258 268 1
258 271 1
258 276 1
258 281 1
258 285 1
258 295 1
258 296 1
258 300 1
258 301 1
258 303 1
258 309 1
258 310 1
258 311 1
258 313 1
258 315 1
258 317 1
258 335 1
258 346 1
258 348 1
258 349 1
258 350 1
258 358 1
258 362 1
258 369 1
258 380 1
258 386 1
258 387 1
258 400 1
258 407 1
258 411 1
258 425 1
258 426 1
258 435 1
258 437 1
258 441 1
258 447 1
258 452 1
258 454 1
258 462 1
258 469 1
258 473 1
258 476 1
258 477 1
258 482 1
258 487 1
258 490 1
258 497 1
259 1 1
259 2 1
259 3 1
259 8 1
259 16 1
259 21 1
259 24 1
259 32 1
259 34 1
259 38 1
259 42 1
259 46 1
259 48 1
259 58 1
259 62 1
259 63 1
259 82 1
259 83 1
259 87 1
259 88 1
259 90 1
259 91 1
259 95 1
259 96 1
259 98 1
259 102 1
259 107 1
259 108 1
259 117 1
259 121 1
259 125 1
259 150 1
259 157 1
259 166 1
259 167 1
259 168 1
259 169 1
259 181 1
259 186 1
259 190 1
259 191 1
259 193 1
259 195 1
259 210 1
259 211 1
259 223 1
259 224 1
259 228 1
259 239 1
259 246 1
259 250 1
259 267 1
259 268 1
259 272 1
259 277 1
259 278 1
259 282 1
259 284 1
259 287 1
259 291 1
259 296 1
259 301 1
259 304 1
259 323 1
259 330 1
259 335 1
259 338 1
259 339 1
259 352 1
259 357 1
259 358 1
259 363 1
259 366 1
259 369 1
259 373 1
259 375 1
259 392 1
259 397 1
259 401 1
259 402 1
259 404 1
259 408 1
259 411 1
259 415 1
259 417 1
259 423 1
259 430 1
259 433 1
259 442 1
259 448 1
259 453 1
259 459 1
259 460 1
259 469 1
259 491 1
259 494 1
260 4 1
260 10 1
260 11 1
260 13 1
260 22 1
260 29 1
260 35 1
260 37 1
260 51 1
260 74 1
260 80 1
260 89 1
260 90 1
260 96 1
260 105 1
260 106 1
260 107 1
260 115 1
260 118 1
260 120 1
260 121 1
260 122 1
260 124 1
260 127 1
260 134 1
260 137 1
260 139 1
260 141 1
260 144 1
260 146 1
260 151 1
260 165 1
260 166 1
260 169 1
260 176 1
260 182 1
260 185 1
260 187 1
260 190 1
260 192 1
260 201 1
260 205 1
260 209 1
260 214 1
260 215 1
260 216 1
260 218 1
260 220 1
260 224 1
260 232 1
260 234 1
260 235 1
260 236 1
260 237 1
260 239 1
260 246 1
260 256 1
260 264 1
260 265 1
260 274 1
260 276 1
260 284 1
260 289 1
260 292 1
260 296 1
260 299 1
260 313 1
260 314 1
260 324 1
260 334 1
260 335 1
260 338 1
260 349 1
260 361 1
260 367 1
260 371 1
260 378 1
260 383 1
260 392 1
260 393 1
260 396 1
260 407 1
260 408 1
260 410 1
260 416 1
260 419 1
260 426 1
260 429 1
260 435 1
260 439 1
260 446 1
260 450 1
260 461 1
260 463 1
260 465 1
260 468 1
260 469 1
260 484 1
260 487 1
260 489 1
260 490 1
260 497 1
260 498 1
261 1 1
261 13 1
261 18 1
261 30 1
261 31 1
261 36 1
261 37 1
261 38 1
261 39 1
261 46 1
261 58 1
261 59 1
261 63 1
261 72 1
261 73 1
261 76 1
261 77 1
261 83 1
261 105 1
261 110 1
261 114 1
261 121 1
261 122 1
261 123 1
261 137 1
261 141 1
261 144 1
261 150 1
261 156 1
261 161 1
261 165 1
261 179 1
261 180 1
261 186 1
261 187 1
261 190 1
261 200 1
261 204 1
261 212 1
261 220 1
261 234 1
261 236 1
261 238 1
261 244 1
261 250 1
261 256 1
261 262 1
261 267 1
261 268 1
261 269 1
261 270 1
261 271 1
261 272 1
261 280 1
261 286 1
261 288 1
261 292 1
261 303 1
261 309 1
261 317 1
261 318 1
261 323 1
261 328 1
261 331 1
261 332 1
261 335 1
261 341 1
261 344 1
261 345 1
261 349 1
261 351 1
261 352 1
261 360 1
261 374 1
261 381 1
261 391 1
261 395 1
261 402 1
261 404 1
261 408 1
261 421 1
261 427 1
261 429 1
261 433 1
261 437 1
261 439 1
261 440 1
261 442 1
261 453 1
261 463 1
261 468 1
261 471 1
261 481 1
261 490 1
261 492 1
262 6 1
262 22 1
262 24 1
262 25 1
262 27 1
262 32 1
262 41 1
262 43 1
262 45 1
262 52 1
262 60 1
262 61 1
262 70 1
262 73 1
262 78 1
262 93 1
262 95 1
262 97 1
262 102 1
262 103 1
262 104 1
262 107 1
262 112 1
262 120 1
262 125 1
262 132 1
262 141 1
262 144 1
262 148 1
262 152 1
262 164 1
262 165 1
262 170 1
262 177 1
262 179 1
262 185 1
262 191 1
262 194 1
262 198 1
262 201 1
262 206 1
262 209 1
262 213 1
262 229 1
262 233 1
262 234 1
262 239 1
262 241 1
262 242 1
262 245 1
262 250 1
262 261 1
262 263 1
262 268 1
262 281 1
262 282 1
262 284 1
262 285 1
262 287 1
262 288 1
262 314 1
262 315 1
262 322 1
262 323 1
262 325 1
262 326 1
262 328 1
262 329 1
262 330 1
262 332 1
262 336 1
262 341 1
262 342 1
262 343 1
262 351 1
262 353 1
262 355 1
262 358 1
262 367 1
262 368 1
262 375 1
262 389 1
262 393 1
262 395 1
262 401 1
262 404 1
262 413 1
262 419 1
262 420 1
262 431 1
262 441 1
262 443 1
262 448 1
262 454 1
262 456 1
262 457 1
262 466 1
262 471 1
262 473 1
262 474 1
262 477 1
262 481 1
262 484 1
262 491 1
263 1 1
263 2 1
263 12 1
263 13 1
263 25 1
263 32 1
263 34 1
263 37 1
263 39 1
263 43 1
263 44 1
263 45 1
263 47 1
263 50 1
263 51 1
263 52 1
263 53 1
263 56 1
263 58 1
263 63 1
263 64 1
263 68 1
263 70 1
263 74 1
263 78 1
263 83 1
263 98 1
263 99 1
263 100 1
263 101 1
263 102 1
263 113 1
263 114 1
263 121 1
263 126 1
263 128 1
263 133 1
263 145 1
263 150 1
263 161 1
263 162 1
263 163 1
263 175 1
263 176 1
263 177 1
263 185 1
263 186 1
263 189 1
263 190 1
263 191 1
263 197 1
263 198 1
263 201 1
263 215 1
263 216 1
263 217 1
263 221 1
263 222 1
263 228 1
263 229 1
263 237 1
263 246 1
263 262 1
263 279 1
263 280 1
263 281 1
263 288 1
263 295 1
263 297 1
263 299 1
263 308 1
263 311 1
263 316 1
263 331 1
263 338 1
263 340 1
263 342 1
263 344 1
263 350 1
263 351 1
263 355 1
263 359 1
263 363 1
263 370 1
263 374 1
263 382 1
263 389 1
263 391 1
263 399 1
263 402 1
263 407 1
263 411 1
263 417 1
263 423 1
263 425 1
263 426 1
263 428 1
263 429 1
263 430 1
263 434 1
263 437 1
263 448 1
263 449 1
263 451 1
263 455 1
263 458 1
263 460 1
263 466 1
263 479 1
263 481 1
263 483 1
263 485 1
263 492 1
263 496 1
264 5 1
264 10 1
264 14 1
264 19 1
264 23 1
264 25 1
264 30 1
264 34 1
264 38 1
264 43 1
264 47 1
264 48 1
264 54 1
264 57 1
264 64 1
264 74 1
264 77 1
264 80 1
264 89 1
264 91 1
264 92 1
264 95 1
264 97 1
264 104 1
264 108 1
264 111 1
264 114 1
264 117 1
264 125 1
264 130 1
264 136 1
264 141 1
264 144 1
264 161 1
264 175 1
264 179 1
264 181 1
264 182 1
264 183 1
264 186 1
264 191 1
264 196 1
264 197 1
264 205 1
264 208 1
264 214 1
264 223 1
264 225 1
264 229 1
264 246 1
264 250 1
264 251 1
264 256 1
264 260 1
264 278 1
264 283 1
264 284 1
264 297 1
264 310 1
264 315 1
264 321 1
264 323 1
264 329 1
264 336 1
264 343 1
264 362 1
264 366 1
264 368 1
264 376 1
264 377 1
264 381 1
264 395 1
264 403 1
264 415 1
264 418 1
264 427 1
264 428 1
264 430 1
264 441 1
264 445 1
264 447 1
264 448 1
264 453 1
264 455 1
264 456 1
264 460 1
264 461 1
264 469 1
264 470 1
264 472 1
264 473 1
264 475 1
264 482 1
264 485 1
264 487 1
264 490 1
264 497 1
264 500 1
265 1 1
265 2 1
265 3 1
265 10 1
265 11 1
265 14 1
265 16 1
265 22 1
265 24 1
265 26 1
265 28 1
265 30 1
265 33 1
265 35 1
265 40 1
265 44 1
265 51 1
265 52 1
265 53 1
265 54 1
265 56 1
265 57 1
265 67 1
265 74 1
265 81 1
265 98 1
265 109 1
265 113 1
265 115 1
265 130 1
265 140 1
265 141 1
265 147 1
265 149 1
265 160 1
265 162 1
265 165 1
265 166 1
265 178 1
265 182 1
265 184 1
265 190 1
265 192 1
265 208 1
265 209 1
265 215 1
265 225 1
265 226 1
265 235 1
265 236 1
265 238 1
265 240 1
265 241 1
265 242 1
265 244 1
265 248 1
265 260 1
265 271 1
265 272 1
265 278 1
265 289 1
265 290 1
265 292 1
265 294 1
265 300 1
265 305 1
265 306 1
265 308 1
265 315 1
265 317 1
265 320 1
265 323 1
265 330 1
265 332 1
265 340 1
265 352 1
265 353 1
265 354 1
265 357 1
265 361 1
265 364 1
265 366 1
265 368 1
265 374 1
265 384 1
265 385 1
265 387 1
265 393 1
265 394 1
265 395 1
265 401 1
265 402 1
265 419 1
265 425 1
265 429 1
265 436 1
265 440 1
265 455 1
265 459 1
265 464 1
265 465 1
265 477 1
265 480 1
265 491 1
266 1 1
266 24 1
266 25 1
266 34 1
266 44 1
266 46 1
266 52 1
266 59 1
266 64 1
266 74 1
266 75 1
266 78 1
266 90 1
266 98 1
266 101 1
266 104 1
266 105 1
266 108 1
266 113 1
266 115 1
266 132 1
266 133 1
266 138 1
266 142 1
266 154 1
266 162 1
266 165 1
266 167 1
266 170 1
266 188 1
266 191 1
266 196 1
266 200 1
266 205 1
266 206 1
266 215 1
266 219 1
266 226 1
266 228 1
266 237 1
266 243 1
266 247 1
266 250 1
266 252 1
266 257 1
266 269 1
266 271 1
266 272 1
266 273 1
266 275 1
266 284 1
266 287 1
266 294 1
266 304 1
266 323 1
266 328 1
266 337 1
266 341 1
266 345 1
266 347 1
266 348 1
266 357 1
266 365 1
266 366 1
266 374 1
266 375 1
266 392 1
266 396 1
266 397 1
266 399 1
266 401 1
266 403 1
266 424 1
266 431 1
266 432 1
266 436 1
266 437 1
266 443 1
266 444 1
266 445 1
266 448 1
266 451 1
266 457 1
266 474 1
266 479 1
266 480 1
266 481 1
266 482 1
266 483 1
266 494 1
266 500 1
267 1 1
267 3 1
267 4 1
267 5 1
267 6 1
267 43 1
267 53 1
267 56 1
267 63 1
267 65 1
267 79 1
267 86 1
267 87 1
267 91 1
267 92 1
267 97 1
267 107 1
267 108 1
267 111 1
267 118 1
267 127 1
267 131 1
267 133 1
267 142 1
267 145 1
267 147 1
267 152 1
267 156 1
267 160 1
267 165 1
267 170 1
267 171 1
267 181 1
267 182 1
267 183 1
267 186 1
267 194 1
267 201 1
267 207 1
267 225 1
267 234 1
267 242 1
267 246 1
267 250 1
267 256 1
267 259 1
267 261 1
267 280 1
267 285 1
267 290 1
267 291 1
267 298 1
267 301 1
267 306 1
267 309 1
267 313 1
267 314 1
267 317 1
267 323 1
267 339 1
267 340 1
267 346 1
267 347 1
267 353 1
267 354 1
267 361 1
267 366 1
267 368 1
267 369 1
267 370 1
267 371 1
267 372 1
267 375 1
267 377 1
267 379 1
267 383 1
267 384 1
267 388 1
267 395 1
267 402 1
267 405 1
267 411 1
267 417 1
267 421 1
267 426 1
267 427 1
267 432 1
267 447 1
267 450 1
267 453 1
267 454 1
267 464 1
267 474 1
267 480 1
267 483 1
267 487 1
267 489 1
267 490 1
267 495 1
268 6 1
268 7 1
268 9 1
268 10 1
268 21 1
268 27 1
268 32 1
268 33 1
268 42 1
268 48 1
268 56 1
268 58 1
268 61 1
268 63 1
268 66 1
268 71 1
268 75 1
268 77 1
268 81 1
268 85 1
268 98 1
268 101 1
268 102 1
268 107 1
268 118 1
268 121 1
268 132 1
268 134 1
268 139 1
268 141 1
268 147 1
268 148 1
268 163 1
268 167 1
268 168 1
268 171 1
268 176 1
268 178 1
268 184 1
268 185 1
268 203 1
268 204 1
268 207 1
268 212 1
268 224 1
268 232 1
268 240 1
268 241 1
268 243 1
268 258 1
268 259 1
268 261 1
268 262 1
268 273 1
268 279 1
268 280 1
268 287 1
268 294 1
268 296 1
268 302 1
268 305 1
268 314 1
268 319 1
268 325 1
268 326 1
268 328 1
268 342 1
268 345 1
268 346 1
268 348 1
268 359 1
268 361 1
268 363 1
268 367 1
268 375 1
268 379 1
268 385 1
268 389 1
268 390 1
268 394 1
268 407 1
268 411 1
268 412 1
268 419 1
268 420 1
268 424 1
268 432 1
268 433 1
268 442 1
268 443 1
268 444 1
268 449 1
268 451 1
268 461 1
268 464 1
268 471 1
268 477 1
268 484 1
269 5 1
269 16 1
269 22 1
269 24 1
269 25 1
269 31 1
269 34 1
269 40 1
269 42 1
269 44 1
269 49 1
269 53 1
269 55 1
269 61 1
269 66 1
269 67 1
269 74 1
269 76 1
269 78 1
269 83 1
269 85 1
269 87 1
269 96 1
269 97 1
269 98 1
269 101 1
269 105 1
269 111 1
269 127 1
269 128 1
269 129 1
269 141 1
269 146 1
269 148 1
269 155 1
269 165 1
269 173 1
269 184 1
269 185 1
269 189 1
269 196 1
269 209 1
269 213 1
269 216 1
269 217 1
269 218 1
269 232 1
269 236 1
269 238 1
269 241 1
269 244 1
269 250 1
269 254 1
269 261 1
269 266 1
269 273 1
269 280 1
269 281 1
269 282 1
269 284 1
269 295 1
269 297 1
269 308 1
269 314 1
269 319 1
269 327 1
269 331 1
269 332 1
269 341 1
269 345 1
269 355 1
269 357 1
269 359 1
269 360 1
269 364 1
269 368 1
269 381 1
269 382 1
269 389 1
269 392 1
269 393 1
269 394 1
269 415 1
269 417 1
269 419 1
269 422 1
269 425 1
269 433 1
269 438 1
269 439 1
269 441 1
269 455 1
269 457 1
269 461 1
269 467 1
269 473 1
269 476 1
269 490 1
269 496 1
269 498 1
269 499 1
270 4 1
270 7 1
270 17 1
270 20 1
270 25 1
270 31 1
270 37 1
270 38 1
270 39 1
270 42 1
270 52 1
270 53 1
270 73 1
270 76 1
270 78 1
270 80 1
270 87 1
270 88 1
270 89 1
270 92 1
270 96 1
270 98 1
270 105 1
270 110 1
270 111 1
270 116 1
270 122 1
270 141 1
270 144 1
270 145 1
270 153 1
270 157 1
270 159 1
270 160 1
270 163 1
270 164 1
270 168 1
270 171 1
270 174 1
270 190 1
270 194 1
270 195 1
270 201 1
270 217 1
270 223 1
270 224 1
270 233 1
270 237 1
270 238 1
270 240 1
270 246 1
270 250 1
270 256 1
270 261 1
270 284 1
270 291 1
270 297 1
270 299 1
270 302 1
270 303 1
270 308 1
270 310 1
270 314 1
270 316 1
270 318 1
270 325 1
270 329 1
270 332 1
270 333 1
270 335 1
270 342 1
270 345 1
270 353 1
270 357 1
270 364 1
270 369 1
270 374 1
270 377 1
270 387 1
270 392 1
270 393 1
270 396 1
270 397 1
270 398 1
270 399 1
270 402 1
270 409 1
270 416 1
270 420 1
270 430 1
270 441 1
270 442 1
270 444 1
270 448 1
270 458 1
270 463 1
270 466 1
270 467 1
270 478 1
270 480 1
270 483 1
270 489 1
270 491 1
270 495 1
270 500 1
271 8 1
271 16 1
271 22 1
271 26 1
271 41 1
271 48 1
271 62 1
271 69 1
271 75 1
271 82 1
271 85 1
271 91 1
271 97 1
271 101 1
271 122 1
271 123 1
271 125 1
271 137 1
271 150 1
271 152 1
271 154 1
271 163 1
271 164 1
271 181 1
271 182 1
271 193 1
271 195 1
271 201 1
271 210 1
271 213 1
271 215 1
271 216 1
271 219 1
271 220 1
271 230 1
271 232 1
271 238 1
271 239 1
271 241 1
271 244 1
271 245 1
271 250 1
271 252 1
271 255 1
271 258 1
271 261 1
271 265 1
271 266 1
271 273 1
271 275 1
271 285 1
271 287 1
271 289 1
271 295 1
271 296 1
271 324 1
271 325 1
271 336 1
271 337 1
271 340 1
271 343 1
271 348 1
271 356 1
271 361 1
271 364 1
271 366 1
271 367 1
271 369 1
271 373 1
271 377 1
271 378 1
271 385 1
271 395 1
271 401 1
271 408 1
271 419 1
271 427 1
271 434 1
271 441 1
271 445 1
271 446 1
271 449 1
271 450 1
271 458 1
271 463 1
271 467 1
271 472 1
271 476 1
271 481 1
271 488 1
271 489 1
271 499 1
272 5 1
272 6 1
272 9 1
272 16 1
272 18 1
272 19 1
272 20 1
272 23 1
272 24 1
272 29 1
272 33 1
272 36 1
272 41 1
272 49 1
272 56 1
272 60 1
272 63 1
272 64 1
272 71 1
272 73 1
272 77 1
272 85 1
272 87 1
272 92 1
272 97 1
272 101 1
272 105 1
272 109 1
272 119 1
272 120 1
272 125 1
272 131 1
272 138 1
272 146 1
272 150 1
272 152 1
272 156 1
272 160 1
272 161 1
272 165 1
272 182 1
272 190 1
272 197 1
272 199 1
272 202 1
272 206 1
272 208 1
272 211 1
272 212 1
272 227 1
272 228 1
272 231 1
272 234 1
272 239 1
272 243 1
272 244 1
272 245 1
272 247 1
272 251 1
272 253 1
272 255 1
272 259 1
272 261 1
272 265 1
272 266 1
272 274 1
272 277 1
272 284 1
272 287 1
272 296 1
272 302 1
272 307 1
272 313 1
272 317 1
272 322 1
272 335 1
272 346 1
272 360 1
272 361 1
272 366 1
272 382 1
272 385 1
272 390 1
272 396 1
272 402 1
272 406 1
272 411 1
272 434 1
272 436 1
272 437 1
272 449 1
272 453 1
272 456 1
272 463 1
272 472 1
272 476 1
272 481 1
272 482 1
272 486 1
272 490 1
272 494 1
273 4 1
273 9 1
273 10 1
273 16 1
273 17 1
273 20 1
273 24 1
273 28 1
273 29 1
273 34 1
273 41 1
273 61 1
273 66 1
273 72 1
273 74 1
273 77 1
273 81 1
273 93 1
273 94 1
273 99 1
273 102 1
273 104 1
273 115 1
273 116 1
273 124 1
273 130 1
273 131 1
273 132 1
273 134 1
273 140 1
273 146 1
273 154 1
273 156 1
273 161 1
273 173 1
273 182 1
273 183 1
273 185 1
273 187 1
273 193 1
273 198 1
273 206 1
273 209 1
273 219 1
273 220 1
273 221 1
273 222 1
273 223 1
273 233 1
273 236 1
273 239 1
273 242 1
273 244 1
273 251 1
273 266 1
273 268 1
273 269 1
273 271 1
273 283 1
273 284 1
273 286 1
273 294 1
273 295 1
273 297 1
273 313 1
273 315 1
273 319 1
273 320 1
273 321 1
273 323 1
273 324 1
273 325 1
273 328 1
273 329 1
273 331 1
273 336 1
273 346 1
273 366 1
273 367 1
273 370 1
273 371 1
273 372 1
273 378 1
273 384 1
273 398 1
273 413 1
273 414 1
273 418 1
273 424 1
273 429 1
273 431 1
273 437 1
273 447 1
273 453 1
273 460 1
273 463 1
273 467 1
273 473 1
273 484 1
273 485 1
273 495 1
274 7 1
274 8 1
274 9 1
274 25 1
274 29 1
274 31 1
274 35 1
274 38 1
274 52 1
274 65 1
274 66 1
274 72 1
274 84 1
274 98 1
274 99 1
274 104 1
274 109 1
274 110 1
274 113 1
274 115 1
274 125 1
274 127 1
274 130 1
274 134 1
274 142 1
274 144 1
274 146 1
274 149 1
274 162 1
274 164 1
274 167 1
274 171 1
274 172 1
274 175 1
274 176 1
274 202 1
274 206 1
274 207 1
274 212 1
274 213 1
274 219 1
274 223 1
274 226 1
274 231 1
274 233 1
274 239 1
274 242 1
274 243 1
274 245 1
274 257 1
274 260 1
274 272 1
274 281 1
274 284 1
274 285 1
274 295 1
274 310 1
274 317 1
274 318 1
274 330 1
274 337 1
274 343 1
274 344 1
274 348 1
274 354 1
274 360 1
274 368 1
274 369 1
274 370 1
274 371 1
274 375 1
274 382 1
274 388 1
274 390 1
274 399 1
274 408 1
274 412 1
274 417 1
274 418 1
274 421 1
274 434 1
274 436 1
274 439 1
274 451 1
274 453 1
274 456 1
274 462 1
274 465 1
274 471 1
274 476 1
274 480 1
274 490 1
275 1 1
275 4 1
275 8 1
275 10 1
275 11 1
275 15 1
275 23 1
275 24 1
275 28 1
275 31 1
275 34 1
275 39 1
275 40 1
275 43 1
275 46 1
275 52 1
275 54 1
275 58 1
275 59 1
275 70 1
275 72 1
275 92 1
275 94 1
275 97 1
275 102 1
275 110 1
275 115 1
275 116 1
275 122 1
275 133 1
275 136 1
275 142 1
275 150 1
275 157 1
275 158 1
275 159 1
275 162 1
275 164 1
275 169 1
275 170 1
275 174 1
275 175 1
275 179 1
275 181 1
275 185 1
275 189 1
275 192 1
275 200 1
275 205 1
275 209 1
275 210 1
275 220 1
275 223 1
275 229 1
275 238 1
275 247 1
275 266 1
275 271 1
275 277 1
275 278 1
275 284 1
275 288 1
275 291 1
275 293 1
275 296 1
275 300 1
275 301 1
275 303 1
275 308 1
275 309 1
275 313 1
275 315 1
275 319 1
275 326 1
275 331 1
275 332 1
275 334 1
275 337 1
275 340 1
275 344 1
275 353 1
275 354 1
275 360 1
275 364 1
275 367 1
275 373 1
275 374 1
275 382 1
275 383 1
275 386 1
275 387 1
275 392 1
275 393 1
275 405 1
275 416 1
275 419 1
275 423 1
275 424 1
275 426 1
275 429 1
275 434 1
275 437 1
275 465 1
275 466 1
275 467 1
275 469 1
276 2 1
276 5 1
276 11 1
276 18 1
276 19 1
276 22 1
276 25 1
276 29 1
276 32 1
276 34 1
276 39 1
276 51 1
276 69 1
276 72 1
276 75 1
276 76 1
276 77 1
276 79 1
276 90 1
276 92 1
276 96 1
276 97 1
276 98 1
276 99 1
276 100 1
276 104 1
276 106 1
276 108 1
276 112 1
276 137 1
276 139 1
276 143 1
276 144 1
276 147 1
276 149 1
276 154 1
276 156 1
276 157 1
276 165 1
276 166 1
276 171 1
276 176 1
276 179 1
276 184 1
276 187 1
276 191 1
276 198 1
276 205 1
276 209 1
276 212 1
276 213 1
276 218 1
276 224 1
276 232 1
276 244 1
276 254 1
276 258 1
276 260 1
276 278 1
276 279 1
276 281 1
276 291 1
276 293 1
276 296 1
276 301 1
276 306 1
276 309 1
276 319 1
276 321 1
276 324 1
276 325 1
276 332 1
276 333 1
276 343 1
276 346 1
276 348 1
276 350 1
276 352 1
276 353 1
276 354 1
276 355 1
276 359 1
276 365 1
276 366 1
276 368 1
276 370 1
276 380 1
276 397 1
276 398 1
276 401 1
276 402 1
276 404 1
276 407 1
276 418 1
276 431 1
276 435 1
276 436 1
276 439 1
276 441 1
276 448 1
276 459 1
276 463 1
276 473 1
276 475 1
276 483 1
276 496 1
277 4 1
277 6 1
277 11 1
277 21 1
277 27 1
277 29 1
277 36 1
277 40 1
277 47 1
277 51 1
277 52 1
277 53 1
277 60 1
277 68 1
277 69 1
277 71 1
277 79 1
277 88 1
277 89 1
277 90 1
277 107 1
277 109 1
277 114 1
277 124 1
277 139 1
277 142 1
277 151 1
277 160 1
277 161 1
277 162 1
277 167 1
277 172 1
277 175 1
277 176 1
277 183 1
277 194 1
277 200 1
277 207 1
277 209 1
277 210 1
277 211 1
277 213 1
277 216 1
277 226 1
277 240 1
277 257 1
277 259 1
277 272 1
277 275 1
277 278 1
277 282 1
277 283 1
277 299 1
277 300 1
277 311 1
277 315 1
277 318 1
277 320 1
277 321 1
277 323 1
277 325 1
277 326 1
277 340 1
277 353 1
277 355 1
277 358 1
277 362 1
277 368 1
277 369 1
277 370 1
277 386 1
277 393 1
277 396 1
277 397 1
277 407 1
277 416 1
277 425 1
277 429 1
277 432 1
277 433 1
277 441 1
277 446 1
277 458 1
277 471 1
277 473 1
277 474 1
277 477 1
277 478 1
277 486 1
277 487 1
277 488 1
277 499 1
278 7 1
278 20 1
278 29 1
278 37 1
278 38 1
278 39 1
278 42 1
278 50 1
278 53 1
278 54 1
278 67 1
278 68 1
278 72 1
278 74 1
278 78 1
278 79 1
278 84 1
278 88 1
278 90 1
278 97 1
278 99 1
278 100 1
278 109 1
278 114 1
278 131 1
278 133 1
278 137 1
278 138 1
278 139 1
278 140 1
278 153 1
278 154 1
278 155 1
278 166 1
278 167 1
278 170 1
278 174 1
278 179 1
278 189 1
278 197 1
278 198 1
278 203 1
278 213 1
278 220 1
278 221 1
278 223 1
278 234 1
278 245 1
278 252 1
278 254 1
278 259 1
278 264 1
278 265 1
278 275 1
278 276 1
278 277 1
278 287 1
278 290 1
278 295 1
278 302 1
278 306 1
278 307 1
278 309 1
278 319 1
278 323 1
278 328 1
278 350 1
278 351 1
278 359 1
278 368 1
278 372 1
278 373 1
278 385 1
278 387 1
278 392 1
278 399 1
278 402 1
278 404 1
278 407 1
278 415 1
278 423 1
278 426 1
278 427 1
278 430 1
278 431 1
278 443 1
278 447 1
278 448 1
278 454 1
278 461 1
278 462 1
278 463 1
278 479 1
278 483 1
278 487 1
279 6 1
279 8 1
279 12 1
279 13 1
279 21 1
279 23 1
279 26 1
279 27 1
279 28 1
279 30 1
279 34 1
279 39 1
279 48 1
279 50 1
279 56 1
279 62 1
279 63 1
279 65 1
279 66 1
279 72 1
279 80 1
279 81 1
279 84 1
279 90 1
279 110 1
279 128 1
279 132 1
279 134 1
279 135 1
279 136 1
279 140 1
279 149 1
279 155 1
279 157 1
279 161 1
279 163 1
279 170 1
279 171 1
279 175 1
279 192 1
279 197 1
279 206 1
279 207 1
279 217 1
279 218 1
279 221 1
279 223 1
279 224 1
279 226 1
279 227 1
279 229 1
279 232 1
279 235 1
279 247 1
279 249 1
279 250 1
279 251 1
279 254 1
279 263 1
279 268 1
279 276 1
279 281 1
279 287 1
279 289 1
279 293 1
279 299 1
279 304 1
279 319 1
279 330 1
279 335 1
279 336 1
279 337 1
279 338 1
279 339 1
279 343 1
279 346 1
279 362 1
279 363 1
279 372 1
279 375 1
279 378 1
279 381 1
279 383 1
279 387 1
279 389 1
279 392 1
279 404 1
279 405 1
279 413 1
279 418 1
279 424 1
279 427 1
279 430 1
279 431 1
279 434 1
279 452 1
279 460 1
279 466 1
279 467 1
279 469 1
279 470 1
279 491 1
279 493 1
279 495 1
279 497 1
279 500 1
280 11 1
280 12 1
280 30 1
280 38 1
280 46 1
280 54 1
280 56 1
280 59 1
280 61 1
280 66 1
280 69 1
280 70 1
280 76 1
280 77 1
280 79 1
280 82 1
280 83 1
280 89 1
280 93 1
280 97 1
280 101 1
280 104 1
280 107 1
280 110 1
280 112 1
280 122 1
280 133 1
280 140 1
280 143 1
280 144 1
280 152 1
280 163 1
280 175 1
280 177 1
280 179 1
280 190 1
280 191 1
280 194 1
280 200 1
280 204 1
280 208 1
280 209 1
280 210 1
280 211 1
280 214 1
280 218 1
280 220 1
280 227 1
280 228 1
280 229 1
280 230 1
280 232 1
280 237 1
280 239 1
280 243 1
280 244 1
280 246 1
280 250 1
280 261 1
280 263 1
280 267 1
280 268 1
280 269 1
280 292 1
280 302 1
280 303 1
280 313 1
280 315 1
280 325 1
280 329 1
280 338 1
280 349 1
280 357 1
280 364 1
280 368 1
280 377 1
280 385 1
280 388 1
280 406 1
280 410 1
280 415 1
280 417 1
280 420 1
280 423 1
280 424 1
280 425 1
280 441 1
280 442 1
280 443 1
280 446 1
280 448 1
280 452 1
280 453 1
280 456 1
280 458 1
280 461 1
280 467 1
280 472 1
280 473 1
280 493 1
281 2 1
281 5 1
281 9 1
281 17 1
281 18 1
281 22 1
281 24 1
281 27 1
281 28 1
281 29 1
281 31 1
281 33 1
281 44 1
281 47 1
281 56 1
281 58 1
281 64 1
281 66 1
281 67 1
281 69 1
281 70 1
281 71 1
281 73 1
281 78 1
281 81 1
281 87 1
281 88 1
281 99 1
281 108 1
281 111 1
281 120 1
281 122 1
281 134 1
281 144 1
281 153 1
281 161 1
281 169 1
281 172 1
281 173 1
281 180 1
281 184 1
281 187 1
281 188 1
281 198 1
281 214 1
281 217 1
281 218 1
281 223 1
281 234 1
281 237 1
281 244 1
281 245 1
281 250 1
281 256 1
281 258 1
281 262 1
281 263 1
281 269 1
281 274 1
281 276 1
281 279 1
281 292 1
281 293 1
281 303 1
281 304 1
281 310 1
281 313 1
281 318 1
281 319 1
281 320 1
281 322 1
281 325 1
281 326 1
281 332 1
281 337 1
281 341 1
281 346 1
281 357 1
281 360 1
281 362 1
281 364 1
281 372 1
281 382 1
281 383 1
281 391 1
281 396 1
281 402 1
281 405 1
281 413 1
281 421 1
281 423 1
281 424 1
281 428 1
281 434 1
281 449 1
281 450 1
281 454 1
281 455 1
281 457 1
281 464 1
281 468 1
281 484 1
281 488 1
281 492 1
281 493 1
281 494 1
281 496 1
282 7 1
282 10 1
282 19 1
282 29 1
282 30 1
282 37 1
282 39 1
282 44 1
282 50 1
282 71 1
282 72 1
282 73 1
282 79 1
282 85 1
282 86 1
282 93 1
282 96 1
282 97 1
282 100 1
282 102 1
282 115 1
282 124 1
282 131 1
282 138 1
282 146 1
282 152 1
282 154 1
282 166 1
282 167 1
282 169 1
282 172 1
282 186 1
282 189 1
282 200 1
282 217 1
282 223 1
282 238 1
282 241 1
282 243 1
282 246 1
282 249 1
282 253 1
282 254 1
282 259 1
282 262 1
282 269 1
282 277 1
282 284 1
282 297 1
282 309 1
282 350 1
282 352 1
282 359 1
282 360 1
282 364 1
282 368 1
282 373 1
282 377 1
282 380 1
282 384 1
282 385 1
282 386 1
282 388 1
282 389 1
282 399 1
282 401 1
282 402 1
282 404 1
282 405 1
282 407 1
282 411 1
282 412 1
282 423 1
282 433 1
282 435 1
282 437 1
282 438 1
282 439 1
282 444 1
282 446 1
282 447 1
282 451 1
282 460 1
282 462 1
282 469 1
282 474 1
282 475 1
282 476 1
282 483 1
282 484 1
282 487 1
282 488 1
283 7 1
283 10 1
283 21 1
283 25 1
283 26 1
283 34 1
283 45 1
283 46 1
283 68 1
283 74 1
283 82 1
283 83 1
283 84 1
283 86 1
283 87 1
283 91 1
283 95 1
283 103 1
283 106 1
283 112 1
283 113 1
283 118 1
283 122 1
283 124 1
283 126 1
283 130 1
283 137 1
283 145 1
283 146 1
283 148 1
283 151 1
283 152 1
283 166 1
283 168 1
283 169 1
283 171 1
283 172 1
283 174 1
283 176 1
283 182 1
283 183 1
283 186 1
283 190 1
283 191 1
283 192 1
283 215 1
283 216 1
283 226 1
283 227 1
283 231 1
283 244 1
283 245 1
283 255 1
283 264 1
283 273 1
283 277 1
283 291 1
283 299 1
283 303 1
283 304 1
283 306 1
283 310 1
283 316 1
283 317 1
283 319 1
283 326 1
283 335 1
283 336 1
283 344 1
283 359 1
283 365 1
283 366 1
283 370 1
283 376 1
283 383 1
283 384 1
283 389 1
283 390 1
283 402 1
283 409 1
283 415 1
283 419 1
283 420 1
283 422 1
283 437 1
283 444 1
283 445 1
283 448 1
283 449 1
283 457 1
283 458 1
283 465 1
283 467 1
283 468 1
283 469 1
283 471 1
283 472 1
283 473 1
283 479 1
283 480 1
283 487 1
283 497 1
283 498 1
284 15 1
284 16 1
284 23 1
284 26 1
284 33 1
284 36 1
284 38 1
284 40 1
284 45 1
284 52 1
284 53 1
284 58 1
284 61 1
284 73 1
284 93 1
284 102 1
284 103 1
284 112 1
284 115 1
284 122 1
284 125 1
284 126 1
284 133 1
284 135 1
284 136 1
284 137 1
284 146 1
284 149 1
284 150 1
284 155 1
284 162 1
284 163 1
284 166 1
284 168 1
284 173 1
284 178 1
284 179 1
284 180 1
284 187 1
284 193 1
284 194 1
284 198 1
284 200 1
284 203 1
284 204 1
284 205 1
284 211 1
284 216 1
284 218 1
284 227 1
284 231 1
284 232 1
284 242 1
284 253 1
284 259 1
284 260 1
284 262 1
284 264 1
284 266 1
284 269 1
284 270 1
284 272 1
284 273 1
284 274 1
284 275 1
284 282 1
284 285 1
284 290 1
284 292 1
284 308 1
284 314 1
284 315 1
284 323 1
284 326 1
284 338 1
284 340 1
284 353 1
284 373 1
284 381 1
284 384 1
284 395 1
284 400 1
284 401 1
284 405 1
284 407 1
284 413 1
284 416 1
284 420 1
284 427 1
284 430 1
284 431 1
284 433 1
284 436 1
284 437 1
284 450 1
284 463 1
284 467 1
284 474 1
284 475 1
284 486 1
284 488 1
284 489 1
284 491 1
285 26 1
285 27 1
285 29 1
285 31 1
285 33 1
285 35 1
285 37 1
285 39 1
285 41 1
285 46 1
285 48 1
285 49 1
285 57 1
285 58 1
285 61 1
285 62 1
285 69 1
285 75 1
285 82 1
285 83 1
285 85 1
285 95 1
285 96 1
285 102 1
285 110 1
285 126 1
285 127 1
285 128 1
285 130 1
285 134 1
285 150 1
285 153 1
285 155 1
285 157 1
285 159 1
285 165 1
285 167 1
285 174 1
285 176 1
285 182 1
285 191 1
285 192 1
285 196 1
285 203 1
285 218 1
285 227 1
285 228 1
285 231 1
285 242 1
285 244 1
285 247 1
285 251 1
285 253 1
285 254 1
285 256 1
285 258 1
285 262 1
285 267 1
285 271 1
285 274 1
285 284 1
285 288 1
285 297 1
285 305 1
285 313 1
285 317 1
285 324 1
285 326 1
285 335 1
285 336 1
285 340 1
285 341 1
285 342 1
285 344 1
285 346 1
285 347 1
285 349 1
285 352 1
285 357 1
285 363 1
285 374 1
285 383 1
285 386 1
285 388 1
285 389 1
285 395 1
285 401 1
285 412 1
285 413 1
285 415 1
285 416 1
285 419 1
285 425 1
285 439 1
285 445 1
285 460 1
285 461 1
285 478 1
285 491 1
285 492 1
285 497 1
285 499 1
286 4 1
286 9 1
286 10 1
286 28 1
286 29 1
286 36 1
286 42 1
286 45 1
286 52 1
286 55 1
286 58 1
286 60 1
286 65 1
286 77 1
286 96 1
286 103 1
286 108 1
286 113 1
286 117 1
286 121 1
286 125 1
286 128 1
286 130 1
286 131 1
286 137 1
286 141 1
286 144 1
286 150 1
286 152 1
286 155 1
286 162 1
286 163 1
286 170 1
286 174 1
286 185 1
286 186 1
286 189 1
286 202 1
286 205 1
286 207 1
286 211 1
286 213 1
286 221 1
286 230 1
286 232 1
286 239 1
286 242 1
286 243 1
286 253 1
286 254 1
286 255 1
286 261 1
286 273 1
286 293 1
286 304 1
286 307 1
286 308 1
286 315 1
286 317 1
286 323 1
286 327 1
286 334 1
286 336 1
286 338 1
286 343 1
286 348 1
286 351 1
286 356 1
286 357 1
286 366 1
286 377 1
286 379 1
286 383 1
286 392 1
286 401 1
286 404 1
286 412 1
286 415 1
286 418 1
286 424 1
286 429 1
286 432 1
286 433 1
286 445 1
286 458 1
286 460 1
286 462 1
286 476 1
286 481 1
286 487 1
286 499 1
287 1 1
287 3 1
287 10 1
287 19 1
287 20 1
287 23 1
287 25 1
287 27 1
287 28 1
287 34 1
287 37 1
287 41 1
287 49 1
287 50 1
287 52 1
287 58 1
287 59 1
287 60 1
287 64 1
287 67 1
287 69 1
287 74 1
287 75 1
287 77 1
287 81 1
287 85 1
287 90 1
287 91 1
287 92 1
287 93 1
287 100 1
287 101 1
287 117 1
287 119 1
287 122 1
287 128 1
287 129 1
287 135 1
287 136 1
287 143 1
287 144 1
287 148 1
287 152 1
287 154 1
287 157 1
287 159 1
287 161 1
287 162 1
287 167 1
287 169 1
287 173 1
287 178 1
287 192 1
287 207 1
287 209 1
287 210 1
287 213 1
287 218 1
287 223 1
287 231 1
287 232 1
287 235 1
287 237 1
287 240 1
287 245 1
287 248 1
287 250 1
287 251 1
287 253 1
287 259 1
287 262 1
287 266 1
287 268 1
287 271 1
287 272 1
287 278 1
287 279 1
287 290 1
287 294 1
287 297 1
287 302 1
287 305 1
287 307 1
287 315 1
287 317 1
287 322 1
287 323 1
287 328 1
287 329 1
287 332 1
287 335 1
287 339 1
287 347 1
287 354 1
287 358 1
287 361 1
287 369 1
287 371 1
287 373 1
287 374 1
287 378 1
287 382 1
287 387 1
287 400 1
287 404 1
287 414 1
287 416 1
287 417 1
287 422 1
287 423 1
287 425 1
287 427 1
287 430 1
287 432 1
287 436 1
287 439 1
287 440 1
287 441 1
287 445 1
287 450 1
287 451 1
287 457 1
287 458 1
287 461 1
287 464 1
287 466 1
287 467 1
287 477 1
287 478 1
287 480 1
287 482 1
287 484 1
287 487 1
287 500 1
288 8 1
288 11 1
288 14 1
288 21 1
288 26 1
288 31 1
288 33 1
288 40 1
288 44 1
288 56 1
288 58 1
288 61 1
288 64 1
288 75 1
288 83 1
288 88 1
288 96 1
288 98 1
288 102 1
288 112 1
288 113 1
288 119 1
288 120 1
288 121 1
288 122 1
288 124 1
288 130 1
288 140 1
288 143 1
288 145 1
288 179 1
288 181 1
288 182 1
288 186 1
288 191 1
288 192 1
288 193 1
288 198 1
288 207 1
288 219 1
288 222 1
288 230 1
288 231 1
288 234 1
288 237 1
288 238 1
288 243 1
288 246 1
288 247 1
288 252 1
288 261 1
288 262 1
288 263 1
288 275 1
288 285 1
288 289 1
288 298 1
288 300 1
288 301 1
288 304 1
288 308 1
288 319 1
288 324 1
288 326 1
288 332 1
288 341 1
288 345 1
288 350 1
288 351 1
288 354 1
288 359 1
288 360 1
288 361 1
288 365 1
288 370 1
288 371 1
288 380 1
288 390 1
288 392 1
288 393 1
288 394 1
288 403 1
288 409 1
288 412 1
288 414 1
288 416 1
288 419 1
288 421 1
288 422 1
288 432 1
288 433 1
288 435 1
288 448 1
288 449 1
288 454 1
288 460 1
288 463 1
288 464 1
288 465 1
288 467 1
288 471 1
288 474 1
288 486 1
288 494 1
288 498 1
289 4 1
289 5 1
289 13 1
289 17 1
289 23 1
289 28 1
289 36 1
289 41 1
289 43 1
289 44 1
289 51 1
289 54 1
289 55 1
289 59 1
289 66 1
289 67 1
289 76 1
289 78 1
289 81 1
289 82 1
289 83 1
289 85 1
289 90 1
289 97 1
289 99 1
289 105 1
289 106 1
289 107 1
289 110 1
289 113 1
289 116 1
289 119 1
289 121 1
289 125 1
289 136 1
289 144 1
289 145 1
289 147 1
289 148 1
289 151 1
289 161 1
289 162 1
289 167 1
289 181 1
289 191 1
289 192 1
289 195 1
289 199 1
289 206 1
289 207 1
289 217 1
289 232 1
289 234 1
289 239 1
289 245 1
289 249 1
289 253 1
289 255 1
289 260 1
289 265 1
289 271 1
289 279 1
289 288 1
289 291 1
289 294 1
289 299 1
289 304 1
289 310 1
289 322 1
289 327 1
289 330 1
289 332 1
289 350 1
289 357 1
289 358 1
289 363 1
289 364 1
289 374 1
289 377 1
289 378 1
289 386 1
289 387 1
289 391 1
289 406 1
289 415 1
289 419 1
289 422 1
289 427 1
289 430 1
289 431 1
289 433 1
289 434 1
289 435 1
289 436 1
289 438 1
289 451 1
289 461 1
289 465 1
289 466 1
289 471 1
289 474 1
289 484 1
289 500 1
290 2 1
290 8 1
290 9 1
290 14 1
290 15 1
290 16 1
290 28 1
290 29 1
290 38 1
290 40 1
290 42 1
290 43 1
290 44 1
290 46 1
290 47 1
290 49 1
290 53 1
290 55 1
290 74 1
290 83 1
290 94 1
290 95 1
290 99 1
290 109 1
290 111 1
290 118 1
290 124 1
290 126 1
290 148 1
290 151 1
290 166 1
290 177 1
290 189 1
290 190 1
290 197 1
290 198 1
290 201 1
290 206 1
290 210 1
290 211 1
290 213 1
290 215 1
290 227 1
290 232 1
290 233 1
290 253 1
290 255 1
290 265 1
290 267 1
290 278 1
290 284 1
290 287 1
290 291 1
290 296 1
290 302 1
290 304 1
290 309 1
290 314 1
290 317 1
290 318 1
290 325 1
290 327 1
290 332 1
290 334 1
290 339 1
290 340 1
290 349 1
290 358 1
290 360 1
290 362 1
290 366 1
290 370 1
290 376 1
290 378 1
290 384 1
290 387 1
290 388 1
290 389 1
290 393 1
290 397 1
290 410 1
290 411 1
290 418 1
290 419 1
290 421 1
290 425 1
290 434 1
290 436 1
290 451 1
290 458 1
290 462 1
290 470 1
290 477 1
290 478 1
290 482 1
290 488 1
290 491 1
290 492 1
290 494 1
290 496 1
290 498 1
290 499 1
291 3 1
291 12 1
291 14 1
291 21 1
291 23 1
291 26 1
291 27 1
291 37 1
291 38 1
291 41 1
291 47 1
291 50 1
291 51 1
291 52 1
291 53 1
291 59 1
291 60 1
291 65 1
291 83 1
291 85 1
291 103 1
291 104 1
291 107 1
291 108 1
291 119 1
291 123 1
291 125 1
291 128 1
291 131 1
291 133 1
291 136 1
291 137 1
291 138 1
291 141 1
291 144 1
291 151 1
291 153 1
291 154 1
291 163 1
291 164 1
291 167 1
291 168 1
291 169 1
291 176 1
291 178 1
291 205 1
291 213 1
291 216 1
291 220 1
291 222 1
291 223 1
291 226 1
291 229 1
291 231 1
291 233 1
291 238 1
291 241 1
291 259 1
291 267 1
291 270 1
291 275 1
291 276 1
291 283 1
291 289 1
291 290 1
291 292 1
291 300 1
291 302 1
291 328 1
291 329 1
291 337 1
291 353 1
291 360 1
291 361 1
291 369 1
291 370 1
291 371 1
291 374 1
291 376 1
291 383 1
291 384 1
291 388 1
291 390 1
291 392 1
291 399 1
291 401 1
291 415 1
291 416 1
291 423 1
291 426 1
291 427 1
291 439 1
291 448 1
291 452 1
291 454 1
291 456 1
291 462 1
291 467 1
291 475 1
291 479 1
291 484 1
291 488 1
291 489 1
291 491 1
291 492 1
291 500 1
292 3 1
292 12 1
292 14 1
292 16 1
292 19 1
292 20 1
292 21 1
292 23 1
292 28 1
292 36 1
292 40 1
292 42 1
292 43 1
292 46 1
292 48 1
292 58 1
292 65 1
292 67 1
292 69 1
292 75 1
292 77 1
292 81 1
292 90 1
292 98 1
292 104 1
292 107 1
292 111 1
292 114 1
292 119 1
292 120 1
292 124 1
292 136 1
292 141 1
292 142 1
292 143 1
292 144 1
292 152 1
292 153 1
292 156 1
292 168 1
292 180 1
292 182 1
292 183 1
292 185 1
292 187 1
292 192 1
292 200 1
292 203 1
292 204 1
292 208 1
292 211 1
292 213 1
292 214 1
292 218 1
292 227 1
292 230 1
292 231 1
292 233 1
292 235 1
292 236 1
292 238 1
292 241 1
292 242 1
292 260 1
292 261 1
292 265 1
292 280 1
292 281 1
292 284 1
292 291 1
292 293 1
292 294 1
292 306 1
292 311 1
292 312 1
292 323 1
292 324 1
292 325 1
292 326 1
292 339 1
292 340 1
292 348 1
292 351 1
292 352 1
292 356 1
292 357 1
292 364 1
292 365 1
292 368 1
292 373 1
292 374 1
292 376 1
292 383 1
292 389 1
292 391 1
292 394 1
292 404 1
292 419 1
292 421 1
292 425 1
292 428 1
292 435 1
292 439 1
292 442 1
292 448 1
292 450 1
292 462 1
292 465 1
292 467 1
292 475 1
292 476 1
292 481 1
292 492 1
292 493 1
292 495 1
293 9 1
293 12 1
293 15 1
293 18 1
293 27 1
293 45 1
293 52 1
293 56 1
293 57 1
293 58 1
293 60 1
293 62 1
293 71 1
293 78 1
293 81 1
293 92 1
293 94 1
293 97 1
293 98 1
293 105 1
293 113 1
293 114 1
293 118 1
293 119 1
293 124 1
293 127 1
293 133 1
293 138 1
293 143 1
293 146 1
293 151 1
293 155 1
293 160 1
293 162 1
293 167 1
293 168 1
293 169 1
293 170 1
293 179 1
293 182 1
293 186 1
293 187 1
293 193 1
293 207 1
293 210 1
293 212 1
293 214 1
293 217 1
293 223 1
293 225 1
293 236 1
293 242 1
293 244 1
293 252 1
293 275 1
293 276 1
293 279 1
293 281 1
293 286 1
293 292 1
293 295 1
293 296 1
293 317 1
293 318 1
293 329 1
293 334 1
293 335 1
293 338 1
293 348 1
293 360 1
293 370 1
293 382 1
293 388 1
293 390 1
293 392 1
293 394 1
293 397 1
293 398 1
293 401 1
293 402 1
293 410 1
293 418 1
293 422 1
293 423 1
293 427 1
293 438 1
293 442 1
293 452 1
293 457 1
293 461 1
293 465 1
293 466 1
293 470 1
293 471 1
293 478 1
293 487 1
293 490 1
293 491 1
293 492 1
293 494 1
294 5 1
294 11 1
294 17 1
294 28 1
294 38 1
294 52 1
294 72 1
294 73 1
294 76 1
294 80 1
294 82 1
294 83 1
294 87 1
294 88 1
294 91 1
294 108 1
294 113 1
294 115 1
294 117 1
294 119 1
294 120 1
294 128 1
294 140 1
294 145 1
294 146 1
294 148 1
294 149 1
294 153 1
294 159 1
294 161 1
294 162 1
294 163 1
294 171 1
294 179 1
294 181 1
294 184 1
294 192 1
294 208 1
294 212 1
294 216 1
294 223 1
294 225 1
294 227 1
294 233 1
294 238 1
294 240 1
294 241 1
294 243 1
294 249 1
294 252 1
294 265 1
294 266 1
294 268 1
294 273 1
294 287 1
294 289 1
294 292 1
294 295 1
294 299 1
294 304 1
294 308 1
294 312 1
294 319 1
294 323 1
294 326 1
294 327 1
294 338 1
294 341 1
294 343 1
294 347 1
294 349 1
294 351 1
294 352 1
294 353 1
294 357 1
294 359 1
294 362 1
294 374 1
294 386 1
294 387 1
294 391 1
294 393 1
294 396 1
294 397 1
294 398 1
294 401 1
294 402 1
294 406 1
294 409 1
294 414 1
294 432 1
294 434 1
294 437 1
294 439 1
294 441 1
294 451 1
294 452 1
294 460 1
294 471 1
294 473 1
294 474 1
294 475 1
294 484 1
294 486 1
294 487 1
294 494 1
294 497 1
295 4 1
295 7 1
295 14 1
295 40 1
295 41 1
295 42 1
295 51 1
295 53 1
295 54 1
295 57 1
295 67 1
295 71 1
295 76 1
295 80 1
295 81 1
295 82 1
295 86 1
295 91 1
295 102 1
295 108 1
295 112 1
295 113 1
295 118 1
295 120 1
295 122 1
295 123 1
295 128 1
295 138 1
295 150 1
295 156 1
295 159 1
295 160 1
295 165 1
295 166 1
295 171 1
295 173 1
295 174 1
295 184 1
295 192 1
295 195 1
295 199 1
295 202 1
295 205 1
295 208 1
295 211 1
295 215 1
295 217 1
295 225 1
295 227 1
295 230 1
295 233 1
295 235 1
295 242 1
295 243 1
295 244 1
295 251 1
295 254 1
295 257 1
295 258 1
295 263 1
295 269 1
295 271 1
295 273 1
295 274 1
295 278 1
295 293 1
295 294 1
295 304 1
295 308 1
295 310 1
295 313 1
295 315 1
295 324 1
295 325 1
295 326 1
295 330 1
295 331 1
295 342 1
295 347 1
295 349 1
295 350 1
295 355 1
295 358 1
295 360 1
295 365 1
295 366 1
295 370 1
295 377 1
295 379 1
295 383 1
295 388 1
295 389 1
295 390 1
295 392 1
295 393 1
295 395 1
295 400 1
295 407 1
295 411 1
295 419 1
295 424 1
295 427 1
295 438 1
295 445 1
295 450 1
295 457 1
295 459 1
295 468 1
295 469 1
295 474 1
295 475 1
295 476 1
295 481 1
295 490 1
296 11 1
296 14 1
296 23 1
296 26 1
296 30 1
296 32 1
296 34 1
296 35 1
296 38 1
296 39 1
296 43 1
296 51 1
296 62 1
296 65 1
296 72 1
296 74 1
296 77 1
296 84 1
296 85 1
296 88 1
296 96 1
296 99 1
296 106 1
296 107 1
296 109 1
296 130 1
296 139 1
296 141 1
296 147 1
296 152 1
296 161 1
296 175 1
296 182 1
296 190 1
296 191 1
296 201 1
296 204 1
296 206 1
296 209 1
296 213 1
296 228 1
296 235 1
296 237 1
296 239 1
296 240 1
296 247 1
296 250 1
296 251 1
296 252 1
296 254 1
296 258 1
296 259 1
296 260 1
296 268 1
296 271 1
296 272 1
296 275 1
296 276 1
296 290 1
296 293 1
296 297 1
296 303 1
296 305 1
296 343 1
296 352 1
296 354 1
296 357 1
296 359 1
296 362 1
296 363 1
296 364 1
296 365 1
296 367 1
296 369 1
296 370 1
296 381 1
296 385 1
296 386 1
296 392 1
296 396 1
296 408 1
296 416 1
296 420 1
296 426 1
296 450 1
296 471 1
296 472 1
296 478 1
296 482 1
296 486 1
296 489 1
296 491 1
296 494 1
296 499 1
297 2 1
297 8 1
297 9 1
297 11 1
297 21 1
297 23 1
297 28 1
297 31 1
297 38 1
297 43 1
297 44 1
297 46 1
297 49 1
297 51 1
297 72 1
297 84 1
297 96 1
297 100 1
297 102 1
297 103 1
297 110 1
297 113 1
297 119 1
297 124 1
297 125 1
297 130 1
297 137 1
297 141 1
297 144 1
297 150 1
297 156 1
297 160 1
297 166 1
297 168 1
297 169 1
297 173 1
297 178 1
297 181 1
297 187 1
297 190 1
297 193 1
297 194 1
297 200 1
297 207 1
297 208 1
297 209 1
297 211 1
297 212 1
297 214 1
297 215 1
297 217 1
297 221 1
297 223 1
297 230 1
297 233 1
297 237 1
297 249 1
297 250 1
297 254 1
297 263 1
297 264 1
297 269 1
297 270 1
297 273 1
297 282 1
297 285 1
297 287 1
297 296 1
297 299 1
297 307 1
297 312 1
297 315 1
297 325 1
297 326 1
297 327 1
297 329 1
297 332 1
297 343 1
297 344 1
297 347 1
297 359 1
297 376 1
297 385 1
297 388 1
297 390 1
297 392 1
297 393 1
297 397 1
297 398 1
297 403 1
297 404 1
297 405 1
297 409 1
297 414 1
297 415 1
297 422 1
297 429 1
297 430 1
297 431 1
297 438 1
297 441 1
297 445 1
297 450 1
297 459 1
297 471 1
297 472 1
297 480 1
297 493 1
297 494 1
298 2 1
298 18 1
298 19 1
298 22 1
298 25 1
298 28 1
298 37 1
298 38 1
298 39 1
298 46 1
298 48 1
298 51 1
298 58 1
298 60 1
298 65 1
298 67 1
298 74 1
298 78 1
298 80 1
298 83 1
298 84 1
298 91 1
298 92 1
298 93 1
298 108 1
298 116 1
298 129 1
298 130 1
298 133 1
298 134 1
298 138 1
298 143 1
298 144 1
298 146 1
298 151 1
298 156 1
298 159 1
298 160 1
298 166 1
298 169 1
298 171 1
298 172 1
298 173 1
298 176 1
298 178 1
298 182 1
298 187 1
298 190 1
298 195 1
298 196 1
298 199 1
298 204 1
298 206 1
298 208 1
298 221 1
298 233 1
298 234 1
298 240 1
298 241 1
298 247 1
298 249 1
298 267 1
298 288 1
298 302 1
298 307 1
298 309 1
298 310 1
298 315 1
298 322 1
298 324 1
298 326 1
298 331 1
298 337 1
298 338 1
298 339 1
298 346 1
298 352 1
298 367 1
298 372 1
298 373 1
298 378 1
298 380 1
298 386 1
298 389 1
298 392 1
298 393 1
298 394 1
298 398 1
298 402 1
298 409 1
298 411 1
298 415 1
298 419 1
298 421 1
298 422 1
298 430 1
298 434 1
298 435 1
298 438 1
298 444 1
298 446 1
298 450 1
298 451 1
298 454 1
298 463 1
298 467 1
298 475 1
298 487 1
298 492 1
299 7 1
299 13 1
299 17 1
299 19 1
299 39 1
299 40 1
299 44 1
299 50 1
299 53 1
299 55 1
299 61 1
299 64 1
299 66 1
299 67 1
299 71 1
299 75 1
299 80 1
299 84 1
299 85 1
299 93 1
299 94 1
299 95 1
299 118 1
299 131 1
299 133 1
299 136 1
299 142 1
299 147 1
299 162 1
299 169 1
299 175 1
299 200 1
299 203 1
299 204 1
299 206 1
299 212 1
299 214 1
299 218 1
299 225 1
299 230 1
299 239 1
299 248 1
299 252 1
299 254 1
299 260 1
299 263 1
299 270 1
299 277 1
299 279 1
299 283 1
299 289 1
299 294 1
299 297 1
299 307 1
299 315 1
299 316 1
299 318 1
299 322 1
299 329 1
299 332 1
299 336 1
299 342 1
299 345 1
299 353 1
299 356 1
299 359 1
299 362 1
299 363 1
299 372 1
299 373 1
299 378 1
299 379 1
299 385 1
299 386 1
299 395 1
299 402 1
299 424 1
299 426 1
299 427 1
299 433 1
299 434 1
299 435 1
299 445 1
299 448 1
299 454 1
299 455 1
299 458 1
299 459 1
299 460 1
299 461 1
299 465 1
299 468 1
299 472 1
299 479 1
299 480 1
299 483 1
299 484 1
299 491 1
299 492 1
299 494 1
300 3 1
300 5 1
300 6 1
300 11 1
300 17 1
300 23 1
300 24 1
300 28 1
300 33 1
300 42 1
300 55 1
300 58 1
300 62 1
300 70 1
300 74 1
300 77 1
300 80 1
300 83 1
300 87 1
300 88 1
300 90 1
300 94 1
300 104 1
300 110 1
300 112 1
300 114 1
300 117 1
300 118 1
300 126 1
300 128 1
300 132 1
300 138 1
300 140 1
300 143 1
300 144 1
300 158 1
300 163 1
300 174 1
300 178 1
300 191 1
300 196 1
300 230 1
300 242 1
300 246 1
300 256 1
300 257 1
300 258 1
300 265 1
300 275 1
300 277 1
300 288 1
300 291 1
300 312 1
300 313 1
300 317 1
300 320 1
300 321 1
300 328 1
300 336 1
300 338 1
300 342 1
300 346 1
300 353 1
300 357 1
300 359 1
300 366 1
300 374 1
300 383 1
300 384 1
300 386 1
300 389 1
300 393 1
300 397 1
300 401 1
300 407 1
300 412 1
300 413 1
300 418 1
300 419 1
300 426 1
300 428 1
300 435 1
300 447 1
300 463 1
300 465 1
300 467 1
300 468 1
300 481 1
300 489 1
300 499 1
300 500 1
301 8 1
301 13 1
301 14 1
301 15 1
301 23 1
301 26 1
301 29 1
301 30 1
301 32 1
301 41 1
301 43 1
301 54 1
301 55 1
301 63 1
301 76 1
301 79 1
301 82 1
301 83 1
301 86 1
301 94 1
301 98 1
301 105 1
301 111 1
301 113 1
301 128 1
301 134 1
301 138 1
301 142 1
301 143 1
301 145 1
301 146 1
301 147 1
301 150 1
301 154 1
301 155 1
301 160 1
301 161 1
301 164 1
301 165 1
301 166 1
301 178 1
301 179 1
301 202 1
301 203 1
301 204 1
301 205 1
301 210 1
301 212 1
301 213 1
301 215 1
301 218 1
301 220 1
301 229 1
301 240 1
301 248 1
301 252 1
301 255 1
301 258 1
301 259 1
301 267 1
301 275 1
301 276 1
301 288 1
301 311 1
301 317 1
301 319 1
301 320 1
301 330 1
301 345 1
301 346 1
301 349 1
301 366 1
301 371 1
301 372 1
301 375 1
301 377 1
301 385 1
301 390 1
301 391 1
301 394 1
301 396 1
301 397 1
301 404 1
301 405 1
301 408 1
301 416 1
301 424 1
301 427 1
301 433 1
301 434 1
301 442 1
301 451 1
301 456 1
301 466 1
301 470 1
301 472 1
301 474 1
301 475 1
301 480 1
301 486 1
302 11 1
302 19 1
302 21 1
302 26 1
302 27 1
302 42 1
302 46 1
302 51 1
302 53 1
302 62 1
302 64 1
302 66 1
302 73 1
302 74 1
302 88 1
302 90 1
302 99 1
302 106 1
302 108 1
302 123 1
302 132 1
302 139 1
302 147 1
302 155 1
302 157 1
302 160 1
302 161 1
302 165 1
302 166 1
302 169 1
302 174 1
302 178 1
302 185 1
302 192 1
302 201 1
302 202 1
302 209 1
302 213 1
302 217 1
302 218 1
302 221 1
302 234 1
302 241 1
302 246 1
302 248 1
302 249 1
302 255 1
302 268 1
302 270 1
302 272 1
302 278 1
302 280 1
302 287 1
302 290 1
302 291 1
302 298 1
302 304 1
302 307 1
302 310 1
302 312 1
302 314 1
302 315 1
302 320 1
302 325 1
302 326 1
302 333 1
302 339 1
302 341 1
302 343 1
302 352 1
302 357 1
302 358 1
302 363 1
302 366 1
302 368 1
302 374 1
302 379 1
302 381 1
302 387 1
302 404 1
302 405 1
302 413 1
302 417 1
302 418 1
302 427 1
302 432 1
302 448 1
302 449 1
302 450 1
302 456 1
302 457 1
302 460 1
302 464 1
302 466 1
302 469 1
302 475 1
302 481 1
302 483 1
302 488 1
303 3 1
303 7 1
303 14 1
303 15 1
303 16 1
303 21 1
303 39 1
303 44 1
303 45 1
303 59 1
303 61 1
303 79 1
303 84 1
303 90 1
303 107 1
303 110 1
303 119 1
303 120 1
303 123 1
303 125 1
303 126 1
303 134 1
303 136 1
303 140 1
303 142 1
303 143 1
303 145 1
303 146 1
303 149 1
303 150 1
303 158 1
303 167 1
303 188 1
303 189 1
303 193 1
303 194 1
303 198 1
303 200 1
303 209 1
303 210 1
303 213 1
303 215 1
303 224 1
303 226 1
303 229 1
303 230 1
303 237 1
303 241 1
303 242 1
303 251 1
303 253 1
303 258 1
303 261 1
303 270 1
303 275 1
303 280 1
303 281 1
303 283 1
303 296 1
303 313 1
303 314 1
303 317 1
303 320 1
303 322 1
303 333 1
303 334 1
303 337 1
303 339 1
303 341 1
303 346 1
303 351 1
303 353 1
303 358 1
303 365 1
303 366 1
303 371 1
303 383 1
303 387 1
303 390 1
303 395 1
303 400 1
303 411 1
303 412 1
303 417 1
303 418 1
303 420 1
303 423 1
303 425 1
303 426 1
303 427 1
303 437 1
303 448 1
303 449 1
303 454 1
303 457 1
303 475 1
303 476 1
303 483 1
303 485 1
303 489 1
303 492 1
303 497 1
304 2 1
304 13 1
304 14 1
304 15 1
304 18 1
304 46 1
304 47 1
304 57 1
304 59 1
304 62 1
304 74 1
304 84 1
304 86 1
304 93 1
304 97 1
304 99 1
304 108 1
304 110 1
304 111 1
304 134 1
304 136 1
304 138 1
304 147 1
304 150 1
304 152 1
304 163 1
304 166 1
304 167 1
304 170 1
304 175 1
304 176 1
304 190 1
304 193 1
304 196 1
304 198 1
304 202 1
304 203 1
304 206 1
304 210 1
304 214 1
304 218 1
304 224 1
304 229 1
304 230 1
304 240 1
304 242 1
304 250 1
304 252 1
304 256 1
304 259 1
304 266 1
304 279 1
304 281 1
304 283 1
304 286 1
304 288 1
304 289 1
304 290 1
304 294 1
304 295 1
304 302 1
304 306 1
304 307 1
304 313 1
304 315 1
304 317 1
304 331 1
304 347 1
304 352 1
304 357 1
304 358 1
304 363 1
304 370 1
304 371 1
304 372 1
304 378 1
304 382 1
304 383 1
304 384 1
304 389 1
304 396 1
304 399 1
304 410 1
304 413 1
304 422 1
304 429 1
304 436 1
304 440 1
304 450 1
304 453 1
304 456 1
304 457 1
304 460 1
304 468 1
304 472 1
304 473 1
304 479 1
304 488 1
304 495 1
304 497 1
305 3 1
305 5 1
305 8 1
305 9 1
305 12 1
305 13 1
305 17 1
305 23 1
305 25 1
305 29 1
305 30 1
305 33 1
305 35 1
305 45 1
305 47 1
305 50 1
305 53 1
305 62 1
305 63 1
305 68 1
305 71 1
305 76 1
305 83 1
305 84 1
305 85 1
305 95 1
305 100 1
305 101 1
305 103 1
305 110 1
305 111 1
305 119 1
305 122 1
305 124 1
305 125 1
305 131 1
305 141 1
305 145 1
305 148 1
305 156 1
305 157 1
305 161 1
305 162 1
305 164 1
305 166 1
305 167 1
305 170 1
305 171 1
305 176 1
305 192 1
305 195 1
305 198 1
305 201 1
305 218 1
305 220 1
305 229 1
305 233 1
305 235 1
305 237 1
305 238 1
305 244 1
305 248 1
305 255 1
305 256 1
305 257 1
305 265 1
305 268 1
305 285 1
305 287 1
305 296 1
305 306 1
305 310 1
305 317 1
305 318 1
305 324 1
305 326 1
305 328 1
305 333 1
305 335 1
305 337 1
305 338 1
305 354 1
305 360 1
305 364 1
305 371 1
305 372 1
305 378 1
305 379 1
305 380 1
305 384 1
305 388 1
305 390 1
305 393 1
305 395 1
305 397 1
305 404 1
305 405 1
305 408 1
305 416 1
305 419 1
305 422 1
305 423 1
305 425 1
305 426 1
305 428 1
305 431 1
305 438 1
305 444 1
305 446 1
305 453 1
305 454 1
305 457 1
305 459 1
305 461 1
305 465 1
305 477 1
305 488 1
305 491 1
305 497 1
306 13 1
306 14 1
306 21 1
306 32 1
306 33 1
306 38 1
306 39 1
306 41 1
306 44 1
306 45 1
306 47 1
306 61 1
306 71 1
306 74 1
306 75 1
306 76 1
306 83 1
306 106 1
306 110 1
306 114 1
306 115 1
306 124 1
306 130 1
306 137 1
306 138 1
306 139 1
306 144 1
306 155 1
306 158 1
306 159 1
306 161 1
306 163 1
306 165 1
306 171 1
306 177 1
306 178 1
306 184 1
306 200 1
306 203 1
306 205 1
306 206 1
306 221 1
306 223 1
306 230 1
306 236 1
306 242 1
306 247 1
306 252 1
306 265 1
306 267 1
306 276 1
306 278 1
306 283 1
306 292 1
306 304 1
306 305 1
306 309 1
306 311 1
306 318 1
306 330 1
306 331 1
306 351 1
306 359 1
306 362 1
306 369 1
306 377 1
306 379 1
306 381 1
306 383 1
306 385 1
306 389 1
306 392 1
306 395 1
306 399 1
306 407 1
306 412 1
306 422 1
306 427 1
306 432 1
306 438 1
306 441 1
306 442 1
306 443 1
306 445 1
306 447 1
306 448 1
306 451 1
306 454 1
306 457 1
306 459 1
306 471 1
306 473 1
306 474 1
306 478 1
306 486 1
306 492 1
307 2 1
307 3 1
307 5 1
307 6 1
307 8 1
307 15 1
307 25 1
307 26 1
307 27 1
307 28 1
307 31 1
307 34 1
307 50 1
307 52 1
307 60 1
307 66 1
307 69 1
307 84 1
307 89 1
307 94 1
307 95 1
307 102 1
307 104 1
307 105 1
307 118 1
307 123 1
307 124 1
307 134 1
307 136 1
307 137 1
307 153 1
307 154 1
307 156 1
307 158 1
307 177 1
307 191 1
307 196 1
307 197 1
307 199 1
307 201 1
307 204 1
307 209 1
307 214 1
307 221 1
307 229 1
307 230 1
307 232 1
307 235 1
307 247 1
307 249 1
307 250 1
307 272 1
307 278 1
307 286 1
307 287 1
307 297 1
307 298 1
307 299 1
307 302 1
307 304 1
307 308 1
307 310 1
307 311 1
307 314 1
307 315 1
307 317 1
307 322 1
307 325 1
307 337 1
307 338 1
307 345 1
307 349 1
307 366 1
307 371 1
307 393 1
307 398 1
307 403 1
307 409 1
307 410 1
307 414 1
307 417 1
307 420 1
307 421 1
307 429 1
307 438 1
307 446 1
307 448 1
307 453 1
307 456 1
307 460 1
307 463 1
307 473 1
307 474 1
307 476 1
307 477 1
307 481 1
307 489 1
307 490 1
308 1 1
308 8 1
308 9 1
308 21 1
308 25 1
308 30 1
308 36 1
308 39 1
308 41 1
308 42 1
308 46 1
308 47 1
308 51 1
308 63 1
308 64 1
308 84 1
308 90 1
308 96 1
308 98 1
308 108 1
308 111 1
308 114 1
308 124 1
308 125 1
308 127 1
308 137 1
308 140 1
308 143 1
308 150 1
308 156 1
308 158 1
308 162 1
308 165 1
308 169 1
308 175 1
308 178 1
308 179 1
308 183 1
308 185 1
308 186 1
308 200 1
308 204 1
308 208 1
308 221 1
308 222 1
308 225 1
308 226 1
308 231 1
308 238 1
308 247 1
308 251 1
308 252 1
308 263 1
308 265 1
308 269 1
308 270 1
308 275 1
308 284 1
308 286 1
308 288 1
308 294 1
308 295 1
308 307 1
308 313 1
308 314 1
308 315 1
308 316 1
308 317 1
308 321 1
308 322 1
308 325 1
308 330 1
308 339 1
308 344 1
308 352 1
308 353 1
308 354 1
308 362 1
308 363 1
308 365 1
308 366 1
308 368 1
308 382 1
308 383 1
308 386 1
308 400 1
308 410 1
308 417 1
308 419 1
308 423 1
308 424 1
308 425 1
308 434 1
308 439 1
308 440 1
308 441 1
308 444 1
308 447 1
308 449 1
308 458 1
308 460 1
308 476 1
308 477 1
308 480 1
308 483 1
308 484 1
308 485 1
308 490 1
308 491 1
308 494 1
308 495 1
309 3 1
309 5 1
309 6 1
309 8 1
309 9 1
309 14 1
309 15 1
309 16 1
309 17 1
309 21 1
309 22 1
309 25 1
309 37 1
309 41 1
309 53 1
309 55 1
309 58 1
309 60 1
309 64 1
309 65 1
309 72 1
309 76 1
309 79 1
309 84 1
309 101 1
309 106 1
309 110 1
309 114 1
309 115 1
309 119 1
309 122 1
309 128 1
309 135 1
309 138 1
309 141 1
309 142 1
309 154 1
309 169 1
309 170 1
309 182 1
309 183 1
309 185 1
309 189 1
309 193 1
309 197 1
309 202 1
309 216 1
309 218 1
309 225 1
309 232 1
309 233 1
309 237 1
309 238 1
309 239 1
309 241 1
309 258 1
309 261 1
309 267 1
309 275 1
309 276 1
309 278 1
309 282 1
309 290 1
309 298 1
309 306 1
309 314 1
309 322 1
309 328 1
309 333 1
309 335 1
309 346 1
309 348 1
309 356 1
309 359 1
309 360 1
309 362 1
309 364 1
309 365 1
309 369 1
309 370 1
309 373 1
309 374 1
309 381 1
309 383 1
309 384 1
309 401 1
309 404 1
309 407 1
309 413 1
309 422 1
309 423 1
309 432 1
309 433 1
309 440 1
309 443 1
309 444 1
309 448 1
309 450 1
309 451 1
309 458 1
309 460 1
309 468 1
309 470 1
309 472 1
309 474 1
309 476 1
309 482 1
309 484 1
309 486 1
309 491 1
309 497 1
310 2 1
310 13 1
310 18 1
310 21 1
310 38 1
310 41 1
310 52 1
310 63 1
310 64 1
310 68 1
310 71 1
310 80 1
310 88 1
310 94 1
310 96 1
310 98 1
310 102 1
310 103 1
310 104 1
310 105 1
310 109 1
310 111 1
310 121 1
310 123 1
310 124 1
310 125 1
310 127 1
310 129 1
310 130 1
310 135 1
310 137 1
310 139 1
310 141 1
310 149 1
310 154 1
310 162 1
310 164 1
310 167 1
310 168 1
310 171 1
310 172 1
310 173 1
310 175 1
310 176 1
310 182 1
310 192 1
310 199 1
310 208 1
310 210 1
310 215 1
310 219 1
310 225 1
310 230 1
310 235 1
310 243 1
310 249 1
310 251 1
310 253 1
310 258 1
310 264 1
310 270 1
310 274 1
310 281 1
310 283 1
310 289 1
310 295 1
310 298 1
310 302 1
310 305 1
310 307 1
310 311 1
310 312 1
310 320 1
310 330 1
310 345 1
310 353 1
310 366 1
310 368 1
310 371 1
310 372 1
310 373 1
310 375 1
310 377 1
310 389 1
310 391 1
310 393 1
310 397 1
310 398 1
310 403 1
310 405 1
310 406 1
310 409 1
310 410 1
310 411 1
310 412 1
310 417 1
310 418 1
310 419 1
310 430 1
310 437 1
310 438 1
310 445 1
310 447 1
310 448 1
310 452 1
310 454 1
310 467 1
310 478 1
310 481 1
310 486 1
310 488 1
310 490 1
311 3 1
311 4 1
311 10 1
311 15 1
311 19 1
311 31 1
311 36 1
311 39 1
311 40 1
311 42 1
311 57 1
311 61 1
311 63 1
311 68 1
311 79 1
311 86 1
311 89 1
311 90 1
311 94 1
311 95 1
311 97 1
311 101 1
311 106 1
311 110 1
311 111 1
311 114 1
311 117 1
311 118 1
311 129 1
311 134 1
311 137 1
311 140 1
311 145 1
311 149 1
311 154 1
311 155 1
311 156 1
311 161 1
311 163 1
311 169 1
311 178 1
311 180 1
311 182 1
311 188 1
311 195 1
311 200 1
311 204 1
311 207 1
311 208 1
311 209 1
311 220 1
311 227 1
311 236 1
311 248 1
311 258 1
311 263 1
311 277 1
311 292 1
311 301 1
311 306 1
311 307 1
311 310 1
311 315 1
311 320 1
311 321 1
311 338 1
311 348 1
311 364 1
311 369 1
311 372 1
311 376 1
311 377 1
311 382 1
311 394 1
311 407 1
311 408 1
311 411 1
311 414 1
311 417 1
311 424 1
311 426 1
311 437 1
311 443 1
311 445 1
311 467 1
311 469 1
311 470 1
311 472 1
311 475 1
311 500 1
312 2 1
312 6 1
312 13 1
312 14 1
312 30 1
312 36 1
312 44 1
312 48 1
312 55 1
312 62 1
312 63 1
312 74 1
312 88 1
312 90 1
312 109 1
312 116 1
312 119 1
312 127 1
312 132 1
312 136 1
312 140 1
312 144 1
312 154 1
312 164 1
312 167 1
312 170 1
312 171 1
312 178 1
312 179 1
312 181 1
312 182 1
312 191 1
312 202 1
312 204 1
312 205 1
312 206 1
312 210 1
312 221 1
312 229 1
312 240 1
312 241 1
312 249 1
312 250 1
312 253 1
312 255 1
312 292 1
312 294 1
312 297 1
312 300 1
312 302 1
312 310 1
312 315 1
312 318 1
312 330 1
312 331 1
312 336 1
312 337 1
312 353 1
312 355 1
312 370 1
312 373 1
312 381 1
312 387 1
312 388 1
312 390 1
312 394 1
312 395 1
312 399 1
312 410 1
312 411 1
312 419 1
312 426 1
312 427 1
312 428 1
312 446 1
312 451 1
312 452 1
312 456 1
312 463 1
312 470 1
312 473 1
312 475 1
312 476 1
312 479 1
312 484 1
312 486 1
312 498 1
312 500 1
313 4 1
313 5 1
313 8 1
313 14 1
313 15 1
313 17 1
313 19 1
313 20 1
313 22 1
313 26 1
313 28 1
313 32 1
313 41 1
313 55 1
313 59 1
313 63 1
313 64 1
313 67 1
313 70 1
313 71 1
313 72 1
313 80 1
313 81 1
313 82 1
313 83 1
313 110 1
313 119 1
313 125 1
313 127 1
313 130 1
313 134 1
313 138 1
313 139 1
313 142 1
313 148 1
313 151 1
313 154 1
313 162 1
313 169 1
313 170 1
313 171 1
313 172 1
313 197 1
313 198 1
313 200 1
313 208 1
313 211 1
313 214 1
313 218 1
313 222 1
313 226 1
313 229 1
313 234 1
313 239 1
313 240 1
313 243 1
313 245 1
313 249 1
313 250 1
313 254 1
313 258 1
313 260 1
313 267 1
313 272 1
313 273 1
313 275 1
313 280 1
313 281 1
313 285 1
313 295 1
313 300 1
313 303 1
313 304 1
313 308 1
313 322 1
313 325 1
313 328 1
313 331 1
313 334 1
313 337 1
313 341 1
313 348 1
313 349 1
313 350 1
313 356 1
313 361 1
313 362 1
313 387 1
313 389 1
313 396 1
313 398 1
313 402 1
313 403 1
313 404 1
313 405 1
313 417 1
313 419 1
313 428 1
313 432 1
313 434 1
313 439 1
313 444 1
313 451 1
313 454 1
313 456 1
313 457 1
313 459 1
313 462 1
313 463 1
313 466 1
313 469 1
313 472 1
313 477 1
313 491 1
313 500 1
314 2 1
314 5 1
314 9 1
314 13 1
314 24 1
314 26 1
314 31 1
314 37 1
314 38 1
314 40 1
314 41 1
314 42 1
314 43 1
314 53 1
314 59 1
314 65 1
314 66 1
314 75 1
314 78 1
314 83 1
314 85 1
314 93 1
314 100 1
314 106 1
314 108 1
314 119 1
314 126 1
314 127 1
314 130 1
314 133 1
314 137 1
314 139 1
314 147 1
314 149 1
314 152 1
314 154 1
314 160 1
314 163 1
314 166 1
314 170 1
314 174 1
314 178 1
314 184 1
314 185 1
314 186 1
314 210 1
314 213 1
314 223 1
314 224 1
314 225 1
314 227 1
314 231 1
314 240 1
314 243 1
314 246 1
314 248 1
314 252 1
314 260 1
314 262 1
314 267 1
314 268 1
314 269 1
314 270 1
314 284 1
314 290 1
314 302 1
314 303 1
314 307 1
314 308 1
314 309 1
314 318 1
314 319 1
314 324 1
314 327 1
314 328 1
314 329 1
314 330 1
314 332 1
314 335 1
314 341 1
314 342 1
314 345 1
314 371 1
314 372 1
314 380 1
314 381 1
314 387 1
314 398 1
314 400 1
314 402 1
314 404 1
314 407 1
314 429 1
314 431 1
314 433 1
314 443 1
314 447 1
314 449 1
314 451 1
314 461 1
314 465 1
314 466 1
314 467 1
314 473 1
314 475 1
314 480 1
314 484 1
315 5 1
315 17 1
315 22 1
315 30 1
315 36 1
315 45 1
315 50 1
315 53 1
315 69 1
315 70 1
315 72 1
315 82 1
315 83 1
315 84 1
315 91 1
315 102 1
315 105 1
315 110 1
315 115 1
315 119 1
315 130 1
315 132 1
315 133 1
315 135 1
315 142 1
315 145 1
315 146 1
315 154 1
315 160 1
315 164 1
315 170 1
315 171 1
315 174 1
315 177 1
315 178 1
315 179 1
315 180 1
315 182 1
315 186 1
315 194 1
315 200 1
315 207 1
315 209 1
315 211 1
315 213 1
315 218 1
315 221 1
315 228 1
315 237 1
315 253 1
315 255 1
315 258 1
315 262 1
315 264 1
315 265 1
315 273 1
315 275 1
315 277 1
315 280 1
315 284 1
315 286 1
315 287 1
315 295 1
315 297 1
315 298 1
315 299 1
315 302 1
315 304 1
315 307 1
315 308 1
315 311 1
315 312 1
315 316 1
315 321 1
315 322 1
315 334 1
315 335 1
315 337 1
315 362 1
315 363 1
315 365 1
315 367 1
315 372 1
315 373 1
315 378 1
315 380 1
315 396 1
315 400 1
315 401 1
315 402 1
315 413 1
315 415 1
315 416 1
315 429 1
315 432 1
315 435 1
315 448 1
315 451 1
315 456 1
315 464 1
315 468 1
315 469 1
315 472 1
315 476 1
315 481 1
315 484 1
315 486 1
315 492 1
315 493 1
316 2 1
316 4 1
316 14 1
316 16 1
316 17 1
316 18 1
316 22 1
316 24 1
316 30 1
316 31 1
316 37 1
316 43 1
316 46 1
316 51 1
316 53 1
316 62 1
316 63 1
316 64 1
316 66 1
316 79 1
316 84 1
316 89 1
316 93 1
316 101 1
316 102 1
316 107 1
316 128 1
316 132 1
316 135 1
316 150 1
316 156 1
316 162 1
316 163 1
316 170 1
316 180 1
316 181 1
316 185 1
316 188 1
316 193 1
316 215 1
316 216 1
316 217 1
316 223 1
316 230 1
316 231 1
316 238 1
316 242 1
316 243 1
316 263 1
316 270 1
316 283 1
316 299 1
316 308 1
316 315 1
316 327 1
316 332 1
316 335 1
316 337 1
316 343 1
316 346 1
316 348 1
316 354 1
316 356 1
316 359 1
316 365 1
316 369 1
316 379 1
316 382 1
316 389 1
316 402 1
316 409 1
316 419 1
316 420 1
316 423 1
316 435 1
316 446 1
316 448 1
316 451 1
316 453 1
316 458 1
316 467 1
316 468 1
316 489 1
316 492 1
316 494 1
316 495 1
316 500 1
317 4 1
317 7 1
317 8 1
317 25 1
317 26 1
317 35 1
317 37 1
317 40 1
317 42 1
317 49 1
317 50 1
317 58 1
317 62 1
317 63 1
317 66 1
317 67 1
317 75 1
317 76 1
317 79 1
317 92 1
317 107 1
317 108 1
317 111 1
317 113 1
317 121 1
317 128 1
317 136 1
317 139 1
317 140 1
317 148 1
317 150 1
317 152 1
317 155 1
317 158 1
317 159 1
317 160 1
317 168 1
317 174 1
317 180 1
317 187 1
317 190 1
317 191 1
317 195 1
317 196 1
317 198 1
317 200 1
317 203 1
317 212 1
317 213 1
317 216 1
317 244 1
317 251 1
317 256 1
317 258 1
317 261 1
317 265 1
317 267 1
317 272 1
317 274 1
317 283 1
317 285 1
317 286 1
317 287 1
317 290 1
317 293 1
317 300 1
317 301 1
317 303 1
317 304 1
317 305 1
317 307 1
317 308 1
317 325 1
317 326 1
317 331 1
317 334 1
317 342 1
317 344 1
317 346 1
317 347 1
317 353 1
317 358 1
317 362 1
317 371 1
317 375 1
317 388 1
317 390 1
317 392 1
317 393 1
317 398 1
317 402 1
317 404 1
317 405 1
317 406 1
317 407 1
317 412 1
317 422 1
317 424 1
317 429 1
317 433 1
317 450 1
317 468 1
317 469 1
317 472 1
317 478 1
317 481 1
317 485 1
317 490 1
318 1 1
318 8 1
318 13 1
318 14 1
318 29 1
318 38 1
318 43 1
318 44 1
318 52 1
318 56 1
318 58 1
318 61 1
318 71 1
318 80 1
318 92 1
318 97 1
318 101 1
318 102 1
318 119 1
318 126 1
318 134 1
318 146 1
318 147 1
318 149 1
318 152 1
318 159 1
318 160 1
318 162 1
318 166 1
318 168 1
318 169 1
318 176 1
318 179 1
318 183 1
318 188 1
318 197 1
318 200 1
318 206 1
318 214 1
318 220 1
318 221 1
318 224 1
318 228 1
318 238 1
318 239 1
318 240 1
318 241 1
318 244 1
318 252 1
318 253 1
318 254 1
318 261 1
318 270 1
318 274 1
318 277 1
318 281 1
318 290 1
318 293 1
318 299 1
318 305 1
318 306 1
318 312 1
318 314 1
318 321 1
318 324 1
318 328 1
318 343 1
318 344 1
318 349 1
318 353 1
318 362 1
318 377 1
318 380 1
318 381 1
318 383 1
318 388 1
318 389 1
318 398 1
318 400 1
318 404 1
318 405 1
318 407 1
318 408 1
318 417 1
318 420 1
318 426 1
318 428 1
318 429 1
318 431 1
318 440 1
318 443 1
318 447 1
318 456 1
318 459 1
318 461 1
318 463 1
318 464 1
318 465 1
318 470 1
318 477 1
318 479 1
318 480 1
318 481 1
318 484 1
318 487 1
319 4 1
319 9 1
319 11 1
319 16 1
319 18 1
319 22 1
319 39 1
319 56 1
319 61 1
319 62 1
319 68 1
319 70 1
319 73 1
319 76 1
319 78 1
319 80 1
319 81 1
319 82 1
319 91 1
319 93 1
319 95 1
319 97 1
319 102 1
319 104 1
319 109 1
319 120 1
319 132 1
319 133 1
319 135 1
319 139 1
319 141 1
319 144 1
319 145 1
319 149 1
319 155 1
319 165 1
319 176 1
319 186 1
319 189 1
319 190 1
319 197 1
319 201 1
319 205 1
319 207 1
319 208 1
319 210 1
319 215 1
319 217 1
319 222 1
319 230 1
319 236 1
319 238 1
319 239 1
319 246 1
319 253 1
319 268 1
319 269 1
319 273 1
319 275 1
319 276 1
319 278 1
319 279 1
319 281 1
319 283 1
319 288 1
319 294 1
319 301 1
319 314 1
319 322 1
319 327 1
319 329 1
319 330 1
319 336 1
319 337 1
319 339 1
319 346 1
319 349 1
319 350 1
319 353 1
319 361 1
319 365 1
319 367 1
319 383 1
319 385 1
319 387 1
319 398 1
319 403 1
319 406 1
319 409 1
319 423 1
319 426 1
319 431 1
319 438 1
319 441 1
319 447 1
319 448 1
319 466 1
319 468 1
319 470 1
319 471 1
319 472 1
319 479 1
319 481 1
319 492 1
319 497 1
320 1 1
320 7 1
320 10 1
320 21 1
320 22 1
320 27 1
320 32 1
320 33 1
320 38 1
320 45 1
320 47 1
320 58 1
320 66 1
320 71 1
320 72 1
320 84 1
320 89 1
320 93 1
320 103 1
320 104 1
320 114 1
320 120 1
320 123 1
320 126 1
320 137 1
320 141 1
320 145 1
320 147 1
320 148 1
320 149 1
320 151 1
320 157 1
320 161 1
320 172 1
320 175 1
320 180 1
320 182 1
320 188 1
320 198 1
320 205 1
320 206 1
320 220 1
320 231 1
320 233 1
320 235 1
320 240 1
320 246 1
320 253 1
320 257 1
320 265 1
320 273 1
320 277 1
320 281 1
320 300 1
320 301 1
320 302 1
320 303 1
320 310 1
320 311 1
320 326 1
320 332 1
320 334 1
320 336 1
320 337 1
320 338 1
320 339 1
320 340 1
320 342 1
320 345 1
320 346 1
320 357 1
320 362 1
320 363 1
320 378 1
320 382 1
320 388 1
320 389 1
320 396 1
320 397 1
320 405 1
320 407 1
320 408 1
320 424 1
320 425 1
320 438 1
320 439 1
320 443 1
320 444 1
320 450 1
320 463 1
320 466 1
320 470 1
320 471 1
320 487 1
320 493 1
320 499 1
321 7 1
321 11 1
321 18 1
321 22 1
321 26 1
321 31 1
321 33 1
321 42 1
321 45 1
321 50 1
321 52 1
321 56 1
321 58 1
321 61 1
321 65 1
321 66 1
321 68 1
321 81 1
321 83 1
321 84 1
321 87 1
321 92 1
321 97 1
321 98 1
321 103 1
321 106 1
321 114 1
321 115 1
321 118 1
321 125 1
321 127 1
321 129 1
321 130 1
321 132 1
321 133 1
321 136 1
321 141 1
321 144 1
321 159 1
321 167 1
321 168 1
321 170 1
321 173 1
321 179 1
321 183 1
321 191 1
321 206 1
321 212 1
321 214 1
321 215 1
321 216 1
321 226 1
321 229 1
321 233 1
321 237 1
321 238 1
321 250 1
321 254 1
321 264 1
321 273 1
321 276 1
321 277 1
321 300 1
321 308 1
321 311 1
321 315 1
321 318 1
321 324 1
321 325 1
321 328 1
321 331 1
321 336 1
321 337 1
321 340 1
321 345 1
321 346 1
321 350 1
321 356 1
321 360 1
321 361 1
321 366 1
321 367 1
321 377 1
321 378 1
321 401 1
321 405 1
321 409 1
321 418 1
321 422 1
321 423 1
321 442 1
321 443 1
321 450 1
321 454 1
321 467 1
321 468 1
321 473 1
321 474 1
321 483 1
321 490 1
322 1 1
322 3 1
322 15 1
322 20 1
322 21 1
322 23 1
322 31 1
322 39 1
322 40 1
322 41 1
322 46 1
322 48 1
322 64 1
322 80 1
322 82 1
322 85 1
322 87 1
322 88 1
322 97 1
322 99 1
322 100 1
322 104 1
322 107 1
322 109 1
322 120 1
322 122 1
322 126 1
322 133 1
322 136 1
322 148 1
322 161 1
322 163 1
322 164 1
322 165 1
322 174 1
322 175 1
322 179 1
322 194 1
322 195 1
322 196 1
322 202 1
322 205 1
322 206 1
322 207 1
322 208 1
322 214 1
322 219 1
322 224 1
322 228 1
322 234 1
322 240 1
322 242 1
322 243 1
322 248 1
322 262 1
322 272 1
322 281 1
322 287 1
322 289 1
322 298 1
322 299 1
322 303 1
322 307 1
322 308 1
322 309 1
322 313 1
322 315 1
322 319 1
322 328 1
322 338 1
322 351 1
322 356 1
322 359 1
322 370 1
322 374 1
322 377 1
322 380 1
322 384 1
322 393 1
322 394 1
322 398 1
322 399 1
322 402 1
322 406 1
322 409 1
322 410 1
322 411 1
322 422 1
322 435 1
322 438 1
322 443 1
322 461 1
322 462 1
322 470 1
322 477 1
322 482 1
322 499 1
323 3 1
323 4 1
323 7 1
323 11 1
323 17 1
323 20 1
323 24 1
323 27 1
323 28 1
323 35 1
323 39 1
323 53 1
323 54 1
323 66 1
323 69 1
323 72 1
323 73 1
323 77 1
323 82 1
323 88 1
323 93 1
323 96 1
323 100 1
323 103 1
323 106 1
323 111 1
323 115 1
323 119 1
323 121 1
323 125 1
323 129 1
323 130 1
323 139 1
323 145 1
323 146 1
323 149 1
323 152 1
323 153 1
323 158 1
323 166 1
323 169 1
323 174 1
323 180 1
323 182 1
323 184 1
323 191 1
323 196 1
323 200 1
323 206 1
323 207 1
323 209 1
323 211 1
323 212 1
323 213 1
323 215 1
323 219 1
323 223 1
323 230 1
323 231 1
323 234 1
323 235 1
323 237 1
323 240 1
323 244 1
323 249 1
323 255 1
323 259 1
323 261 1
323 262 1
323 264 1
323 265 1
323 266 1
323 267 1
323 273 1
323 277 1
323 278 1
323 284 1
323 286 1
323 287 1
323 292 1
323 294 1
323 324 1
323 325 1
323 326 1
323 331 1
323 335 1
323 344 1
323 349 1
323 351 1
323 354 1
323 355 1
323 359 1
323 374 1
323 383 1
323 389 1
323 392 1
323 408 1
323 412 1
323 413 1
323 419 1
323 422 1
323 426 1
323 427 1
323 428 1
323 431 1
323 435 1
323 436 1
323 438 1
323 442 1
323 448 1
323 449 1
323 458 1
323 463 1
323 475 1
323 480 1
323 482 1
323 483 1
323 487 1
323 488 1
323 493 1
323 498 1
324 7 1
324 11 1
324 12 1
324 18 1
324 20 1
324 23 1
324 25 1
324 33 1
324 35 1
324 36 1
324 41 1
324 42 1
324 49 1
324 51 1
324 59 1
324 66 1
324 69 1
324 72 1
324 74 1
324 77 1
324 78 1
324 81 1
324 87 1
324 89 1
324 94 1
324 97 1
324 103 1
324 113 1
324 114 1
324 120 1
324 123 1
324 135 1
324 143 1
324 146 1
324 148 1
324 151 1
324 155 1
324 170 1
324 172 1
324 173 1
324 174 1
324 176 1
324 178 1
324 179 1
324 182 1
324 197 1
324 202 1
324 208 1
324 209 1
324 210 1
324 212 1
324 213 1
324 222 1
324 240 1
324 241 1
324 243 1
324 244 1
324 247 1
324 249 1
324 252 1
324 260 1
324 271 1
324 273 1
324 276 1
324 285 1
324 288 1
324 292 1
324 295 1
324 298 1
324 305 1
324 314 1
324 318 1
324 321 1
324 323 1
324 325 1
324 333 1
324 336 1
324 344 1
324 346 1
324 347 1
324 351 1
324 352 1
324 356 1
324 367 1
324 370 1
324 371 1
324 373 1
324 377 1
324 385 1
324 388 1
324 395 1
324 397 1
324 404 1
324 410 1
324 416 1
324 419 1
324 426 1
324 437 1
324 438 1
324 451 1
324 453 1
324 465 1
324 466 1
324 468 1
324 470 1
324 476 1
324 486 1
324 495 1
325 3 1
325 7 1
325 16 1
325 21 1
325 24 1
325 25 1
325 26 1
325 27 1
325 35 1
325 38 1
325 47 1
325 52 1
325 53 1
325 54 1
325 55 1
325 57 1
325 59 1
325 62 1
325 66 1
325 78 1
325 79 1
325 85 1
325 86 1
325 110 1
325 113 1
325 117 1
325 125 1
325 134 1
325 135 1
325 136 1
325 137 1
325 149 1
325 150 1
325 168 1
325 175 1
325 176 1
325 178 1
325 180 1
325 188 1
325 194 1
325 198 1
325 204 1
325 206 1
325 212 1
325 218 1
325 222 1
325 228 1
325 234 1
325 235 1
325 240 1
325 241 1
325 250 1
325 252 1
325 262 1
325 268 1
325 270 1
325 271 1
325 273 1
325 276 1
325 277 1
325 280 1
325 281 1
325 290 1
325 292 1
325 295 1
325 297 1
325 302 1
325 307 1
325 308 1
325 313 1
325 317 1
325 321 1
325 323 1
325 324 1
325 355 1
325 360 1
325 365 1
325 366 1
325 373 1
325 377 1
325 395 1
325 396 1
325 401 1
325 414 1
325 420 1
325 427 1
325 438 1
325 443 1
325 462 1
325 469 1
325 470 1
325 472 1
325 473 1
325 474 1
325 475 1
325 485 1
325 492 1
325 493 1
325 495 1
325 497 1
325 499 1
326 5 1
326 7 1
326 8 1
326 29 1
326 30 1
326 36 1
326 42 1
326 44 1
326 50 1
326 66 1
326 67 1
326 69 1
326 71 1
326 76 1
326 79 1
326 80 1
326 82 1
326 88 1
326 90 1
326 95 1
326 98 1
326 99 1
326 100 1
326 106 1
326 109 1
326 112 1
326 114 1
326 124 1
326 127 1
326 133 1
326 134 1
326 137 1
326 144 1
326 147 1
326 149 1
326 154 1
326 164 1
326 166 1
326 176 1
326 179 1
326 180 1
326 189 1
326 192 1
326 193 1
326 201 1
326 203 1
326 204 1
326 215 1
326 221 1
326 235 1
326 245 1
326 247 1
326 249 1
326 250 1
326 262 1
326 268 1
326 275 1
326 277 1
326 281 1
326 283 1
326 284 1
326 285 1
326 288 1
326 292 1
326 294 1
326 295 1
326 297 1
326 298 1
326 302 1
326 305 1
326 317 1
326 320 1
326 323 1
326 327 1
326 328 1
326 332 1
326 336 1
326 337 1
326 351 1
326 355 1
326 359 1
326 369 1
326 372 1
326 376 1
326 385 1
326 387 1
326 397 1
326 402 1
326 406 1
326 415 1
326 418 1
326 424 1
326 427 1
326 438 1
326 440 1
326 446 1
326 450 1
326 452 1
326 462 1
326 466 1
326 468 1
326 476 1
326 495 1
327 1 1
327 2 1
327 24 1
327 26 1
327 31 1
327 40 1
327 49 1
327 51 1
327 55 1
327 59 1
327 63 1
327 78 1
327 82 1
327 87 1
327 92 1
327 96 1
327 107 1
327 109 1
327 110 1
327 114 1
327 118 1
327 133 1
327 134 1
327 141 1
327 142 1
327 144 1
327 149 1
327 150 1
327 151 1
327 176 1
327 180 1
327 191 1
327 194 1
327 195 1
327 200 1
327 202 1
327 219 1
327 223 1
327 226 1
327 227 1
327 234 1
327 242 1
327 250 1
327 269 1
327 286 1
327 289 1
327 290 1
327 294 1
327 297 1
327 314 1
327 316 1
327 319 1
327 326 1
327 329 1
327 331 1
327 333 1
327 336 1
327 344 1
327 347 1
327 353 1
327 356 1
327 361 1
327 371 1
327 372 1
327 379 1
327 380 1
327 389 1
327 391 1
327 392 1
327 393 1
327 406 1
327 411 1
327 412 1
327 416 1
327 423 1
327 427 1
327 446 1
327 447 1
327 462 1
327 463 1
327 464 1
327 466 1
327 483 1
327 484 1
327 489 1
327 499 1
327 500 1
328 10 1
328 28 1
328 31 1
328 38 1
328 40 1
328 51 1
328 62 1
328 64 1
328 67 1
328 70 1
328 71 1
328 72 1
328 90 1
328 103 1
328 113 1
328 115 1
328 135 1
328 137 1
328 146 1
328 152 1
328 158 1
328 162 1
328 166 1
328 183 1
328 184 1
328 198 1
328 199 1
328 200 1
328 204 1
328 205 1
328 212 1
328 213 1
328 217 1
328 226 1
328 237 1
328 241 1
328 245 1
328 247 1
328 254 1
328 261 1
328 262 1
328 266 1
328 268 1
328 273 1
328 278 1
328 287 1
328 291 1
328 300 1
328 305 1
328 309 1
328 313 1
328 314 1
328 318 1
328 321 1
328 322 1
328 326 1
328 330 1
328 331 1
328 332 1
328 333 1
328 334 1
328 339 1
328 340 1
328 344 1
328 354 1
328 357 1
328 361 1
328 363 1
328 364 1
328 368 1
328 369 1
328 373 1
328 374 1
328 375 1
328 383 1
328 386 1
328 392 1
328 402 1
328 407 1
328 408 1
328 409 1
328 414 1
328 421 1
328 424 1
328 426 1
328 442 1
328 449 1
328 454 1
328 462 1
328 463 1
328 465 1
328 467 1
328 468 1
328 471 1
328 475 1
328 482 1
328 486 1
328 489 1
328 490 1
328 491 1
329 1 1
329 7 1
329 9 1
329 10 1
329 12 1
329 14 1
329 26 1
329 33 1
329 42 1
329 46 1
329 48 1
329 54 1
329 55 1
329 56 1
329 58 1
329 65 1
329 71 1
329 87 1
329 96 1
329 103 1
329 117 1
329 120 1
329 121 1
329 124 1
329 128 1
329 132 1
329 139 1
329 144 1
329 145 1
329 168 1
329 173 1
329 181 1
329 182 1
329 194 1
329 197 1
329 206 1
329 210 1
329 211 1
329 212 1
329 218 1
329 222 1
329 223 1
329 226 1
329 234 1
329 236 1
329 238 1
329 239 1
329 249 1
329 250 1
329 253 1
329 262 1
329 264 1
329 270 1
329 273 1
329 280 1
329 287 1
329 291 1
329 293 1
329 297 1
329 299 1
329 314 1
329 319 1
329 327 1
329 336 1
329 342 1
329 345 1
329 350 1
329 353 1
329 355 1
329 356 1
329 366 1
329 370 1
329 375 1
329 377 1
329 381 1
329 382 1
329 390 1
329 398 1
329 401 1
329 407 1
329 409 1
329 410 1
329 413 1
329 414 1
329 415 1
329 429 1
329 430 1
329 438 1
329 452 1
329 456 1
329 459 1
329 465 1
329 472 1
329 488 1
329 489 1
329 491 1
329 495 1
330 2 1
330 4 1
330 10 1
330 13 1
330 17 1
330 18 1
330 26 1
330 33 1
330 35 1
330 40 1
330 45 1
330 46 1
330 50 1
330 56 1
330 59 1
330 61 1
330 63 1
330 66 1
330 69 1
330 74 1
330 78 1
330 82 1
330 84 1
330 93 1
330 94 1
330 100 1
330 106 1
330 112 1
330 116 1
330 122 1
330 127 1
330 128 1
330 133 1
330 134 1
330 135 1
330 136 1
330 139 1
330 149 1
330 167 1
330 170 1
330 172 1
330 175 1
330 176 1
330 177 1
330 178 1
330 184 1
330 187 1
330 190 1
330 205 1
330 210 1
330 212 1
330 217 1
330 220 1
330 222 1
330 228 1
330 238 1
330 242 1
330 243 1
330 250 1
330 259 1
330 262 1
330 265 1
330 274 1
330 279 1
330 289 1
330 295 1
330 301 1
330 306 1
330 308 1
330 310 1
330 312 1
330 314 1
330 319 1
330 328 1
330 353 1
330 356 1
330 367 1
330 380 1
330 383 1
330 397 1
330 402 1
330 407 1
330 408 1
330 411 1
330 413 1
330 414 1
330 416 1
330 439 1
330 444 1
330 445 1
330 447 1
330 451 1
330 464 1
330 465 1
330 468 1
330 471 1
330 476 1
330 478 1
330 480 1
330 483 1
330 500 1
331 2 1
331 5 1
331 11 1
331 14 1
331 16 1
331 37 1
331 42 1
331 51 1
331 56 1
331 59 1
331 61 1
331 64 1
331 67 1
331 70 1
331 75 1
331 77 1
331 80 1
331 89 1
331 93 1
331 98 1
331 108 1
331 112 1
331 113 1
331 121 1
331 128 1
331 135 1
331 136 1
331 139 1
331 142 1
331 143 1
331 154 1
331 183 1
331 188 1
331 191 1
331 197 1
331 201 1
331 205 1
331 206 1
331 207 1
331 218 1
331 219 1
331 247 1
331 248 1
331 252 1
331 261 1
331 263 1
331 269 1
331 273 1
331 275 1
331 295 1
331 298 1
331 304 1
331 306 1
331 312 1
331 313 1
331 317 1
331 321 1
331 323 1
331 327 1
331 328 1
331 340 1
331 343 1
331 348 1
331 353 1
331 354 1
331 365 1
331 372 1
331 380 1
331 393 1
331 396 1
331 410 1
331 417 1
331 419 1
331 424 1
331 428 1
331 435 1
331 436 1
331 461 1
331 463 1
331 471 1
331 472 1
331 475 1
331 477 1
331 482 1
331 485 1
331 486 1
331 492 1
331 493 1
331 494 1
331 495 1
331 497 1
332 2 1
332 9 1
332 12 1
332 14 1
332 17 1
332 18 1
332 22 1
332 28 1
332 29 1
332 31 1
332 33 1
332 39 1
332 46 1
332 50 1
332 52 1
332 62 1
332 66 1
332 68 1
332 70 1
332 73 1
332 76 1
332 84 1
332 87 1
332 90 1
332 92 1
332 103 1
332 109 1
332 113 1
332 114 1
332 116 1
332 117 1
332 118 1
332 119 1
332 123 1
332 126 1
332 130 1
332 131 1
332 134 1
332 136 1
332 149 1
332 152 1
332 155 1
332 161 1
332 182 1
332 183 1
332 193 1
332 196 1
332 199 1
332 202 1
332 203 1
332 204 1
332 205 1
332 214 1
332 218 1
332 224 1
332 228 1
332 239 1
332 249 1
332 255 1
332 261 1
332 262 1
332 265 1
332 269 1
332 270 1
332 275 1
332 276 1
332 281 1
332 287 1
332 288 1
332 289 1
332 290 1
332 297 1
332 299 1
332 314 1
332 316 1
332 320 1
332 326 1
332 328 1
332 339 1
332 344 1
332 345 1
332 346 1
332 354 1
332 362 1
332 363 1
332 368 1
332 373 1
332 374 1
332 378 1
332 382 1
332 392 1
332 397 1
332 399 1
332 400 1
332 415 1
332 416 1
332 417 1
332 420 1
332 421 1
332 422 1
332 424 1
332 427 1
332 434 1
332 450 1
332 453 1
332 454 1
332 455 1
332 458 1
332 461 1
332 466 1
332 467 1
332 468 1
332 482 1
332 486 1
332 487 1
332 496 1
333 10 1
333 13 1
333 15 1
333 26 1
333 27 1
333 33 1
333 36 1
333 44 1
333 58 1
333 62 1
333 69 1
333 89 1
333 91 1
333 104 1
333 107 1
333 112 1
333 116 1
333 117 1
333 118 1
333 121 1
333 124 1
333 130 1
333 133 1
333 136 1
333 139 1
333 143 1
333 156 1
333 159 1
333 161 1
333 169 1
333 172 1
333 177 1
333 182 1
333 188 1
333 192 1
333 196 1
333 207 1
333 219 1
333 220 1
333 222 1
333 225 1
333 228 1
333 234 1
333 243 1
333 246 1
333 256 1
333 270 1
333 276 1
333 302 1
333 303 1
333 305 1
333 309 1
333 324 1
333 327 1
333 328 1
333 338 1
333 346 1
333 349 1
333 351 1
333 353 1
333 362 1
333 364 1
333 368 1
333 389 1
333 401 1
333 405 1
333 407 1
333 410 1
333 432 1
333 435 1
333 437 1
333 441 1
333 447 1
333 452 1
333 454 1
333 455 1
333 458 1
333 459 1
333 463 1
333 487 1
333 497 1
334 4 1
334 6 1
334 11 1
334 15 1
334 17 1
334 20 1
334 22 1
334 26 1
334 31 1
334 44 1
334 45 1
334 46 1
334 48 1
334 50 1
334 51 1
334 57 1
334 78 1
334 80 1
334 91 1
334 97 1
334 107 1
334 108 1
334 109 1
334 115 1
334 121 1
334 127 1
334 129 1
334 131 1
334 133 1
334 138 1
334 158 1
334 160 1
334 165 1
334 171 1
334 172 1
334 189 1
334 197 1
334 214 1
334 220 1
334 226 1
334 231 1
334 235 1
334 236 1
334 243 1
334 245 1
334 248 1
334 253 1
334 260 1
334 275 1
334 286 1
334 290 1
334 293 1
334 303 1
334 313 1
334 315 1
334 317 1
334 320 1
334 328 1
334 335 1
334 339 1
334 340 1
334 344 1
334 350 1
334 352 1
334 362 1
334 366 1
334 367 1
334 370 1
334 374 1
334 377 1
334 379 1
334 386 1
334 395 1
334 397 1
334 399 1
334 400 1
334 404 1
334 406 1
334 412 1
334 414 1
334 416 1
334 426 1
334 427 1
334 430 1
334 431 1
334 434 1
334 438 1
334 441 1
334 445 1
334 451 1
334 455 1
334 462 1
334 472 1
334 480 1
334 481 1
334 482 1
334 483 1
334 484 1
334 486 1
335 2 1
335 8 1
335 12 1
335 15 1
335 19 1
335 23 1
335 29 1
335 32 1
335 35 1
335 36 1
335 44 1
335 45 1
335 49 1
335 50 1
335 74 1
335 78 1
335 81 1
335 86 1
335 89 1
335 92 1
335 96 1
335 100 1
335 110 1
335 113 1
335 125 1
335 129 1
335 131 1
335 132 1
335 135 1
335 153 1
335 158 1
335 159 1
335 165 1
335 166 1
335 171 1
335 173 1
335 182 1
335 191 1
335 194 1
335 199 1
335 204 1
335 208 1
335 228 1
335 229 1
335 230 1
335 234 1
335 235 1
335 248 1
335 250 1
335 257 1
335 258 1
335 259 1
335 260 1
335 261 1
335 270 1
335 272 1
335 279 1
335 283 1
335 285 1
335 287 1
335 293 1
335 305 1
335 309 1
335 314 1
335 315 1
335 316 1
335 323 1
335 334 1
335 338 1
335 354 1
335 357 1
335 359 1
335 366 1
335 367 1
335 371 1
335 373 1
335 375 1
335 377 1
335 381 1
335 383 1
335 386 1
335 392 1
335 399 1
335 402 1
335 403 1
335 405 1
335 406 1
335 408 1
335 411 1
335 415 1
335 417 1
335 426 1
335 427 1
335 430 1
335 441 1
335 443 1
335 448 1
335 449 1
335 452 1
335 455 1
335 463 1
335 481 1
335 490 1
335 496 1
336 2 1
336 3 1
336 4 1
336 22 1
336 25 1
336 28 1
336 38 1
336 44 1
336 47 1
336 48 1
336 56 1
336 70 1
336 72 1
336 78 1
336 79 1
336 82 1
336 95 1
336 96 1
336 99 1
336 104 1
336 109 1
336 115 1
336 116 1
336 119 1
336 120 1
336 124 1
336 130 1
336 135 1
336 150 1
336 160 1
336 163 1
336 175 1
336 176 1
336 180 1
336 184 1
336 186 1
336 191 1
336 201 1
336 203 1
336 204 1
336 210 1
336 214 1
336 216 1
336 218 1
336 220 1
336 222 1
336 228 1
336 231 1
336 242 1
336 246 1
336 248 1
336 262 1
336 264 1
336 271 1
336 273 1
336 279 1
336 283 1
336 285 1
336 286 1
336 299 1
336 300 1
336 312 1
336 319 1
336 320 1
336 321 1
336 324 1
336 326 1
336 327 1
336 329 1
336 342 1
336 352 1
336 365 1
336 372 1
336 373 1
336 378 1
336 383 1
336 399 1
336 404 1
336 407 1
336 412 1
336 415 1
336 416 1
336 422 1
336 426 1
336 431 1
336 433 1
336 436 1
336 437 1
336 440 1
336 441 1
336 443 1
336 445 1
336 446 1
336 451 1
336 457 1
336 459 1
336 460 1
336 466 1
336 475 1
336 481 1
336 484 1
336 489 1
336 490 1
336 494 1
336 499 1
337 4 1
337 5 1
337 7 1
337 8 1
337 9 1
337 11 1
337 16 1
337 21 1
337 29 1
337 45 1
337 57 1
337 63 1
337 65 1
337 69 1
337 71 1
337 72 1
337 74 1
337 77 1
337 78 1
337 80 1
337 81 1
337 89 1
337 95 1
337 100 1
337 109 1
337 117 1
337 120 1
337 125 1
337 134 1
337 136 1
337 139 1
337 140 1
337 143 1
337 147 1
337 150 1
337 155 1
337 161 1
337 166 1
337 168 1
337 173 1
337 179 1
337 193 1
337 195 1
337 201 1
337 211 1
337 214 1
337 215 1
337 220 1
337 226 1
337 227 1
337 237 1
337 249 1
337 250 1
337 253 1
337 266 1
337 271 1
337 274 1
337 275 1
337 279 1
337 281 1
337 291 1
337 298 1
337 303 1
337 305 1
337 307 1
337 312 1
337 313 1
337 315 1
337 316 1
337 319 1
337 320 1
337 321 1
337 326 1
337 347 1
337 352 1
337 353 1
337 354 1
337 355 1
337 356 1
337 366 1
337 368 1
337 395 1
337 399 1
337 403 1
337 406 1
337 407 1
337 408 1
337 409 1
337 416 1
337 417 1
337 419 1
337 420 1
337 422 1
337 423 1
337 428 1
337 429 1
337 434 1
337 454 1
337 455 1
337 459 1
337 465 1
337 470 1
337 472 1
337 475 1
337 476 1
337 481 1
337 494 1
337 497 1
338 7 1
338 10 1
338 11 1
338 12 1
338 13 1
338 17 1
338 20 1
338 23 1
338 25 1
338 26 1
338 38 1
338 40 1
338 43 1
338 44 1
338 46 1
338 47 1
338 51 1
338 59 1
338 60 1
338 62 1
338 70 1
338 72 1
338 75 1
338 76 1
338 77 1
338 86 1
338 89 1
338 91 1
338 96 1
338 102 1
338 114 1
338 117 1
338 119 1
338 120 1
338 124 1
338 129 1
338 131 1
338 140 1
338 144 1
338 145 1
338 151 1
338 159 1
338 166 1
338 168 1
338 169 1
338 173 1
338 182 1
338 186 1
338 188 1
338 189 1
338 191 1
338 193 1
338 198 1
338 212 1
338 216 1
338 223 1
338 225 1
338 235 1
338 238 1
338 243 1
338 248 1
338 259 1
338 260 1
338 263 1
338 279 1
338 280 1
338 284 1
338 286 1
338 293 1
338 294 1
338 298 1
338 300 1
338 305 1
338 307 1
338 311 1
338 320 1
338 322 1
338 333 1
338 335 1
338 340 1
338 350 1
338 357 1
338 361 1
338 367 1
338 370 1
338 374 1
338 376 1
338 387 1
338 395 1
338 400 1
338 404 1
338 412 1
338 418 1
338 421 1
338 424 1
338 426 1
338 429 1
338 430 1
338 431 1
338 435 1
338 440 1
338 441 1
338 459 1
338 466 1
338 467 1
338 471 1
338 474 1
338 480 1
338 487 1
338 490 1
338 492 1
338 493 1
338 500 1
339 2 1
339 7 1
339 8 1
339 13 1
339 23 1
339 32 1
339 34 1
339 37 1
339 39 1
339 53 1
339 68 1
339 78 1
339 82 1
339 86 1
339 89 1
339 90 1
339 92 1
339 93 1
339 94 1
339 109 1
339 110 1
339 122 1
339 125 1
339 131 1
339 133 1
339 142 1
339 145 1
339 146 1
339 150 1
339 153 1
339 158 1
339 160 1
339 161 1
339 165 1
339 166 1
339 172 1
339 173 1
339 175 1
339 181 1
339 195 1
339 200 1
339 211 1
339 212 1
339 214 1
339 220 1
339 230 1
339 231 1
339 234 1
339 247 1
339 253 1
339 254 1
339 257 1
339 259 1
339 267 1
339 279 1
339 287 1
339 290 1
339 292 1
339 298 1
339 302 1
339 303 1
339 308 1
339 319 1
339 320 1
339 328 1
339 332 1
339 334 1
339 348 1
339 351 1
339 352 1
339 358 1
339 379 1
339 381 1
339 390 1
339 391 1
339 397 1
339 398 1
339 400 1
339 414 1
339 415 1
339 419 1
339 421 1
339 423 1
339 424 1
339 443 1
339 446 1
339 448 1
339 454 1
339 457 1
339 461 1
339 468 1
339 472 1
339 476 1
339 479 1
339 484 1
339 488 1
339 492 1
339 496 1
339 500 1
340 2 1
340 6 1
340 9 1
340 16 1
340 17 1
340 24 1
340 26 1
340 27 1
340 30 1
340 32 1
340 34 1
340 37 1
340 40 1
340 41 1
340 43 1
340 46 1
340 52 1
340 53 1
340 61 1
340 65 1
340 68 1
340 70 1
340 83 1
340 97 1
340 103 1
340 105 1
340 107 1
340 134 1
340 135 1
340 144 1
340 158 1
340 159 1
340 161 1
340 162 1
340 163 1
340 164 1
340 165 1
340 166 1
340 169 1
340 177 1
340 179 1
340 181 1
340 182 1
340 189 1
340 196 1
340 198 1
340 199 1
340 205 1
340 208 1
340 212 1
340 234 1
340 236 1
340 239 1
340 253 1
340 263 1
340 265 1
340 267 1
340 271 1
340 275 1
340 277 1
340 284 1
340 285 1
340 290 1
340 292 1
340 320 1
340 321 1
340 328 1
340 331 1
340 334 1
340 338 1
340 342 1
340 359 1
340 365 1
340 368 1
340 371 1
340 376 1
340 383 1
340 385 1
340 387 1
340 404 1
340 408 1
340 410 1
340 413 1
340 423 1
340 424 1
340 432 1
340 434 1
340 435 1
340 443 1
340 444 1
340 451 1
340 459 1
340 465 1
340 471 1
340 479 1
340 486 1
340 498 1
341 1 1
341 9 1
341 14 1
341 24 1
341 30 1
341 35 1
341 36 1
341 42 1
341 48 1
341 52 1
341 53 1
341 56 1
341 59 1
341 64 1
341 72 1
341 77 1
341 79 1
341 82 1
341 101 1
341 103 1
341 104 1
341 106 1
341 107 1
341 109 1
341 112 1
341 113 1
341 117 1
341 121 1
341 126 1
341 133 1
341 137 1
341 147 1
341 157 1
341 163 1
341 165 1
341 167 1
341 175 1
341 177 1
341 194 1
341 201 1
341 204 1
341 206 1
341 208 1
341 209 1
341 216 1
341 219 1
341 230 1
341 231 1
341 233 1
341 244 1
341 247 1
341 257 1
341 261 1
341 262 1
341 266 1
341 269 1
341 281 1
341 285 1
341 288 1
341 294 1
341 302 1
341 303 1
341 313 1
341 314 1
341 342 1
341 348 1
341 351 1
341 353 1
341 361 1
341 364 1
341 366 1
341 368 1
341 376 1
341 377 1
341 379 1
341 384 1
341 385 1
341 391 1
341 392 1
341 394 1
341 397 1
341 399 1
341 402 1
341 404 1
341 415 1
341 416 1
341 419 1
341 427 1
341 428 1
341 434 1
341 438 1
341 441 1
341 445 1
341 450 1
341 452 1
341 456 1
341 458 1
341 463 1
341 469 1
341 470 1
341 481 1
341 484 1
341 486 1
341 493 1
342 4 1
342 8 1
342 10 1
342 13 1
342 25 1
342 41 1
342 47 1
342 49 1
342 50 1
342 55 1
342 64 1
342 74 1
342 75 1
342 81 1
342 82 1
342 85 1
342 103 1
342 111 1
342 115 1
342 116 1
342 129 1
342 131 1
342 138 1
342 141 1
342 143 1
342 147 1
342 153 1
342 161 1
342 168 1
342 170 1
342 171 1
342 176 1
342 179 1
342 181 1
342 183 1
342 195 1
342 196 1
342 200 1
342 201 1
342 203 1
342 209 1
342 210 1
342 214 1
342 215 1
342 217 1
342 221 1
342 229 1
342 237 1
342 239 1
342 240 1
342 243 1
342 244 1
342 251 1
342 262 1
342 263 1
342 268 1
342 270 1
342 285 1
342 295 1
342 299 1
342 300 1
342 314 1
342 317 1
342 320 1
342 329 1
342 336 1
342 340 1
342 341 1
342 344 1
342 347 1
342 354 1
342 358 1
342 363 1
342 366 1
342 367 1
342 381 1
342 385 1
342 391 1
342 402 1
342 413 1
342 418 1
342 436 1
342 451 1
342 456 1
342 471 1
342 473 1
342 474 1
342 476 1
342 477 1
342 478 1
342 482 1
342 484 1
342 495 1
342 499 1
343 4 1
343 6 1
343 16 1
343 18 1
343 25 1
343 26 1
343 28 1
343 41 1
343 42 1
343 45 1
343 60 1
343 73 1
343 82 1
343 90 1
343 91 1
343 97 1
343 101 1
343 112 1
343 116 1
343 124 1
343 131 1
343 136 1
343 137 1
343 142 1
343 144 1
343 150 1
343 167 1
343 172 1
343 177 1
343 180 1
343 181 1
343 188 1
343 192 1
343 199 1
343 205 1
343 207 1
343 214 1
343 215 1
343 226 1
343 227 1
343 230 1
343 241 1
343 255 1
343 262 1
343 264 1
343 271 1
343 274 1
343 276 1
343 279 1
343 286 1
343 294 1
343 296 1
343 297 1
343 302 1
343 316 1
343 318 1
343 331 1
343 344 1
343 347 1
343 350 1
343 355 1
343 356 1
343 366 1
343 369 1
343 377 1
343 381 1
343 386 1
343 388 1
343 389 1
343 404 1
343 407 1
343 411 1
343 412 1
343 413 1
343 414 1
343 417 1
343 425 1
343 430 1
343 433 1
343 434 1
343 436 1
343 451 1
343 453 1
343 458 1
343 459 1
343 471 1
343 472 1
343 476 1
343 477 1
343 482 1
343 485 1
343 492 1
343 496 1
344 7 1
344 12 1
344 17 1
344 26 1
344 30 1
344 34 1
344 40 1
344 42 1
344 46 1
344 48 1
344 52 1
344 57 1
344 59 1
344 70 1
344 88 1
344 90 1
344 91 1
344 99 1
344 101 1
344 109 1
344 110 1
344 124 1
344 126 1
344 134 1
344 136 1
344 138 1
344 146 1
344 149 1
344 164 1
344 168 1
344 171 1
344 184 1
344 185 1
344 197 1
344 202 1
344 208 1
344 210 1
344 214 1
344 227 1
344 230 1
344 232 1
344 243 1
344 246 1
344 247 1
344 252 1
344 257 1
344 261 1
344 263 1
344 274 1
344 275 1
344 283 1
344 285 1
344 297 1
344 308 1
344 317 1
344 318 1
344 323 1
344 324 1
344 327 1
344 328 1
344 332 1
344 334 1
344 342 1
344 343 1
344 345 1
344 357 1
344 364 1
344 367 1
344 369 1
344 372 1
344 373 1
344 377 1
344 384 1
344 385 1
344 386 1
344 394 1
344 403 1
344 417 1
344 429 1
344 430 1
344 432 1
344 434 1
344 438 1
344 444 1
344 447 1
344 452 1
344 454 1
344 455 1
344 457 1
344 458 1
344 460 1
344 477 1
344 483 1
344 491 1
344 494 1
344 500 1
345 5 1
345 22 1
345 25 1
345 36 1
345 41 1
345 43 1
345 46 1
345 48 1
345 51 1
345 52 1
345 56 1
345 60 1
345 61 1
345 62 1
345 66 1
345 70 1
345 83 1
345 89 1
345 91 1
345 92 1
345 98 1
345 100 1
345 103 1
345 111 1
345 112 1
345 113 1
345 116 1
345 117 1
345 124 1
345 129 1
345 140 1
345 141 1
345 145 1
345 149 1
345 156 1
345 159 1
345 170 1
345 172 1
345 175 1
345 186 1
345 190 1
345 191 1
345 203 1
345 204 1
345 207 1
345 208 1
345 215 1
345 217 1
345 221 1
345 226 1
345 228 1
345 233 1
345 239 1
345 245 1
345 250 1
345 251 1
345 255 1
345 261 1
345 266 1
345 268 1
345 269 1
345 270 1
345 288 1
345 299 1
345 301 1
345 307 1
345 310 1
345 314 1
345 320 1
345 321 1
345 329 1
345 332 1
345 344 1
345 348 1
345 350 1
345 351 1
345 357 1
345 362 1
345 366 1
345 375 1
345 378 1
345 383 1
345 388 1
345 390 1
345 399 1
345 404 1
345 406 1
345 408 1
345 412 1
345 414 1
345 415 1
345 423 1
345 428 1
345 434 1
345 436 1
345 445 1
345 447 1
345 448 1
345 450 1
345 452 1
345 462 1
345 471 1
345 476 1
345 478 1
345 480 1
345 485 1
345 486 1
345 488 1
345 492 1
345 498 1
346 13 1
346 21 1
346 27 1
346 34 1
346 42 1
346 46 1
346 47 1
346 49 1
346 58 1
346 62 1
346 71 1
346 80 1
346 90 1
346 92 1
346 97 1
346 104 1
346 108 1
346 111 1
346 112 1
346 116 1
346 119 1
346 122 1
346 123 1
346 127 1
346 130 1
346 143 1
346 149 1
346 158 1
346 161 1
346 172 1
346 173 1
346 174 1
346 182 1
346 185 1
346 188 1
346 189 1
346 191 1
346 196 1
346 209 1
346 213 1
346 221 1
346 227 1
346 229 1
346 231 1
346 258 1
346 267 1
346 268 1
346 272 1
346 273 1
346 276 1
346 279 1
346 281 1
346 285 1
346 298 1
346 300 1
346 301 1
346 303 1
346 309 1
346 316 1
346 317 1
346 319 1
346 320 1
346 321 1
346 324 1
346 332 1
346 333 1
346 348 1
346 350 1
346 351 1
346 357 1
346 362 1
346 369 1
346 379 1
346 380 1
346 391 1
346 399 1
346 405 1
346 406 1
346 412 1
346 416 1
346 423 1
346 425 1
346 427 1
346 429 1
346 432 1
346 434 1
346 435 1
346 437 1
346 438 1
346 445 1
346 446 1
346 451 1
346 463 1
346 470 1
346 475 1
346 476 1
346 485 1
346 499 1
347 9 1
347 16 1
347 28 1
347 35 1
347 37 1
347 48 1
347 55 1
347 56 1
347 62 1
347 69 1
347 71 1
347 72 1
347 73 1
347 76 1
347 78 1
347 80 1
347 93 1
347 96 1
347 109 1
347 112 1
347 118 1
347 127 1
347 138 1
347 153 1
347 155 1
347 166 1
347 167 1
347 171 1
347 172 1
347 173 1
347 183 1
347 187 1
347 189 1
347 193 1
347 203 1
347 207 1
347 218 1
347 220 1
347 222 1
347 223 1
347 240 1
347 241 1
347 245 1
347 251 1
347 266 1
347 267 1
347 285 1
347 287 1
347 294 1
347 295 1
347 297 1
347 304 1
347 317 1
347 324 1
347 327 1
347 337 1
347 342 1
347 343 1
347 348 1
347 361 1
347 362 1
347 364 1
347 374 1
347 382 1
347 386 1
347 389 1
347 392 1
347 394 1
347 399 1
347 409 1
347 412 1
347 414 1
347 415 1
347 417 1
347 423 1
347 429 1
347 431 1
347 444 1
347 447 1
347 449 1
347 453 1
347 454 1
347 463 1
347 468 1
347 471 1
347 474 1
347 475 1
347 476 1
347 477 1
347 483 1
347 488 1
347 492 1
347 495 1
348 4 1
348 10 1
348 12 1
348 21 1
348 27 1
348 29 1
348 34 1
348 37 1
348 41 1
348 55 1
348 57 1
348 58 1
348 62 1
348 71 1
348 73 1
348 74 1
348 75 1
348 78 1
348 79 1
348 91 1
348 93 1
348 95 1
348 96 1
348 98 1
348 104 1
348 111 1
348 116 1
348 122 1
348 131 1
348 138 1
348 140 1
348 147 1
348 152 1
348 164 1
348 170 1
348 178 1
348 188 1
348 189 1
348 213 1
348 216 1
348 218 1
348 223 1
348 225 1
348 233 1
348 238 1
348 243 1
348 244 1
348 251 1
348 252 1
348 253 1
348 255 1
348 258 1
348 266 1
348 268 1
348 271 1
348 274 1
348 276 1
348 286 1
348 292 1
348 293 1
348 309 1
348 311 1
348 313 1
348 316 1
348 331 1
348 339 1
348 341 1
348 345 1
348 346 1
348 347 1
348 351 1
348 360 1
348 361 1
348 363 1
348 368 1
348 370 1
348 374 1
348 375 1
348 383 1
348 390 1
348 396 1
348 404 1
348 406 1
348 407 1
348 408 1
348 411 1
348 412 1
348 413 1
348 417 1
348 420 1
348 423 1
348 429 1
348 445 1
348 454 1
348 460 1
348 466 1
348 471 1
348 475 1
348 476 1
348 486 1
348 492 1
348 494 1
349 1 1
349 3 1
349 28 1
349 33 1
349 37 1
349 39 1
349 42 1
349 57 1
349 60 1
349 66 1
349 69 1
349 79 1
349 83 1
349 86 1
349 90 1
349 103 1
349 113 1
349 120 1
349 127 1
349 130 1
349 146 1
349 154 1
349 155 1
349 159 1
349 160 1
349 161 1
349 171 1
349 172 1
349 173 1
349 178 1
349 179 1
349 184 1
349 188 1
349 190 1
349 209 1
349 210 1
349 212 1
349 215 1
349 216 1
349 217 1
349 224 1
349 230 1
349 236 1
349 237 1
349 242 1
349 252 1
349 257 1
349 258 1
349 260 1
349 261 1
349 280 1
349 285 1
349 290 1
349 294 1
349 295 1
349 301 1
349 307 1
349 313 1
349 318 1
349 319 1
349 323 1
349 333 1
349 351 1
349 357 1
349 368 1
349 380 1
349 386 1
349 389 1
349 390 1
349 419 1
349 422 1
349 426 1
349 433 1
349 434 1
349 436 1
349 439 1
349 441 1
349 449 1
349 450 1
349 458 1
349 461 1
349 462 1
349 465 1
349 485 1
349 499 1
350 4 1
350 24 1
350 25 1
350 28 1
350 29 1
350 30 1
350 32 1
350 34 1
350 35 1
350 37 1
350 44 1
350 55 1
350 60 1
350 62 1
350 63 1
350 69 1
350 72 1
350 75 1
350 81 1
350 89 1
350 90 1
350 91 1
350 95 1
350 98 1
350 100 1
350 102 1
350 122 1
350 125 1
350 126 1
350 133 1
350 142 1
350 146 1
350 151 1
350 153 1
350 157 1
350 167 1
350 174 1
350 177 1
350 180 1
350 182 1
350 183 1
350 189 1
350 191 1
350 200 1
350 201 1
350 203 1
350 213 1
350 216 1
350 217 1
350 223 1
350 225 1
350 244 1
350 249 1
350 253 1
350 258 1
350 263 1
350 276 1
350 278 1
350 282 1
350 288 1
350 289 1
350 295 1
350 313 1
350 319 1
350 321 1
350 329 1
350 334 1
350 338 1
350 343 1
350 345 1
350 346 1
350 357 1
350 364 1
350 371 1
350 377 1
350 382 1
350 387 1
350 396 1
350 399 1
350 402 1
350 404 1
350 408 1
350 409 1
350 410 1
350 411 1
350 418 1
350 419 1
350 425 1
350 426 1
350 427 1
350 428 1
350 429 1
350 434 1
350 437 1
350 442 1
350 447 1
350 452 1
350 463 1
350 466 1
350 472 1
350 474 1
350 482 1
350 483 1
350 485 1
350 489 1
350 491 1
350 496 1
350 497 1
351 6 1
351 8 1
351 11 1
351 13 1
351 14 1
351 21 1
351 25 1
351 28 1
351 39 1
351 50 1
351 65 1
351 66 1
351 77 1
351 80 1
351 88 1
351 94 1
351 101 1
351 102 1
351 104 1
351 108 1
351 114 1
351 116 1
351 119 1
351 126 1
351 128 1
351 134 1
351 143 1
351 146 1
351 150 1
351 153 1
351 154 1
351 159 1
351 161 1
351 165 1
351 197 1
351 226 1
351 227 1
351 244 1
351 248 1
351 249 1
351 252 1
351 253 1
351 261 1
351 262 1
351 263 1
351 278 1
351 286 1
351 288 1
351 292 1
351 294 1
351 303 1
351 306 1
351 322 1
351 323 1
351 324 1
351 326 1
351 333 1
351 339 1
351 341 1
351 345 1
351 346 1
351 348 1
351 349 1
351 355 1
351 357 1
351 361 1
351 364 1
351 365 1
351 369 1
351 372 1
351 375 1
351 392 1
351 397 1
351 402 1
351 404 1
351 409 1
351 417 1
351 420 1
351 427 1
351 429 1
351 443 1
351 446 1
351 448 1
351 455 1
351 456 1
351 457 1
351 458 1
351 462 1
351 465 1
351 466 1
351 467 1
351 468 1
351 470 1
351 476 1
351 477 1
351 484 1
351 485 1
351 486 1
351 493 1
351 496 1
351 497 1
351 500 1
352 4 1
352 6 1
352 11 1
352 13 1
352 16 1
352 27 1
352 28 1
352 30 1
352 39 1
352 41 1
352 46 1
352 49 1
352 65 1
352 70 1
352 72 1
352 76 1
352 80 1
352 87 1
352 88 1
352 89 1
352 101 1
352 104 1
352 115 1
352 118 1
352 138 1
352 144 1
352 147 1
352 150 1
352 152 1
352 153 1
352 155 1
352 156 1
352 159 1
352 160 1
352 161 1
352 162 1
352 164 1
352 166 1
352 171 1
352 172 1
352 173 1
352 184 1
352 185 1
352 188 1
352 192 1
352 196 1
352 198 1
352 200 1
352 202 1
352 207 1
352 208 1
352 212 1
352 214 1
352 215 1
352 225 1
352 228 1
352 232 1
352 236 1
352 244 1
352 246 1
352 249 1
352 259 1
352 261 1
352 265 1
352 276 1
352 282 1
352 285 1
352 292 1
352 294 1
352 296 1
352 298 1
352 302 1
352 304 1
352 308 1
352 324 1
352 334 1
352 336 1
352 337 1
352 339 1
352 362 1
352 365 1
352 370 1
352 371 1
352 373 1
352 380 1
352 389 1
352 391 1
352 394 1
352 398 1
352 400 1
352 404 1
352 407 1
352 409 1
352 415 1
352 421 1
352 432 1
352 447 1
352 448 1
352 452 1
352 454 1
352 458 1
352 460 1
352 467 1
352 480 1
352 483 1
352 487 1
352 491 1
352 494 1
352 499 1
352 500 1
353 6 1
353 13 1
353 16 1
353 19 1
353 20 1
353 31 1
353 32 1
353 46 1
353 49 1
353 50 1
353 53 1
353 54 1
353 55 1
353 57 1
353 58 1
353 59 1
353 65 1
353 66 1
353 70 1
353 74 1
353 77 1
353 79 1
353 90 1
353 93 1
353 102 1
353 103 1
353 104 1
353 106 1
353 108 1
353 119 1
353 120 1
353 124 1
353 125 1
353 126 1
353 131 1
353 138 1
353 139 1
353 141 1
353 154 1
353 158 1
353 159 1
353 165 1
353 169 1
353 177 1
353 178 1
353 182 1
353 187 1
353 194 1
353 196 1
353 198 1
353 200 1
353 208 1
353 217 1
353 220 1
353 224 1
353 225 1
353 231 1
353 237 1
353 239 1
353 242 1
353 243 1
353 244 1
353 249 1
353 250 1
353 255 1
353 257 1
353 262 1
353 265 1
353 267 1
353 270 1
353 275 1
353 276 1
353 277 1
353 284 1
353 291 1
353 294 1
353 299 1
353 300 1
353 303 1
353 308 1
353 310 1
353 312 1
353 317 1
353 318 1
353 319 1
353 327 1
353 329 1
353 330 1
353 331 1
353 333 1
353 337 1
353 341 1
353 357 1
353 361 1
353 367 1
353 368 1
353 369 1
353 370 1
353 373 1
353 374 1
353 382 1
353 389 1
353 391 1
353 393 1
353 399 1
353 400 1
353 406 1
353 413 1
353 437 1
353 448 1
353 449 1
353 454 1
353 457 1
353 466 1
353 468 1
353 472 1
353 473 1
353 476 1
353 482 1
353 484 1
353 488 1
353 489 1
353 490 1
353 494 1
354 10 1
354 17 1
354 19 1
354 22 1
354 36 1
354 41 1
354 52 1
354 55 1
354 87 1
354 90 1
354 91 1
354 97 1
354 101 1
354 112 1
354 121 1
354 123 1
354 130 1
354 138 1
354 139 1
354 140 1
354 143 1
354 154 1
354 161 1
354 166 1
354 169 1
354 191 1
354 197 1
354 200 1
354 201 1
354 207 1
354 211 1
354 219 1
354 228 1
354 230 1
354 233 1
354 236 1
354 246 1
354 249 1
354 257 1
354 265 1
354 267 1
354 274 1
354 275 1
354 276 1
354 287 1
354 288 1
354 296 1
354 305 1
354 308 1
354 316 1
354 323 1
354 328 1
354 331 1
354 332 1
354 335 1
354 337 1
354 342 1
354 357 1
354 361 1
354 369 1
354 373 1
354 374 1
354 375 1
354 380 1
354 385 1
354 386 1
354 389 1
354 392 1
354 394 1
354 404 1
354 407 1
354 411 1
354 415 1
354 428 1
354 433 1
354 451 1
354 459 1
354 467 1
354 470 1
354 471 1
354 476 1
354 484 1
354 493 1
354 494 1
354 499 1
355 9 1
355 12 1
355 15 1
355 18 1
355 19 1
355 32 1
355 33 1
355 34 1
355 39 1
355 48 1
355 50 1
355 51 1
355 53 1
355 54 1
355 61 1
355 74 1
355 77 1
355 79 1
355 97 1
355 99 1
355 101 1
355 103 1
355 113 1
355 121 1
355 136 1
355 141 1
355 153 1
355 160 1
355 162 1
355 171 1
355 180 1
355 184 1
355 192 1
355 194 1
355 203 1
355 205 1
355 212 1
355 216 1
355 218 1
355 220 1
355 225 1
355 228 1
355 230 1
355 238 1
355 246 1
355 248 1
355 249 1
355 251 1
355 262 1
355 263 1
355 269 1
355 276 1
355 277 1
355 295 1
355 312 1
355 323 1
355 325 1
355 326 1
355 329 1
355 337 1
355 343 1
355 351 1
355 356 1
355 360 1
355 373 1
355 382 1
355 385 1
355 394 1
355 395 1
355 397 1
355 401 1
355 418 1
355 427 1
355 434 1
355 435 1
355 439 1
355 443 1
355 448 1
355 457 1
355 465 1
355 466 1
355 468 1
355 469 1
355 472 1
355 473 1
355 474 1
355 478 1
355 488 1
355 492 1
356 5 1
356 8 1
356 10 1
356 12 1
356 14 1
356 15 1
356 37 1
356 52 1
356 55 1
356 58 1
356 61 1
356 63 1
356 64 1
356 71 1
356 74 1
356 77 1
356 85 1
356 92 1
356 105 1
356 108 1
356 114 1
356 115 1
356 127 1
356 146 1
356 156 1
356 161 1
356 166 1
356 181 1
356 184 1
356 189 1
356 195 1
356 202 1
356 210 1
356 213 1
356 217 1
356 222 1
356 223 1
356 225 1
356 226 1
356 230 1
356 231 1
356 234 1
356 252 1
356 255 1
356 271 1
356 286 1
356 292 1
356 299 1
356 309 1
356 313 1
356 316 1
356 321 1
356 322 1
356 324 1
356 327 1
356 329 1
356 330 1
356 337 1
356 343 1
356 355 1
356 360 1
356 370 1
356 380 1
356 381 1
356 384 1
356 387 1
356 396 1
356 401 1
356 403 1
356 410 1
356 411 1
356 412 1
356 414 1
356 418 1
356 419 1
356 420 1
356 426 1
356 430 1
356 450 1
356 464 1
356 466 1
356 469 1
356 473 1
356 476 1
356 477 1
356 482 1
356 487 1
356 488 1
357 4 1
357 8 1
357 9 1
357 11 1
357 18 1
357 19 1
357 21 1
357 27 1
357 30 1
357 34 1
357 37 1
357 50 1
357 54 1
357 57 1
357 60 1
357 75 1
357 76 1
357 79 1
357 81 1
357 85 1
357 88 1
357 92 1
357 113 1
357 114 1
357 123 1
357 136 1
357 141 1
357 144 1
357 147 1
357 150 1
357 165 1
357 169 1
357 170 1
357 171 1
357 177 1
357 179 1
357 184 1
357 193 1
357 202 1
357 205 1
357 213 1
357 215 1
357 216 1
357 220 1
357 224 1
357 227 1
357 231 1
357 250 1
357 254 1
357 259 1
357 265 1
357 266 1
357 269 1
357 270 1
357 280 1
357 281 1
357 285 1
357 286 1
357 289 1
357 292 1
357 294 1
357 296 1
357 300 1
357 302 1
357 304 1
357 320 1
357 328 1
357 335 1
357 338 1
357 344 1
357 345 1
357 346 1
357 349 1
357 350 1
357 351 1
357 353 1
357 354 1
357 360 1
357 363 1
357 366 1
357 370 1
357 390 1
357 393 1
357 395 1
357 399 1
357 404 1
357 411 1
357 413 1
357 414 1
357 416 1
357 420 1
357 427 1
357 428 1
357 429 1
357 434 1
357 438 1
357 442 1
357 443 1
357 444 1
357 448 1
357 450 1
357 452 1
357 457 1
357 459 1
357 462 1
357 467 1
357 471 1
357 475 1
357 476 1
357 477 1
357 485 1
357 487 1
357 488 1
357 498 1
357 499 1
358 10 1
358 11 1
358 14 1
358 17 1
358 19 1
358 20 1
358 29 1
358 30 1
358 35 1
358 54 1
358 62 1
358 67 1
358 68 1
358 82 1
358 85 1
358 89 1
358 90 1
358 92 1
358 98 1
358 103 1
358 104 1
358 115 1
358 124 1
358 127 1
358 132 1
358 133 1
358 139 1
358 142 1
358 143 1
358 145 1
358 149 1
358 151 1
358 153 1
358 160 1
358 189 1
358 191 1
358 193 1
358 196 1
358 206 1
358 224 1
358 227 1
358 228 1
358 229 1
358 230 1
358 242 1
358 243 1
358 244 1
358 247 1
358 249 1
358 256 1
358 258 1
358 259 1
358 262 1
358 277 1
358 287 1
358 289 1
358 290 1
358 295 1
358 302 1
358 303 1
358 304 1
358 317 1
358 339 1
358 342 1
358 363 1
358 367 1
358 369 1
358 379 1
358 381 1
358 387 1
358 388 1
358 391 1
358 392 1
358 393 1
358 396 1
358 398 1
358 413 1
358 416 1
358 422 1
358 434 1
358 437 1
358 441 1
358 451 1
358 456 1
358 457 1
358 458 1
358 459 1
358 460 1
358 469 1
358 479 1
358 483 1
358 489 1
358 492 1
358 494 1
358 495 1
358 500 1
359 2 1
359 10 1
359 11 1
359 12 1
359 15 1
359 19 1
359 28 1
359 31 1
359 35 1
359 48 1
359 50 1
359 52 1
359 55 1
359 63 1
359 67 1
359 68 1
359 71 1
359 76 1
359 77 1
359 85 1
359 86 1
359 95 1
359 97 1
359 100 1
359 101 1
359 103 1
359 106 1
359 108 1
359 116 1
359 122 1
359 125 1
359 127 1
359 134 1
359 142 1
359 147 1
359 148 1
359 153 1
359 158 1
359 169 1
359 173 1
359 192 1
359 195 1
359 199 1
359 200 1
359 206 1
359 219 1
359 221 1
359 224 1
359 225 1
359 235 1
359 236 1
359 239 1
359 243 1
359 245 1
359 248 1
359 249 1
359 257 1
359 263 1
359 268 1
359 269 1
359 276 1
359 278 1
359 282 1
359 283 1
359 288 1
359 294 1
359 296 1
359 297 1
359 299 1
359 300 1
359 306 1
359 309 1
359 316 1
359 322 1
359 323 1
359 326 1
359 335 1
359 340 1
359 361 1
359 373 1
359 374 1
359 377 1
359 387 1
359 397 1
359 398 1
359 399 1
359 406 1
359 407 1
359 415 1
359 418 1
359 421 1
359 425 1
359 430 1
359 432 1
359 434 1
359 436 1
359 440 1
359 442 1
359 448 1
359 449 1
359 452 1
359 454 1
359 463 1
359 464 1
359 465 1
359 471 1
359 473 1
359 474 1
359 475 1
359 491 1
359 494 1
359 496 1
360 2 1
360 3 1
360 5 1
360 15 1
360 17 1
360 24 1
360 26 1
360 28 1
360 35 1
360 45 1
360 49 1
360 57 1
360 67 1
360 70 1
360 71 1
360 87 1
360 98 1
360 99 1
360 100 1
360 101 1
360 104 1
360 107 1
360 113 1
360 114 1
360 122 1
360 124 1
360 125 1
360 128 1
360 132 1
360 134 1
360 135 1
360 138 1
360 141 1
360 142 1
360 147 1
360 150 1
360 159 1
360 160 1
360 168 1
360 170 1
360 173 1
360 185 1
360 187 1
360 190 1
360 198 1
360 199 1
360 204 1
360 208 1
360 210 1
360 214 1
360 217 1
360 218 1
360 224 1
360 227 1
360 228 1
360 229 1
360 242 1
360 244 1
360 247 1
360 252 1
360 255 1
360 256 1
360 261 1
360 269 1
360 272 1
360 274 1
360 275 1
360 281 1
360 282 1
360 288 1
360 290 1
360 291 1
360 293 1
360 295 1
360 305 1
360 309 1
360 321 1
360 325 1
360 348 1
360 355 1
360 356 1
360 357 1
360 362 1
360 363 1
360 365 1
360 373 1
360 378 1
360 380 1
360 384 1
360 398 1
360 405 1
360 406 1
360 414 1
360 425 1
360 427 1
360 432 1
360 437 1
360 439 1
360 451 1
360 459 1
360 462 1
360 464 1
360 468 1
360 473 1
360 478 1
360 483 1
360 484 1
360 485 1
360 491 1
360 493 1
360 495 1
361 3 1
361 7 1
361 10 1
361 14 1
361 17 1
361 24 1
361 35 1
361 44 1
361 52 1
361 61 1
361 66 1
361 75 1
361 77 1
361 79 1
361 92 1
361 93 1
361 94 1
361 95 1
361 104 1
361 108 1
361 113 1
361 115 1
361 124 1
361 131 1
361 133 1
361 134 1
361 137 1
361 139 1
361 140 1
361 150 1
361 151 1
361 152 1
361 153 1
361 157 1
361 159 1
361 160 1
361 170 1
361 171 1
361 178 1
361 183 1
361 185 1
361 186 1
361 192 1
361 193 1
361 200 1
361 202 1
361 205 1
361 208 1
361 215 1
361 218 1
361 219 1
361 227 1
361 230 1
361 232 1
361 234 1
361 239 1
361 249 1
361 260 1
361 265 1
361 267 1
361 268 1
361 271 1
361 272 1
361 287 1
361 288 1
361 291 1
361 313 1
361 319 1
361 321 1
361 327 1
361 328 1
361 338 1
361 341 1
361 347 1
361 348 1
361 351 1
361 353 1
361 354 1
361 359 1
361 369 1
361 371 1
361 384 1
361 402 1
361 410 1
361 419 1
361 423 1
361 429 1
361 432 1
361 447 1
361 453 1
361 457 1
361 459 1
361 461 1
361 462 1
361 465 1
361 474 1
361 477 1
361 480 1
361 487 1
361 489 1
361 497 1
361 498 1
362 4 1
362 11 1
362 13 1
362 14 1
362 15 1
362 19 1
362 21 1
362 22 1
362 28 1
362 36 1
362 40 1
362 46 1
362 48 1
362 53 1
362 54 1
362 62 1
362 64 1
362 68 1
362 69 1
362 76 1
362 99 1
362 100 1
362 107 1
362 109 1
362 113 1
362 116 1
362 117 1
362 119 1
362 121 1
362 122 1
362 141 1
362 153 1
362 157 1
362 161 1
362 174 1
362 176 1
362 183 1
362 192 1
362 195 1
362 207 1
362 209 1
362 213 1
362 215 1
362 228 1
362 233 1
362 235 1
362 245 1
362 246 1
362 258 1
362 264 1
362 277 1
362 279 1
362 281 1
362 290 1
362 294 1
362 296 1
362 299 1
362 306 1
362 308 1
362 309 1
362 313 1
362 315 1
362 317 1
362 318 1
362 320 1
362 332 1
362 333 1
362 334 1
362 345 1
362 346 1
362 347 1
362 352 1
362 360 1
362 374 1
362 382 1
362 387 1
362 388 1
362 390 1
362 395 1
362 397 1
362 398 1
362 400 1
362 401 1
362 409 1
362 412 1
362 423 1
362 435 1
362 446 1
362 454 1
362 466 1
362 469 1
362 471 1
362 475 1
362 478 1
362 481 1
362 483 1
362 500 1
363 6 1
363 15 1
363 16 1
363 21 1
363 22 1
363 33 1
363 37 1
363 41 1
363 49 1
363 55 1
363 60 1
363 63 1
363 65 1
363 69 1
363 77 1
363 83 1
363 85 1
363 89 1
363 91 1
363 102 1
363 117 1
363 125 1
363 137 1
363 143 1
363 145 1
363 146 1
363 148 1
363 151 1
363 156 1
363 172 1
363 181 1
363 188 1
363 194 1
363 199 1
363 202 1
363 208 1
363 210 1
363 216 1
363 222 1
363 224 1
363 231 1
363 234 1
363 236 1
363 240 1
363 242 1
363 250 1
363 252 1
363 256 1
363 259 1
363 263 1
363 268 1
363 279 1
363 285 1
363 289 1
363 296 1
363 299 1
363 302 1
363 304 1
363 308 1
363 315 1
363 320 1
363 328 1
363 332 1
363 342 1
363 348 1
363 357 1
363 358 1
363 360 1
363 369 1
363 379 1
363 381 1
363 388 1
363 394 1
363 396 1
363 399 1
363 406 1
363 411 1
363 415 1
363 416 1
363 417 1
363 424 1
363 425 1
363 426 1
363 433 1
363 441 1
363 444 1
363 451 1
363 454 1
363 466 1
363 468 1
363 480 1
363 482 1
363 493 1
363 498 1
363 499 1
364 5 1
364 12 1
364 22 1
364 28 1
364 39 1
364 43 1
364 44 1
364 56 1
364 59 1
364 64 1
364 77 1
364 79 1
364 81 1
364 93 1
364 94 1
364 99 1
364 100 1
364 102 1
364 103 1
364 105 1
364 107 1
364 124 1
364 130 1
364 132 1
364 135 1
364 136 1
364 140 1
364 143 1
364 147 1
364 149 1
364 153 1
364 154 1
364 157 1
364 161 1
364 164 1
364 176 1
364 180 1
364 184 1
364 192 1
364 193 1
364 194 1
364 196 1
364 199 1
364 202 1
364 205 1
364 207 1
364 221 1
364 230 1
364 232 1
364 239 1
364 242 1
364 243 1
364 245 1
364 253 1
364 257 1
364 265 1
364 269 1
364 270 1
364 271 1
364 275 1
364 280 1
364 281 1
364 282 1
364 289 1
364 292 1
364 296 1
364 305 1
364 309 1
364 311 1
364 328 1
364 333 1
364 341 1
364 344 1
364 347 1
364 350 1
364 351 1
364 368 1
364 393 1
364 394 1
364 397 1
364 402 1
364 407 1
364 414 1
364 429 1
364 433 1
364 434 1
364 438 1
364 439 1
364 440 1
364 450 1
364 456 1
364 457 1
364 461 1
364 465 1
364 466 1
364 471 1
364 480 1
364 481 1
364 482 1
364 485 1
364 490 1
364 492 1
364 500 1
365 9 1
365 15 1
365 18 1
365 21 1
365 23 1
365 28 1
365 32 1
365 33 1
365 39 1
365 44 1
365 61 1
365 67 1
365 77 1
365 78 1
365 83 1
365 91 1
365 97 1
365 101 1
365 103 1
365 104 1
365 107 1
365 108 1
365 109 1
365 110 1
365 112 1
365 122 1
365 132 1
365 133 1
365 136 1
365 139 1
365 144 1
365 153 1
365 157 1
365 161 1
365 173 1
365 174 1
365 177 1
365 180 1
365 186 1
365 193 1
365 194 1
365 195 1
365 210 1
365 212 1
365 213 1
365 216 1
365 229 1
365 231 1
365 238 1
365 240 1
365 244 1
365 249 1
365 252 1
365 257 1
365 266 1
365 276 1
365 283 1
365 288 1
365 292 1
365 295 1
365 296 1
365 303 1
365 308 1
365 309 1
365 315 1
365 316 1
365 319 1
365 325 1
365 331 1
365 336 1
365 340 1
365 351 1
365 352 1
365 360 1
365 367 1
365 378 1
365 381 1
365 384 1
365 398 1
365 405 1
365 406 1
365 408 1
365 411 1
365 416 1
365 436 1
365 438 1
365 444 1
365 450 1
365 454 1
365 466 1
365 469 1
365 470 1
365 473 1
365 476 1
365 477 1
365 479 1
365 482 1
365 488 1
365 490 1
366 7 1
366 9 1
366 15 1
366 16 1
366 20 1
366 25 1
366 28 1
366 36 1
366 37 1
366 40 1
366 45 1
366 47 1
366 54 1
366 57 1
366 60 1
366 71 1
366 90 1
366 91 1
366 92 1
366 96 1
366 98 1
366 103 1
366 109 1
366 118 1
366 120 1
366 129 1
366 135 1
366 136 1
366 144 1
366 148 1
366 149 1
366 160 1
366 169 1
366 173 1
366 175 1
366 177 1
366 178 1
366 188 1
366 201 1
366 204 1
366 213 1
366 214 1
366 217 1
366 219 1
366 220 1
366 227 1
366 229 1
366 234 1
366 235 1
366 238 1
366 246 1
366 248 1
366 252 1
366 256 1
366 257 1
366 259 1
366 264 1
366 265 1
366 266 1
366 267 1
366 271 1
366 272 1
366 273 1
366 276 1
366 283 1
366 286 1
366 290 1
366 295 1
366 300 1
366 301 1
366 302 1
366 303 1
366 307 1
366 308 1
366 310 1
366 321 1
366 325 1
366 329 1
366 334 1
366 335 1
366 337 1
366 341 1
366 342 1
366 343 1
366 345 1
366 357 1
366 370 1
366 371 1
366 375 1
366 378 1
366 395 1
366 396 1
366 407 1
366 408 1
366 409 1
366 414 1
366 431 1
366 442 1
366 444 1
366 445 1
366 446 1
366 448 1
366 453 1
366 455 1
366 457 1
366 466 1
366 469 1
366 471 1
366 477 1
366 485 1
366 490 1
366 495 1
367 8 1
367 10 1
367 12 1
367 13 1
367 17 1
367 23 1
367 32 1
367 35 1
367 37 1
367 40 1
367 44 1
367 46 1
367 49 1
367 50 1
367 51 1
367 58 1
367 69 1
367 75 1
367 79 1
367 83 1
367 88 1
367 94 1
367 96 1
367 120 1
367 129 1
367 131 1
367 139 1
367 149 1
367 152 1
367 158 1
367 166 1
367 170 1
367 173 1
367 176 1
367 189 1
367 192 1
367 201 1
367 207 1
367 213 1
367 214 1
367 240 1
367 257 1
367 260 1
367 262 1
367 268 1
367 271 1
367 273 1
367 275 1
367 296 1
367 298 1
367 315 1
367 319 1
367 321 1
367 324 1
367 330 1
367 334 1
367 335 1
367 338 1
367 342 1
367 344 1
367 353 1
367 358 1
367 365 1
367 373 1
367 374 1
367 377 1
367 380 1
367 382 1
367 384 1
367 388 1
367 402 1
367 409 1
367 410 1
367 413 1
367 418 1
367 421 1
367 429 1
367 435 1
367 440 1
367 441 1
367 443 1
367 448 1
367 457 1
367 461 1
367 474 1
367 481 1
367 483 1
367 485 1
367 492 1
367 495 1
367 496 1
368 2 1
368 4 1
368 5 1
368 10 1
368 17 1
368 21 1
368 30 1
368 33 1
368 41 1
368 42 1
368 47 1
368 64 1
368 65 1
368 66 1
368 68 1
368 70 1
368 74 1
368 80 1
368 86 1
368 95 1
368 97 1
368 103 1
368 105 1
368 110 1
368 122 1
368 124 1
368 126 1
368 128 1
368 132 1
368 142 1
368 148 1
368 149 1
368 160 1
368 161 1
368 163 1
368 164 1
368 165 1
368 166 1
368 169 1
368 171 1
368 182 1
368 186 1
368 197 1
368 206 1
368 213 1
368 221 1
368 232 1
368 240 1
368 252 1
368 253 1
368 256 1
368 262 1
368 264 1
368 265 1
368 267 1
368 269 1
368 274 1
368 276 1
368 277 1
368 278 1
368 280 1
368 282 1
368 292 1
368 302 1
368 308 1
368 310 1
368 328 1
368 332 1
368 333 1
368 337 1
368 340 1
368 341 1
368 348 1
368 349 1
368 353 1
368 364 1
368 377 1
368 398 1
368 402 1
368 404 1
368 406 1
368 410 1
368 414 1
368 417 1
368 419 1
368 425 1
368 426 1
368 431 1
368 434 1
368 440 1
368 452 1
368 453 1
368 460 1
368 472 1
368 484 1
368 495 1
369 2 1
369 4 1
369 5 1
369 17 1
369 18 1
369 21 1
369 26 1
369 32 1
369 35 1
369 40 1
369 41 1
369 49 1
369 50 1
369 56 1
369 62 1
369 67 1
369 69 1
369 86 1
369 90 1
369 97 1
369 99 1
369 108 1
369 110 1
369 111 1
369 114 1
369 117 1
369 128 1
369 130 1
369 133 1
369 142 1
369 143 1
369 152 1
369 153 1
369 160 1
369 162 1
369 163 1
369 165 1
369 169 1
369 178 1
369 179 1
369 189 1
369 191 1
369 195 1
369 197 1
369 198 1
369 202 1
369 215 1
369 221 1
369 227 1
369 228 1
369 231 1
369 236 1
369 239 1
369 242 1
369 249 1
369 258 1
369 259 1
369 267 1
369 270 1
369 271 1
369 274 1
369 277 1
369 287 1
369 291 1
369 296 1
369 306 1
369 309 1
369 311 1
369 316 1
369 326 1
369 328 1
369 343 1
369 344 1
369 346 1
369 351 1
369 353 1
369 354 1
369 358 1
369 361 1
369 363 1
369 378 1
369 380 1
369 386 1
369 390 1
369 391 1
369 405 1
369 406 1
369 409 1
369 417 1
369 424 1
369 425 1
369 427 1
369 429 1
369 432 1
369 434 1
369 438 1
369 439 1
369 444 1
369 445 1
369 446 1
369 448 1
369 451 1
369 455 1
369 466 1
369 471 1
369 475 1
369 477 1
369 479 1
369 484 1
369 498 1
369 500 1
370 19 1
370 25 1
370 29 1
370 32 1
370 47 1
370 52 1
370 58 1
370 77 1
370 82 1
370 91 1
370 93 1
370 102 1
370 104 1
370 109 1
370 119 1
370 127 1
370 128 1
370 132 1
370 134 1
370 135 1
370 137 1
370 143 1
370 145 1
370 158 1
370 159 1
370 165 1
370 173 1
370 175 1
370 183 1
370 185 1
370 189 1
370 190 1
370 191 1
370 210 1
370 211 1
370 212 1
370 214 1
370 217 1
370 223 1
370 225 1
370 241 1
370 248 1
370 251 1
370 253 1
370 263 1
370 267 1
370 273 1
370 274 1
370 276 1
370 277 1
370 283 1
370 288 1
370 290 1
370 291 1
370 293 1
370 295 1
370 296 1
370 304 1
370 309 1
370 312 1
370 322 1
370 324 1
370 329 1
370 334 1
370 338 1
370 348 1
370 352 1
370 353 1
370 356 1
370 357 1
370 366 1
370 372 1
370 378 1
370 389 1
370 398 1
370 406 1
370 407 1
370 408 1
370 417 1
370 426 1
370 427 1
370 429 1
370 435 1
370 438 1
370 439 1
370 441 1
370 452 1
370 453 1
370 461 1
370 462 1
370 464 1
370 467 1
370 471 1
370 486 1
370 490 1
370 494 1
371 1 1
371 9 1
371 11 1
371 21 1
371 23 1
371 25 1
371 28 1
371 29 1
371 35 1
371 40 1
371 43 1
371 57 1
371 59 1
371 64 1
371 78 1
371 83 1
371 84 1
371 85 1
371 90 1
371 96 1
371 99 1
371 104 1
371 113 1
371 121 1
371 123 1
371 130 1
371 135 1
371 142 1
371 143 1
371 146 1
371 149 1
371 157 1
371 161 1
371 166 1
371 169 1
371 170 1
371 175 1
371 182 1
371 188 1
371 189 1
371 191 1
371 206 1
371 209 1
371 210 1
371 211 1
371 224 1
371 229 1
371 232 1
371 248 1
371 252 1
371 255 1
371 260 1
371 267 1
371 273 1
371 274 1
371 287 1
371 288 1
371 291 1
371 301 1
371 303 1
371 304 1
371 305 1
371 307 1
371 310 1
371 314 1
371 317 1
371 324 1
371 327 1
371 335 1
371 340 1
371 350 1
371 352 1
371 361 1
371 366 1
371 373 1
371 374 1
371 375 1
371 385 1
371 394 1
371 395 1
371 396 1
371 405 1
371 418 1
371 419 1
371 425 1
371 427 1
371 434 1
371 436 1
371 438 1
371 442 1
371 447 1
371 452 1
371 468 1
371 469 1
371 487 1
371 490 1
371 498 1
372 6 1
372 25 1
372 28 1
372 30 1
372 35 1
372 44 1
372 46 1
372 51 1
372 54 1
372 56 1
372 78 1
372 81 1
372 83 1
372 87 1
372 89 1
372 95 1
372 106 1
372 112 1
372 120 1
372 121 1
372 124 1
372 127 1
372 130 1
372 133 1
372 138 1
372 139 1
372 142 1
372 149 1
372 151 1
372 156 1
372 157 1
372 163 1
372 178 1
372 186 1
372 192 1
372 205 1
372 209 1
372 213 1
372 215 1
372 219 1
372 221 1
372 227 1
372 233 1
372 237 1
372 239 1
372 241 1
372 249 1
372 250 1
372 253 1
372 267 1
372 273 1
372 278 1
372 279 1
372 281 1
372 298 1
372 299 1
372 301 1
372 304 1
372 305 1
372 310 1
372 311 1
372 314 1
372 315 1
372 326 1
372 327 1
372 331 1
372 336 1
372 344 1
372 351 1
372 370 1
372 373 1
372 374 1
372 376 1
372 378 1
372 386 1
372 391 1
372 392 1
372 401 1
372 406 1
372 407 1
372 408 1
372 411 1
372 415 1
372 420 1
372 421 1
372 428 1
372 433 1
372 439 1
372 441 1
372 442 1
372 443 1
372 445 1
372 446 1
372 448 1
372 449 1
372 454 1
372 465 1
372 466 1
372 474 1
372 482 1
372 484 1
372 491 1
372 498 1
372 499 1
372 500 1
373 9 1
373 14 1
373 16 1
373 20 1
373 23 1
373 24 1
373 32 1
373 33 1
373 34 1
373 38 1
373 43 1
373 68 1
373 70 1
373 81 1
373 85 1
373 89 1
373 90 1
373 95 1
373 97 1
373 109 1
373 117 1
373 122 1
373 126 1
373 128 1
373 130 1
373 136 1
373 159 1
373 169 1
373 176 1
373 180 1
373 182 1
373 185 1
373 187 1
373 189 1
373 190 1
373 191 1
373 197 1
373 198 1
373 199 1
373 200 1
373 201 1
373 211 1
373 213 1
373 216 1
373 217 1
373 224 1
373 230 1
373 232 1
373 234 1
373 239 1
373 242 1
373 243 1
373 246 1
373 256 1
373 259 1
373 271 1
373 275 1
373 278 1
373 282 1
373 284 1
373 287 1
373 292 1
373 298 1
373 299 1
373 309 1
373 310 1
373 312 1
373 315 1
373 324 1
373 325 1
373 328 1
373 332 1
373 335 1
373 336 1
373 344 1
373 352 1
373 353 1
373 354 1
373 355 1
373 359 1
373 360 1
373 367 1
373 371 1
373 372 1
373 378 1
373 379 1
373 384 1
373 388 1
373 399 1
373 402 1
373 406 1
373 407 1
373 409 1
373 410 1
373 412 1
373 432 1
373 434 1
373 436 1
373 442 1
373 443 1
373 464 1
373 466 1
373 484 1
373 487 1
373 489 1
373 499 1
374 6 1
374 7 1
374 8 1
374 13 1
374 18 1
374 26 1
374 51 1
374 53 1
374 55 1
374 57 1
374 63 1
374 75 1
374 83 1
374 84 1
374 86 1
374 90 1
374 94 1
374 95 1
374 101 1
374 104 1
374 106 1
374 141 1
374 143 1
374 144 1
374 149 1
374 151 1
374 154 1
374 158 1
374 169 1
374 171 1
374 183 1
374 188 1
374 190 1
374 194 1
374 200 1
374 211 1
374 214 1
374 215 1
374 221 1
374 229 1
374 234 1
374 235 1
374 239 1
374 240 1
374 241 1
374 244 1
374 251 1
374 261 1
374 263 1
374 265 1
374 266 1
374 270 1
374 275 1
374 285 1
374 287 1
374 289 1
374 291 1
374 292 1
374 294 1
374 300 1
374 302 1
374 309 1
374 322 1
374 323 1
374 328 1
374 332 1
374 334 1
374 338 1
374 347 1
374 348 1
374 353 1
374 354 1
374 359 1
374 362 1
374 367 1
374 371 1
374 372 1
374 378 1
374 399 1
374 401 1
374 404 1
374 405 1
374 410 1
374 414 1
374 417 1
374 418 1
374 429 1
374 436 1
374 438 1
374 440 1
374 442 1
374 445 1
374 448 1
374 463 1
374 476 1
374 481 1
374 490 1
374 491 1
374 498 1
374 499 1
374 500 1
375 5 1
375 14 1
375 21 1
375 31 1
375 40 1
375 44 1
375 48 1
375 51 1
375 53 1
375 55 1
375 57 1
375 59 1
375 64 1
375 76 1
375 78 1
375 85 1
375 87 1
375 93 1
375 95 1
375 96 1
375 100 1
375 109 1
375 110 1
375 111 1
375 119 1
375 128 1
375 129 1
375 133 1
375 134 1
375 136 1
375 143 1
375 173 1
375 183 1
375 190 1
375 199 1
375 209 1
375 213 1
375 224 1
375 227 1
375 231 1
375 232 1
375 240 1
375 243 1
375 245 1
375 249 1
375 254 1
375 257 1
375 259 1
375 262 1
375 266 1
375 267 1
375 268 1
375 274 1
375 279 1
375 301 1
375 310 1
375 317 1
375 328 1
375 329 1
375 335 1
375 345 1
375 348 1
375 351 1
375 354 1
375 366 1
375 371 1
375 380 1
375 387 1
375 400 1
375 403 1
375 405 1
375 406 1
375 435 1
375 437 1
375 438 1
375 439 1
375 440 1
375 442 1
375 445 1
375 446 1
375 451 1
375 453 1
375 455 1
375 465 1
375 466 1
375 469 1
375 475 1
375 476 1
375 477 1
375 481 1
375 485 1
375 486 1
375 488 1
375 489 1
375 497 1
375 500 1
376 1 1
376 7 1
376 15 1
376 24 1
376 35 1
376 40 1
376 44 1
376 46 1
376 48 1
376 50 1
376 52 1
376 54 1
376 57 1
376 61 1
376 69 1
376 70 1
376 72 1
376 74 1
376 77 1
376 78 1
376 81 1
376 85 1
376 88 1
376 97 1
376 102 1
376 105 1
376 113 1
376 130 1
376 140 1
376 142 1
376 143 1
376 154 1
376 157 1
376 159 1
376 160 1
376 161 1
376 163 1
376 164 1
376 169 1
376 173 1
376 176 1
376 178 1
376 182 1
376 183 1
376 184 1
376 189 1
376 199 1
376 201 1
376 203 1
376 210 1
376 212 1
376 213 1
376 215 1
376 222 1
376 224 1
376 231 1
376 233 1
376 234 1
376 235 1
376 241 1
376 246 1
376 247 1
376 248 1
376 255 1
376 257 1
376 264 1
376 283 1
376 290 1
376 291 1
376 292 1
376 297 1
376 311 1
376 326 1
376 338 1
376 340 1
376 341 1
376 372 1
376 379 1
376 380 1
376 381 1
376 387 1
376 404 1
376 407 1
376 409 1
376 410 1
376 415 1
376 419 1
376 428 1
376 429 1
376 439 1
376 441 1
376 448 1
376 449 1
376 453 1
376 466 1
376 475 1
376 476 1
376 477 1
376 481 1
376 492 1
377 7 1
377 10 1
377 16 1
377 22 1
377 30 1
377 40 1
377 43 1
377 73 1
377 79 1
377 93 1
377 95 1
377 98 1
377 102 1
377 106 1
377 108 1
377 111 1
377 115 1
377 119 1
377 123 1
377 124 1
377 133 1
377 134 1
377 139 1
377 140 1
377 144 1
377 148 1
377 149 1
377 151 1
377 156 1
377 164 1
377 167 1
377 169 1
377 176 1
377 177 1
377 178 1
377 179 1
377 185 1
377 193 1
377 211 1
377 217 1
377 218 1
377 221 1
377 226 1
377 237 1
377 239 1
377 250 1
377 254 1
377 256 1
377 264 1
377 267 1
377 270 1
377 271 1
377 280 1
377 282 1
377 286 1
377 289 1
377 295 1
377 301 1
377 306 1
377 310 1
377 311 1
377 318 1
377 321 1
377 322 1
377 324 1
377 325 1
377 329 1
377 334 1
377 335 1
377 341 1
377 343 1
377 344 1
377 350 1
377 359 1
377 367 1
377 368 1
377 387 1
377 389 1
377 392 1
377 394 1
377 396 1
377 397 1
377 402 1
377 403 1
377 411 1
377 414 1
377 429 1
377 431 1
377 445 1
377 446 1
377 457 1
377 460 1
377 461 1
377 464 1
377 471 1
377 472 1
377 474 1
377 475 1
377 491 1
377 498 1
378 4 1
378 5 1
378 6 1
378 15 1
378 18 1
378 24 1
378 25 1
378 28 1
378 35 1
378 43 1
378 51 1
378 60 1
378 72 1
378 95 1
378 99 1
378 100 1
378 109 1
378 114 1
378 127 1
378 130 1
378 131 1
378 132 1
378 135 1
378 141 1
378 143 1
378 146 1
378 151 1
378 155 1
378 157 1
378 160 1
378 165 1
378 167 1
378 176 1
378 183 1
378 200 1
378 216 1
378 220 1
378 224 1
378 226 1
378 229 1
378 242 1
378 245 1
378 247 1
378 260 1
378 271 1
378 273 1
378 279 1
378 287 1
378 289 1
378 290 1
378 298 1
378 299 1
378 304 1
378 305 1
378 315 1
378 320 1
378 321 1
378 332 1
378 336 1
378 345 1
378 360 1
378 365 1
378 366 1
378 369 1
378 370 1
378 372 1
378 373 1
378 374 1
378 396 1
378 397 1
378 401 1
378 413 1
378 414 1
378 424 1
378 431 1
378 433 1
378 441 1
378 443 1
378 444 1
378 457 1
378 464 1
378 480 1
378 484 1
378 489 1
378 491 1
378 493 1
378 495 1
378 496 1
378 500 1
379 4 1
379 5 1
379 11 1
379 17 1
379 19 1
379 22 1
379 25 1
379 30 1
379 33 1
379 41 1
379 49 1
379 52 1
379 56 1
379 61 1
379 69 1
379 78 1
379 81 1
379 84 1
379 85 1
379 86 1
379 90 1
379 91 1
379 94 1
379 98 1
379 112 1
379 122 1
379 137 1
379 147 1
379 149 1
379 152 1
379 156 1
379 165 1
379 166 1
379 168 1
379 171 1
379 175 1
379 198 1
379 200 1
379 208 1
379 211 1
379 213 1
379 216 1
379 218 1
379 220 1
379 222 1
379 237 1
379 238 1
379 242 1
379 244 1
379 249 1
379 253 1
379 256 1
379 267 1
379 268 1
379 286 1
379 295 1
379 299 1
379 302 1
379 305 1
379 306 1
379 316 1
379 327 1
379 334 1
379 339 1
379 341 1
379 346 1
379 358 1
379 363 1
379 373 1
379 376 1
379 385 1
379 403 1
379 408 1
379 409 1
379 412 1
379 422 1
379 423 1
379 433 1
379 444 1
379 445 1
379 449 1
379 454 1
379 455 1
379 459 1
379 460 1
379 466 1
379 475 1
379 476 1
379 490 1
379 491 1
380 14 1
380 29 1
380 41 1
380 49 1
380 64 1
380 69 1
380 71 1
380 73 1
380 76 1
380 83 1
380 109 1
380 122 1
380 123 1
380 129 1
380 139 1
380 140 1
380 152 1
380 153 1
380 161 1
380 162 1
380 166 1
380 178 1
380 180 1
380 192 1
380 199 1
380 200 1
380 207 1
380 210 1
380 212 1
380 215 1
380 220 1
380 221 1
380 224 1
380 225 1
380 232 1
380 241 1
380 245 1
380 246 1
380 248 1
380 253 1
380 254 1
380 257 1
380 258 1
380 276 1
380 282 1
380 288 1
380 298 1
380 305 1
380 314 1
380 315 1
380 318 1
380 322 1
380 327 1
380 330 1
380 331 1
380 346 1
380 349 1
380 352 1
380 354 1
380 356 1
380 360 1
380 367 1
380 369 1
380 375 1
380 376 1
380 386 1
380 387 1
380 390 1
380 391 1
380 392 1
380 406 1
380 408 1
380 423 1
380 429 1
380 436 1
380 447 1
380 472 1
380 479 1
380 481 1
380 483 1
380 484 1
380 487 1
380 490 1
381 9 1
381 10 1
381 14 1
381 17 1
381 26 1
381 29 1
381 38 1
381 54 1
381 59 1
381 64 1
381 65 1
381 66 1
381 69 1
381 71 1
381 76 1
381 77 1
381 81 1
381 87 1
381 91 1
381 92 1
381 101 1
381 102 1
381 120 1
381 122 1
381 131 1
381 138 1
381 139 1
381 147 1
381 150 1
381 152 1
381 153 1
381 161 1
381 162 1
381 170 1
381 185 1
381 187 1
381 200 1
381 201 1
381 208 1
381 215 1
381 219 1
381 226 1
381 235 1
381 237 1
381 239 1
381 240 1
381 244 1
381 261 1
381 264 1
381 269 1
381 279 1
381 284 1
381 296 1
381 302 1
381 306 1
381 309 1
381 312 1
381 314 1
381 318 1
381 329 1
381 335 1
381 339 1
381 342 1
381 343 1
381 356 1
381 358 1
381 363 1
381 365 1
381 376 1
381 382 1
381 383 1
381 384 1
381 386 1
381 392 1
381 395 1
381 399 1
381 403 1
381 407 1
381 415 1
381 417 1
381 424 1
381 441 1
381 444 1
381 445 1
381 449 1
381 450 1
381 452 1
381 461 1
381 471 1
381 477 1
381 483 1
381 484 1
381 489 1
381 491 1
381 494 1
381 497 1
381 500 1
382 1 1
382 3 1
382 5 1
382 19 1
382 23 1
382 25 1
382 29 1
382 30 1
382 31 1
382 37 1
382 39 1
382 47 1
382 49 1
382 58 1
382 63 1
382 75 1
382 81 1
382 90 1
382 97 1
382 99 1
382 102 1
382 130 1
382 140 1
382 142 1
382 154 1
382 158 1
382 167 1
382 170 1
382 171 1
382 175 1
382 176 1
382 185 1
382 191 1
382 202 1
382 205 1
382 208 1
382 209 1
382 213 1
382 218 1
382 223 1
382 234 1
382 238 1
382 250 1
382 255 1
382 263 1
382 269 1
382 272 1
382 274 1
382 275 1
382 281 1
382 287 1
382 293 1
382 304 1
382 308 1
382 311 1
382 316 1
382 320 1
382 329 1
382 332 1
382 347 1
382 350 1
382 353 1
382 355 1
382 362 1
382 367 1
382 381 1
382 383 1
382 388 1
382 390 1
382 392 1
382 404 1
382 407 1
382 408 1
382 417 1
382 422 1
382 440 1
382 445 1
382 449 1
382 454 1
382 460 1
382 465 1
382 468 1
382 473 1
382 474 1
382 476 1
382 482 1
382 485 1
382 486 1
382 493 1
382 498 1
382 499 1
383 1 1
383 12 1
383 17 1
383 18 1
383 51 1
383 61 1
383 77 1
383 78 1
383 80 1
383 82 1
383 85 1
383 91 1
383 97 1
383 105 1
383 108 1
383 110 1
383 115 1
383 118 1
383 121 1
383 150 1
383 151 1
383 156 1
383 160 1
383 163 1
383 168 1
383 170 1
383 173 1
383 185 1
383 191 1
383 200 1
383 209 1
383 212 1
383 215 1
383 227 1
383 233 1
383 237 1
383 243 1
383 244 1
383 245 1
383 248 1
383 250 1
383 251 1
383 254 1
383 260 1
383 267 1
383 275 1
383 279 1
383 281 1
383 283 1
383 285 1
383 286 1
383 291 1
383 292 1
383 295 1
383 300 1
383 303 1
383 304 1
383 306 1
383 308 1
383 309 1
383 318 1
383 319 1
383 323 1
383 328 1
383 330 1
383 335 1
383 336 1
383 340 1
383 345 1
383 348 1
383 381 1
383 382 1
383 387 1
383 394 1
383 400 1
383 404 1
383 422 1
383 425 1
383 426 1
383 429 1
383 430 1
383 434 1
383 440 1
383 443 1
383 451 1
383 461 1
383 480 1
383 482 1
383 484 1
383 492 1
384 13 1
384 27 1
384 32 1
384 36 1
384 40 1
384 41 1
384 45 1
384 46 1
384 48 1
384 61 1
384 68 1
384 72 1
384 75 1
384 77 1
384 79 1
384 81 1
384 86 1
384 94 1
384 97 1
384 101 1
384 104 1
384 108 1
384 114 1
384 128 1
384 129 1
384 144 1
384 152 1
384 155 1
384 157 1
384 165 1
384 167 1
384 170 1
384 173 1
384 179 1
384 194 1
384 195 1
384 203 1
384 209 1
384 216 1
384 234 1
384 241 1
384 243 1
384 244 1
384 248 1
384 250 1
384 253 1
384 257 1
384 265 1
384 267 1
384 273 1
384 282 1
384 283 1
384 284 1
384 290 1
384 291 1
384 300 1
384 304 1
384 305 1
384 309 1
384 322 1
384 341 1
384 344 1
384 356 1
384 360 1
384 361 1
384 365 1
384 367 1
384 373 1
384 381 1
384 386 1
384 388 1
384 397 1
384 402 1
384 403 1
384 415 1
384 421 1
384 428 1
384 439 1
384 445 1
384 448 1
384 452 1
384 461 1
384 468 1
384 470 1
384 473 1
384 477 1
384 479 1
384 483 1
384 485 1
384 487 1
384 489 1
384 490 1
384 498 1
385 5 1
385 19 1
385 27 1
385 47 1
385 56 1
385 60 1
385 69 1
385 71 1
385 76 1
385 77 1
385 79 1
385 83 1
385 89 1
385 90 1
385 92 1
385 97 1
385 104 1
385 108 1
385 111 1
385 114 1
385 115 1
385 126 1
385 129 1
385 138 1
385 139 1
385 145 1
385 152 1
385 155 1
385 157 1
385 158 1
385 160 1
385 162 1
385 164 1
385 172 1
385 176 1
385 178 1
385 186 1
385 187 1
385 188 1
385 195 1
385 198 1
385 199 1
385 203 1
385 209 1
385 212 1
385 213 1
385 214 1
385 217 1
385 218 1
385 222 1
385 226 1
385 228 1
385 229 1
385 235 1
385 237 1
385 242 1
385 243 1
385 245 1
385 246 1
385 265 1
385 268 1
385 271 1
385 272 1
385 278 1
385 280 1
385 282 1
385 296 1
385 297 1
385 299 1
385 301 1
385 306 1
385 319 1
385 324 1
385 326 1
385 340 1
385 341 1
385 342 1
385 344 1
385 354 1
385 355 1
385 371 1
385 379 1
385 386 1
385 387 1
385 389 1
385 392 1
385 393 1
385 401 1
385 402 1
385 408 1
385 412 1
385 415 1
385 416 1
385 417 1
385 422 1
385 423 1
385 425 1
385 435 1
385 451 1
385 452 1
385 454 1
385 457 1
385 460 1
385 461 1
385 469 1
385 473 1
385 476 1
385 484 1
385 490 1
385 497 1
385 499 1
385 500 1
386 9 1
386 18 1
386 29 1
386 31 1
386 32 1
386 36 1
386 39 1
386 40 1
386 43 1
386 48 1
386 61 1
386 72 1
386 74 1
386 76 1
386 77 1
386 80 1
386 84 1
386 86 1
386 90 1
386 91 1
386 104 1
386 106 1
386 115 1
386 117 1
386 119 1
386 123 1
386 127 1
386 136 1
386 140 1
386 151 1
386 155 1
386 163 1
386 166 1
386 170 1
386 176 1
386 177 1
386 178 1
386 186 1
386 197 1
386 203 1
386 214 1
386 224 1
386 225 1
386 234 1
386 237 1
386 247 1
386 252 1
386 258 1
386 275 1
386 277 1
386 282 1
386 285 1
386 289 1
386 294 1
386 296 1
386 298 1
386 299 1
386 300 1
386 308 1
386 328 1
386 334 1
386 335 1
386 343 1
386 344 1
386 347 1
386 349 1
386 354 1
386 369 1
386 372 1
386 380 1
386 381 1
386 384 1
386 385 1
386 389 1
386 390 1
386 400 1
386 414 1
386 416 1
386 425 1
386 427 1
386 431 1
386 432 1
386 438 1
386 444 1
386 445 1
386 446 1
386 448 1
386 452 1
386 455 1
386 457 1
386 465 1
386 466 1
386 470 1
386 472 1
386 475 1
386 477 1
386 480 1
386 487 1
386 494 1
386 497 1
387 8 1
387 9 1
387 11 1
387 15 1
387 16 1
387 17 1
387 23 1
387 24 1
387 28 1
387 38 1
387 45 1
387 48 1
387 54 1
387 61 1
387 64 1
387 67 1
387 71 1
387 74 1
387 78 1
387 89 1
387 92 1
387 98 1
387 101 1
387 107 1
387 116 1
387 118 1
387 121 1
387 127 1
387 130 1
387 132 1
387 133 1
387 134 1
387 136 1
387 145 1
387 151 1
387 152 1
387 163 1
387 165 1
387 168 1
387 173 1
387 176 1
387 179 1
387 185 1
387 189 1
387 190 1
387 194 1
387 195 1
387 198 1
387 207 1
387 213 1
387 214 1
387 215 1
387 216 1
387 220 1
387 228 1
387 232 1
387 238 1
387 242 1
387 246 1
387 252 1
387 258 1
387 265 1
387 270 1
387 275 1
387 278 1
387 279 1
387 287 1
387 289 1
387 290 1
387 294 1
387 302 1
387 303 1
387 312 1
387 313 1
387 314 1
387 319 1
387 326 1
387 338 1
387 340 1
387 350 1
387 356 1
387 358 1
387 359 1
387 362 1
387 375 1
387 376 1
387 377 1
387 380 1
387 383 1
387 385 1
387 389 1
387 391 1
387 399 1
387 406 1
387 411 1
387 413 1
387 418 1
387 419 1
387 420 1
387 425 1
387 426 1
387 429 1
387 432 1
387 433 1
387 436 1
387 441 1
387 445 1
387 455 1
387 474 1
387 479 1
387 480 1
387 486 1
387 494 1
387 499 1
388 3 1
388 5 1
388 6 1
388 11 1
388 13 1
388 15 1
388 17 1
388 18 1
388 20 1
388 23 1
388 25 1
388 28 1
388 35 1
388 46 1
388 50 1
388 60 1
388 72 1
388 73 1
388 77 1
388 87 1
388 92 1
388 97 1
388 114 1
388 129 1
388 131 1
388 134 1
388 139 1
388 156 1
388 166 1
388 169 1
388 172 1
388 183 1
388 189 1
388 193 1
388 194 1
388 195 1
388 198 1
388 220 1
388 235 1
388 243 1
388 244 1
388 267 1
388 274 1
388 280 1
388 282 1
388 285 1
388 290 1
388 291 1
388 293 1
388 295 1
388 297 1
388 305 1
388 312 1
388 317 1
388 318 1
388 320 1
388 324 1
388 343 1
388 345 1
388 358 1
388 362 1
388 363 1
388 367 1
388 373 1
388 382 1
388 384 1
388 393 1
388 403 1
388 404 1
388 405 1
388 406 1
388 410 1
388 413 1
388 417 1
388 424 1
388 440 1
388 442 1
388 445 1
388 446 1
388 447 1
388 448 1
388 449 1
388 451 1
388 455 1
388 457 1
388 458 1
388 471 1
388 473 1
388 475 1
388 476 1
388 477 1
388 484 1
388 488 1
388 490 1
388 494 1
388 500 1
389 1 1
389 8 1
389 10 1
389 15 1
389 18 1
389 19 1
389 22 1
389 24 1
389 25 1
389 30 1
389 40 1
389 46 1
389 50 1
389 51 1
389 52 1
389 55 1
389 56 1
389 60 1
389 63 1
389 74 1
389 75 1
389 82 1
389 93 1
389 104 1
389 112 1
389 113 1
389 122 1
389 125 1
389 131 1
389 146 1
389 148 1
389 149 1
389 161 1
389 162 1
389 172 1
389 174 1
389 189 1
389 201 1
389 210 1
389 221 1
389 227 1
389 228 1
389 230 1
389 239 1
389 251 1
389 252 1
389 262 1
389 263 1
389 268 1
389 269 1
389 279 1
389 282 1
389 283 1
389 285 1
389 290 1
389 292 1
389 295 1
389 298 1
389 300 1
389 304 1
389 306 1
389 310 1
389 313 1
389 316 1
389 318 1
389 320 1
389 323 1
389 327 1
389 333 1
389 343 1
389 347 1
389 349 1
389 352 1
389 353 1
389 354 1
389 370 1
389 377 1
389 385 1
389 386 1
389 387 1
389 396 1
389 430 1
389 436 1
389 437 1
389 439 1
389 440 1
389 441 1
389 442 1
389 444 1
389 446 1
389 453 1
389 460 1
389 461 1
389 466 1
389 472 1
389 473 1
389 477 1
389 479 1
389 480 1
389 482 1
389 483 1
389 486 1
389 487 1
389 494 1
390 7 1
390 9 1
390 14 1
390 21 1
390 27 1
390 28 1
390 32 1
390 36 1
390 41 1
390 47 1
390 48 1
390 51 1
390 55 1
390 74 1
390 75 1
390 79 1
390 83 1
390 88 1
390 96 1
390 99 1
390 103 1
390 105 1
390 106 1
390 116 1
390 118 1
390 119 1
390 120 1
390 122 1
390 125 1
390 126 1
390 129 1
390 132 1
390 136 1
390 137 1
390 138 1
390 140 1
390 159 1
390 162 1
390 167 1
390 172 1
390 176 1
390 179 1
390 182 1
390 207 1
390 210 1
390 222 1
390 226 1
390 243 1
390 251 1
390 268 1
390 272 1
390 274 1
390 283 1
390 288 1
390 291 1
390 293 1
390 295 1
390 297 1
390 301 1
390 303 1
390 305 1
390 312 1
390 317 1
390 329 1
390 339 1
390 345 1
390 348 1
390 349 1
390 357 1
390 362 1
390 369 1
390 380 1
390 382 1
390 386 1
390 410 1
390 419 1
390 443 1
390 447 1
390 450 1
390 462 1
390 463 1
390 468 1
390 476 1
390 478 1
390 480 1
390 492 1
390 493 1
390 495 1
390 496 1
390 497 1
391 4 1
391 14 1
391 15 1
391 17 1
391 19 1
391 20 1
391 40 1
391 43 1
391 44 1
391 58 1
391 62 1
391 65 1
391 71 1
391 81 1
391 84 1
391 85 1
391 86 1
391 92 1
391 94 1
391 98 1
391 99 1
391 103 1
391 106 1
391 111 1
391 114 1
391 120 1
391 124 1
391 130 1
391 131 1
391 132 1
391 135 1
391 138 1
391 140 1
391 147 1
391 150 1
391 157 1
391 174 1
391 176 1
391 189 1
391 193 1
391 200 1
391 201 1
391 206 1
391 207 1
391 209 1
391 210 1
391 220 1
391 221 1
391 231 1
391 232 1
391 234 1
391 235 1
391 244 1
391 253 1
391 257 1
391 261 1
391 263 1
391 281 1
391 289 1
391 292 1
391 294 1
391 301 1
391 310 1
391 327 1
391 339 1
391 341 1
391 342 1
391 346 1
391 352 1
391 353 1
391 358 1
391 369 1
391 372 1
391 380 1
391 387 1
391 398 1
391 399 1
391 404 1
391 408 1
391 410 1
391 414 1
391 420 1
391 424 1
391 426 1
391 445 1
391 447 1
391 449 1
391 452 1
391 454 1
391 462 1
391 463 1
391 465 1
391 466 1
391 468 1
391 475 1
391 490 1
391 496 1
392 1 1
392 7 1
392 18 1
392 30 1
392 31 1
392 34 1
392 49 1
392 51 1
392 55 1
392 56 1
392 59 1
392 69 1
392 70 1
392 72 1
392 78 1
392 82 1
392 91 1
392 99 1
392 105 1
392 107 1
392 110 1
392 114 1
392 120 1
392 123 1
392 125 1
392 127 1
392 129 1
392 134 1
392 139 1
392 141 1
392 142 1
392 144 1
392 146 1
392 156 1
392 157 1
392 161 1
392 162 1
392 164 1
392 168 1
392 181 1
392 196 1
392 202 1
392 204 1
392 212 1
392 216 1
392 233 1
392 235 1
392 238 1
392 239 1
392 241 1
392 244 1
392 245 1
392 249 1
392 257 1
392 259 1
392 260 1
392 266 1
392 269 1
392 270 1
392 275 1
392 278 1
392 279 1
392 286 1
392 288 1
392 291 1
392 293 1
392 295 1
392 296 1
392 297 1
392 298 1
392 306 1
392 317 1
392 323 1
392 327 1
392 328 1
392 332 1
392 335 1
392 341 1
392 347 1
392 351 1
392 354 1
392 358 1
392 372 1
392 377 1
392 380 1
392 381 1
392 382 1
392 385 1
392 397 1
392 403 1
392 404 1
392 412 1
392 416 1
392 418 1
392 419 1
392 423 1
392 424 1
392 430 1
392 437 1
392 448 1
392 451 1
392 456 1
392 459 1
392 463 1
392 471 1
392 472 1
392 483 1
392 484 1
392 488 1
392 493 1
392 494 1
392 495 1
392 500 1
393 2 1
393 21 1
393 24 1
393 31 1
393 39 1
393 47 1
393 49 1
393 58 1
393 63 1
393 64 1
393 66 1
393 68 1
393 81 1
393 90 1
393 97 1
393 98 1
393 103 1
393 104 1
393 105 1
393 109 1
393 121 1
393 127 1
393 128 1
393 134 1
393 147 1
393 150 1
393 152 1
393 155 1
393 156 1
393 161 1
393 164 1
393 171 1
393 176 1
393 179 1
393 182 1
393 195 1
393 197 1
393 204 1
393 205 1
393 206 1
393 210 1
393 211 1
393 212 1
393 215 1
393 217 1
393 220 1
393 225 1
393 226 1
393 232 1
393 236 1
393 237 1
393 239 1
393 242 1
393 251 1
393 254 1
393 260 1
393 262 1
393 265 1
393 269 1
393 270 1
393 275 1
393 277 1
393 288 1
393 290 1
393 294 1
393 295 1
393 297 1
393 298 1
393 300 1
393 305 1
393 307 1
393 310 1
393 317 1
393 322 1
393 327 1
393 331 1
393 353 1
393 357 1
393 358 1
393 364 1
393 385 1
393 388 1
393 395 1
393 396 1
393 400 1
393 403 1
393 404 1
393 410 1
393 419 1
393 431 1
393 433 1
393 435 1
393 437 1
393 439 1
393 443 1
393 445 1
393 446 1
393 453 1
393 457 1
393 462 1
393 469 1
393 473 1
393 476 1
393 479 1
393 482 1
393 483 1
393 487 1
393 490 1
394 6 1
394 10 1
394 13 1
394 22 1
394 37 1
394 45 1
394 46 1
394 47 1
394 50 1
394 53 1
394 54 1
394 55 1
394 59 1
394 62 1
394 76 1
394 82 1
394 84 1
394 87 1
394 88 1
394 89 1
394 90 1
394 92 1
394 98 1
394 100 1
394 101 1
394 105 1
394 106 1
394 108 1
394 109 1
394 130 1
394 133 1
394 134 1
394 138 1
394 143 1
394 145 1
394 146 1
394 147 1
394 151 1
394 153 1
394 168 1
394 171 1
394 175 1
394 179 1
394 183 1
394 196 1
394 200 1
394 206 1
394 211 1
394 214 1
394 215 1
394 227 1
394 229 1
394 239 1
394 244 1
394 248 1
394 252 1
394 254 1
394 265 1
394 268 1
394 269 1
394 288 1
394 292 1
394 293 1
394 298 1
394 301 1
394 311 1
394 312 1
394 322 1
394 341 1
394 344 1
394 347 1
394 352 1
394 354 1
394 355 1
394 363 1
394 364 1
394 371 1
394 377 1
394 383 1
394 406 1
394 408 1
394 412 1
394 414 1
394 417 1
394 419 1
394 422 1
394 433 1
394 436 1
394 439 1
394 442 1
394 456 1
394 459 1
394 465 1
394 467 1
394 484 1
394 491 1
394 500 1
395 9 1
395 13 1
395 18 1
395 24 1
395 34 1
395 40 1
395 43 1
395 44 1
395 48 1
395 54 1
395 55 1
395 57 1
395 62 1
395 70 1
395 74 1
395 76 1
395 78 1
395 84 1
395 86 1
395 90 1
395 97 1
395 99 1
395 100 1
395 107 1
395 120 1
395 122 1
395 128 1
395 129 1
395 131 1
395 136 1
395 146 1
395 151 1
395 157 1
395 160 1
395 169 1
395 178 1
395 191 1
395 209 1
395 215 1
395 222 1
395 226 1
395 231 1
395 232 1
395 234 1
395 237 1
395 239 1
395 242 1
395 245 1
395 247 1
395 256 1
395 261 1
395 262 1
395 264 1
395 265 1
395 267 1
395 271 1
395 284 1
395 285 1
395 295 1
395 299 1
395 303 1
395 305 1
395 306 1
395 312 1
395 324 1
395 325 1
395 334 1
395 337 1
395 338 1
395 355 1
395 357 1
395 362 1
395 366 1
395 371 1
395 381 1
395 393 1
395 402 1
395 408 1
395 411 1
395 414 1
395 418 1
395 420 1
395 421 1
395 424 1
395 426 1
395 427 1
395 432 1
395 433 1
395 436 1
395 437 1
395 448 1
395 450 1
395 457 1
395 476 1
395 484 1
395 487 1
395 492 1
395 497 1
396 5 1
396 11 1
396 20 1
396 31 1
396 37 1
396 40 1
396 41 1
396 46 1
396 54 1
396 57 1
396 69 1
396 71 1
396 85 1
396 86 1
396 87 1
396 93 1
396 101 1
396 110 1
396 125 1
396 129 1
396 134 1
396 136 1
396 141 1
396 143 1
396 148 1
396 149 1
396 150 1
396 155 1
396 156 1
396 157 1
396 159 1
396 164 1
396 171 1
396 184 1
396 211 1
396 213 1
396 215 1
396 222 1
396 226 1
396 233 1
396 234 1
396 248 1
396 252 1
396 255 1
396 260 1
396 266 1
396 270 1
396 272 1
396 277 1
396 281 1
396 294 1
396 296 1
396 301 1
396 304 1
396 313 1
396 315 1
396 320 1
396 325 1
396 331 1
396 348 1
396 350 1
396 356 1
396 358 1
396 363 1
396 366 1
396 371 1
396 377 1
396 378 1
396 389 1
396 393 1
396 399 1
396 407 1
396 410 1
396 412 1
396 418 1
396 420 1
396 421 1
396 422 1
396 425 1
396 428 1
396 430 1
396 436 1
396 440 1
396 444 1
396 451 1
396 452 1
396 457 1
396 468 1
396 494 1
397 8 1
397 23 1
397 29 1
397 31 1
397 36 1
397 39 1
397 40 1
397 44 1
397 46 1
397 53 1
397 55 1
397 58 1
397 61 1
397 75 1
397 82 1
397 84 1
397 94 1
397 98 1
397 100 1
397 110 1
397 118 1
397 121 1
397 122 1
397 129 1
397 136 1
397 137 1
397 159 1
397 167 1
397 169 1
397 170 1
397 195 1
397 196 1
397 201 1
397 204 1
397 208 1
397 210 1
397 212 1
397 214 1
397 215 1
397 222 1
397 227 1
397 228 1
397 230 1
397 235 1
397 238 1
397 239 1
397 241 1
397 248 1
397 251 1
397 253 1
397 259 1
397 266 1
397 270 1
397 276 1
397 277 1
397 290 1
397 293 1
397 294 1
397 297 1
397 300 1
397 301 1
397 305 1
397 310 1
397 320 1
397 324 1
397 326 1
397 330 1
397 332 1
397 334 1
397 339 1
397 341 1
397 351 1
397 355 1
397 359 1
397 362 1
397 364 1
397 377 1
397 378 1
397 384 1
397 392 1
397 398 1
397 418 1
397 424 1
397 429 1
397 430 1
397 431 1
397 434 1
397 435 1
397 441 1
397 451 1
397 463 1
397 468 1
397 470 1
397 485 1
397 490 1
397 491 1
397 492 1
397 494 1
397 500 1
398 3 1
398 5 1
398 18 1
398 22 1
398 30 1
398 37 1
398 54 1
398 56 1
398 57 1
398 61 1
398 62 1
398 64 1
398 69 1
398 76 1
398 79 1
398 81 1
398 94 1
398 97 1
398 99 1
398 102 1
398 105 1
398 113 1
398 122 1
398 127 1
398 130 1
398 136 1
398 138 1
398 139 1
398 141 1
398 142 1
398 143 1
398 155 1
398 157 1
398 158 1
398 159 1
398 162 1
398 165 1
398 172 1
398 175 1
398 177 1
398 178 1
398 181 1
398 192 1
398 196 1
398 199 1
398 212 1
398 214 1
398 218 1
398 233 1
398 239 1
398 241 1
398 248 1
398 256 1
398 270 1
398 273 1
398 276 1
398 293 1
398 294 1
398 297 1
398 298 1
398 307 1
398 310 1
398 313 1
398 314 1
398 317 1
398 318 1
398 319 1
398 322 1
398 329 1
398 339 1
398 352 1
398 358 1
398 359 1
398 360 1
398 362 1
398 365 1
398 368 1
398 370 1
398 391 1
398 397 1
398 400 1
398 407 1
398 418 1
398 423 1
398 428 1
398 429 1
398 430 1
398 453 1
398 454 1
398 458 1
398 465 1
398 476 1
398 478 1
398 490 1
398 491 1
398 498 1
398 500 1
399 1 1
399 3 1
399 7 1
399 12 1
399 13 1
399 17 1
399 26 1
399 40 1
399 42 1
399 46 1
399 48 1
399 59 1
399 60 1
399 64 1
399 65 1
399 75 1
399 83 1
399 97 1
399 100 1
399 101 1
399 102 1
399 111 1
399 121 1
399 128 1
399 129 1
399 131 1
399 136 1
399 139 1
399 141 1
399 149 1
399 154 1
399 155 1
399 165 1
399 168 1
399 169 1
399 186 1
399 188 1
399 196 1
399 199 1
399 201 1
399 206 1
399 207 1
399 208 1
399 236 1
399 241 1
399 247 1
399 263 1
399 266 1
399 270 1
399 274 1
399 278 1
399 282 1
399 291 1
399 304 1
399 306 1
399 312 1
399 322 1
399 332 1
399 334 1
399 335 1
399 336 1
399 337 1
399 341 1
399 345 1
399 346 1
399 347 1
399 350 1
399 353 1
399 357 1
399 359 1
399 363 1
399 373 1
399 374 1
399 381 1
399 387 1
399 391 1
399 396 1
399 400 1
399 401 1
399 402 1
399 405 1
399 409 1
399 416 1
399 420 1
399 425 1
399 427 1
399 429 1
399 430 1
399 435 1
399 462 1
399 469 1
399 479 1
399 480 1
399 494 1
399 497 1
399 500 1
400 6 1
400 7 1
400 13 1
400 22 1
400 24 1
400 27 1
400 28 1
400 39 1
400 44 1
400 48 1
400 60 1
400 65 1
400 67 1
400 68 1
400 70 1
400 77 1
400 79 1
400 83 1
400 85 1
400 88 1
400 89 1
400 90 1
400 95 1
400 119 1
400 140 1
400 154 1
400 160 1
400 164 1
400 169 1
400 181 1
400 191 1
400 199 1
400 202 1
400 229 1
400 230 1
400 241 1
400 242 1
400 243 1
400 244 1
400 249 1
400 253 1
400 254 1
400 258 1
400 284 1
400 287 1
400 295 1
400 303 1
400 308 1
400 314 1
400 315 1
400 318 1
400 332 1
400 334 1
400 338 1
400 339 1
400 352 1
400 353 1
400 362 1
400 375 1
400 383 1
400 386 1
400 393 1
400 398 1
400 399 1
400 416 1
400 424 1
400 427 1
400 429 1
400 431 1
400 433 1
400 441 1
400 446 1
400 450 1
400 452 1
400 457 1
400 463 1
400 469 1
400 475 1
400 482 1
400 483 1
400 487 1
400 490 1
400 492 1
400 493 1
400 496 1
400 498 1
401 2 1
401 5 1
401 6 1
401 11 1
401 15 1
401 16 1
401 20 1
401 22 1
401 24 1
401 25 1
401 35 1
401 37 1
401 43 1
401 45 1
401 48 1
401 50 1
401 58 1
401 62 1
401 70 1
401 73 1
401 82 1
401 90 1
401 91 1
401 98 1
401 101 1
401 104 1
401 109 1
401 110 1
401 122 1
401 130 1
401 131 1
401 136 1
401 141 1
401 146 1
401 151 1
401 158 1
401 160 1
401 168 1
401 172 1
401 174 1
401 176 1
401 177 1
401 196 1
401 200 1
401 210 1
401 212 1
401 229 1
401 237 1
401 246 1
401 249 1
401 259 1
401 262 1
401 265 1
401 266 1
401 271 1
401 276 1
401 282 1
401 284 1
401 285 1
401 286 1
401 291 1
401 293 1
401 294 1
401 300 1
401 309 1
401 315 1
401 321 1
401 325 1
401 329 1
401 333 1
401 355 1
401 356 1
401 362 1
401 372 1
401 374 1
401 378 1
401 385 1
401 399 1
401 407 1
401 410 1
401 411 1
401 418 1
401 429 1
401 431 1
401 437 1
401 439 1
401 442 1
401 449 1
401 451 1
401 455 1
401 458 1
401 459 1
401 461 1
401 464 1
401 465 1
401 496 1
401 500 1
402 7 1
402 9 1
402 10 1
402 16 1
402 23 1
402 26 1
402 42 1
402 57 1
402 70 1
402 71 1
402 77 1
402 82 1
402 83 1
402 84 1
402 87 1
402 89 1
402 91 1
402 102 1
402 104 1
402 109 1
402 111 1
402 115 1
402 126 1
402 127 1
402 132 1
402 138 1
402 141 1
402 146 1
402 150 1
402 153 1
402 155 1
402 163 1
402 165 1
402 167 1
402 169 1
402 170 1
402 175 1
402 180 1
402 181 1
402 183 1
402 185 1
402 196 1
402 197 1
402 200 1
402 203 1
402 207 1
402 209 1
402 210 1
402 214 1
402 220 1
402 228 1
402 230 1
402 233 1
402 242 1
402 246 1
402 256 1
402 259 1
402 261 1
402 263 1
402 265 1
402 267 1
402 270 1
402 272 1
402 276 1
402 278 1
402 281 1
402 282 1
402 283 1
402 293 1
402 294 1
402 298 1
402 299 1
402 313 1
402 314 1
402 315 1
402 316 1
402 317 1
402 322 1
402 326 1
402 328 1
402 330 1
402 335 1
402 341 1
402 342 1
402 350 1
402 351 1
402 361 1
402 364 1
402 367 1
402 368 1
402 373 1
402 377 1
402 384 1
402 385 1
402 395 1
402 399 1
402 404 1
402 409 1
402 412 1
402 413 1
402 416 1
402 418 1
402 419 1
402 421 1
402 426 1
402 433 1
402 436 1
402 448 1
402 459 1
402 462 1
402 463 1
402 478 1
402 486 1
402 490 1
402 492 1
402 499 1
403 15 1
403 22 1
403 27 1
403 34 1
403 37 1
403 43 1
403 50 1
403 55 1
403 56 1
403 57 1
403 61 1
403 63 1
403 66 1
403 67 1
403 68 1
403 75 1
403 80 1
403 82 1
403 83 1
403 84 1
403 86 1
403 93 1
403 94 1
403 100 1
403 111 1
403 115 1
403 118 1
403 125 1
403 126 1
403 134 1
403 136 1
403 143 1
403 145 1
403 158 1
403 161 1
403 164 1
403 165 1
403 167 1
403 169 1
403 171 1
403 172 1
403 177 1
403 179 1
403 184 1
403 185 1
403 186 1
403 189 1
403 193 1
403 195 1
403 200 1
403 204 1
403 210 1
403 211 1
403 213 1
403 217 1
403 238 1
403 241 1
403 245 1
403 248 1
403 264 1
403 266 1
403 288 1
403 297 1
403 307 1
403 310 1
403 313 1
403 319 1
403 335 1
403 337 1
403 344 1
403 356 1
403 375 1
403 377 1
403 379 1
403 381 1
403 384 1
403 388 1
403 392 1
403 393 1
403 404 1
403 408 1
403 410 1
403 412 1
403 421 1
403 423 1
403 428 1
403 432 1
403 433 1
403 444 1
403 453 1
403 454 1
403 455 1
403 458 1
403 462 1
403 465 1
403 467 1
403 468 1
403 469 1
403 477 1
403 483 1
403 493 1
404 4 1
404 12 1
404 14 1
404 17 1
404 26 1
404 27 1
404 29 1
404 41 1
404 43 1
404 44 1
404 45 1
404 46 1
404 47 1
404 50 1
404 52 1
404 56 1
404 63 1
404 64 1
404 65 1
404 70 1
404 72 1
404 73 1
404 77 1
404 79 1
404 88 1
404 93 1
404 94 1
404 95 1
404 96 1
404 97 1
404 110 1
404 112 1
404 113 1
404 117 1
404 119 1
404 128 1
404 131 1
404 140 1
404 143 1
404 155 1
404 159 1
404 162 1
404 173 1
404 177 1
404 178 1
404 181 1
404 183 1
404 187 1
404 189 1
404 190 1
404 194 1
404 195 1
404 199 1
404 200 1
404 205 1
404 207 1
404 212 1
404 215 1
404 217 1
404 218 1
404 219 1
404 223 1
404 227 1
404 230 1
404 231 1
404 232 1
404 246 1
404 252 1
404 256 1
404 259 1
404 261 1
404 262 1
404 276 1
404 278 1
404 279 1
404 282 1
404 286 1
404 287 1
404 292 1
404 297 1
404 301 1
404 302 1
404 305 1
404 309 1
404 313 1
404 314 1
404 317 1
404 318 1
404 324 1
404 334 1
404 336 1
404 338 1
404 340 1
404 341 1
404 343 1
404 345 1
404 348 1
404 350 1
404 351 1
404 352 1
404 354 1
404 357 1
404 368 1
404 374 1
404 376 1
404 382 1
404 383 1
404 388 1
404 391 1
404 392 1
404 393 1
404 402 1
404 403 1
404 406 1
404 407 1
404 446 1
404 447 1
404 453 1
404 458 1
404 460 1
404 464 1
404 467 1
404 469 1
404 477 1
404 478 1
404 488 1
404 500 1
405 1 1
405 2 1
405 7 1
405 15 1
405 20 1
405 21 1
405 28 1
405 32 1
405 34 1
405 36 1
405 43 1
405 50 1
405 51 1
405 54 1
405 63 1
405 64 1
405 65 1
405 72 1
405 82 1
405 83 1
405 92 1
405 93 1
405 99 1
405 105 1
405 106 1
405 107 1
405 115 1
405 117 1
405 118 1
405 123 1
405 127 1
405 129 1
405 135 1
405 140 1
405 144 1
405 148 1
405 150 1
405 154 1
405 155 1
405 158 1
405 163 1
405 166 1
405 174 1
405 176 1
405 183 1
405 190 1
405 194 1
405 202 1
405 203 1
405 205 1
405 220 1
405 226 1
405 228 1
405 234 1
405 235 1
405 239 1
405 240 1
405 241 1
405 245 1
405 246 1
405 247 1
405 249 1
405 252 1
405 256 1
405 257 1
405 267 1
405 275 1
405 279 1
405 281 1
405 282 1
405 284 1
405 297 1
405 301 1
405 302 1
405 305 1
405 310 1
405 313 1
405 317 1
405 318 1
405 320 1
405 321 1
405 333 1
405 335 1
405 346 1
405 360 1
405 365 1
405 369 1
405 371 1
405 374 1
405 375 1
405 388 1
405 399 1
405 422 1
405 424 1
405 428 1
405 436 1
405 438 1
405 440 1
405 451 1
405 460 1
405 464 1
405 469 1
405 474 1
405 475 1
405 476 1
405 480 1
405 481 1
405 487 1
405 497 1
406 7 1
406 16 1
406 20 1
406 23 1
406 24 1
406 27 1
406 37 1
406 47 1
406 58 1
406 63 1
406 69 1
406 76 1
406 78 1
406 96 1
406 100 1
406 107 1
406 113 1
406 115 1
406 117 1
406 118 1
406 122 1
406 124 1
406 130 1
406 133 1
406 142 1
406 143 1
406 148 1
406 150 1
406 158 1
406 162 1
406 169 1
406 188 1
406 193 1
406 195 1
406 200 1
406 201 1
406 207 1
406 214 1
406 221 1
406 223 1
406 233 1
406 238 1
406 242 1
406 251 1
406 272 1
406 280 1
406 289 1
406 294 1
406 310 1
406 317 1
406 319 1
406 322 1
406 326 1
406 327 1
406 334 1
406 335 1
406 337 1
406 345 1
406 346 1
406 348 1
406 353 1
406 359 1
406 360 1
406 363 1
406 365 1
406 368 1
406 369 1
406 370 1
406 372 1
406 373 1
406 375 1
406 380 1
406 387 1
406 388 1
406 394 1
406 404 1
406 424 1
406 429 1
406 432 1
406 434 1
406 444 1
406 456 1
406 460 1
406 466 1
406 471 1
406 476 1
406 483 1
406 485 1
406 500 1
407 1 1
407 4 1
407 6 1
407 15 1
407 21 1
407 25 1
407 28 1
407 33 1
407 34 1
407 35 1
407 36 1
407 42 1
407 43 1
407 51 1
407 65 1
407 68 1
407 75 1
407 81 1
407 83 1
407 88 1
407 96 1
407 105 1
407 116 1
407 117 1
407 135 1
407 140 1
407 142 1
407 147 1
407 149 1
407 153 1
407 156 1
407 157 1
407 159 1
407 169 1
407 170 1
407 180 1
407 181 1
407 187 1
407 189 1
407 190 1
407 193 1
407 194 1
407 199 1
407 202 1
407 211 1
407 216 1
407 222 1
407 231 1
407 233 1
407 238 1
407 246 1
407 247 1
407 250 1
407 254 1
407 258 1
407 260 1
407 263 1
407 268 1
407 276 1
407 277 1
407 278 1
407 282 1
407 284 1
407 295 1
407 300 1
407 306 1
407 309 1
407 311 1
407 314 1
407 317 1
407 318 1
407 320 1
407 328 1
407 329 1
407 330 1
407 333 1
407 336 1
407 337 1
407 343 1
407 348 1
407 352 1
407 354 1
407 359 1
407 364 1
407 366 1
407 370 1
407 372 1
407 373 1
407 376 1
407 381 1
407 382 1
407 396 1
407 398 1
407 401 1
407 404 1
407 410 1
407 427 1
407 431 1
407 434 1
407 436 1
407 437 1
407 438 1
407 443 1
407 444 1
407 449 1
407 451 1
407 457 1
407 465 1
407 471 1
407 483 1
407 493 1
407 494 1
407 497 1
407 500 1
408 3 1
408 18 1
408 20 1
408 29 1
408 36 1
408 43 1
408 45 1
408 54 1
408 56 1
408 62 1
408 63 1
408 64 1
408 65 1
408 68 1
408 73 1
408 76 1
408 78 1
408 85 1
408 87 1
408 92 1
408 102 1
408 106 1
408 110 1
408 113 1
408 115 1
408 117 1
408 123 1
408 124 1
408 135 1
408 140 1
408 141 1
408 142 1
408 146 1
408 154 1
408 156 1
408 157 1
408 161 1
408 162 1
408 168 1
408 179 1
408 182 1
408 191 1
408 203 1
408 206 1
408 216 1
408 218 1
408 242 1
408 243 1
408 246 1
408 249 1
408 259 1
408 260 1
408 261 1
408 271 1
408 274 1
408 296 1
408 301 1
408 305 1
408 311 1
408 318 1
408 320 1
408 323 1
408 328 1
408 330 1
408 335 1
408 337 1
408 340 1
408 345 1
408 348 1
408 350 1
408 365 1
408 366 1
408 370 1
408 372 1
408 379 1
408 380 1
408 382 1
408 385 1
408 391 1
408 394 1
408 395 1
408 403 1
408 417 1
408 419 1
408 425 1
408 431 1
408 439 1
408 441 1
408 444 1
408 450 1
408 461 1
408 467 1
408 469 1
408 489 1
408 493 1
408 499 1
409 16 1
409 17 1
409 24 1
409 26 1
409 31 1
409 32 1
409 39 1
409 44 1
409 54 1
409 59 1
409 65 1
409 66 1
409 74 1
409 78 1
409 81 1
409 82 1
409 83 1
409 87 1
409 92 1
409 104 1
409 106 1
409 113 1
409 116 1
409 132 1
409 142 1
409 146 1
409 154 1
409 168 1
409 171 1
409 175 1
409 177 1
409 181 1
409 194 1
409 215 1
409 216 1
409 218 1
409 228 1
409 229 1
409 230 1
409 231 1
409 235 1
409 240 1
409 246 1
409 249 1
409 254 1
409 256 1
409 270 1
409 283 1
409 288 1
409 294 1
409 297 1
409 298 1
409 307 1
409 310 1
409 316 1
409 319 1
409 321 1
409 322 1
409 328 1
409 329 1
409 337 1
409 347 1
409 350 1
409 351 1
409 352 1
409 362 1
409 366 1
409 367 1
409 369 1
409 373 1
409 376 1
409 379 1
409 399 1
409 402 1
409 413 1
409 423 1
409 425 1
409 427 1
409 430 1
409 433 1
409 436 1
409 439 1
409 446 1
409 449 1
409 451 1
409 452 1
409 456 1
409 478 1
409 485 1
409 487 1
409 489 1
409 493 1
410 10 1
410 19 1
410 20 1
410 22 1
410 26 1
410 34 1
410 38 1
410 47 1
410 52 1
410 70 1
410 71 1
410 72 1
410 75 1
410 77 1
410 93 1
410 95 1
410 98 1
410 101 1
410 103 1
410 107 1
410 115 1
410 118 1
410 120 1
410 124 1
410 131 1
410 136 1
410 138 1
410 143 1
410 146 1
410 150 1
410 151 1
410 152 1
410 156 1
410 157 1
410 159 1
410 160 1
410 165 1
410 182 1
410 189 1
410 190 1
410 208 1
410 211 1
410 231 1
410 240 1
410 244 1
410 248 1
410 252 1
410 253 1
410 255 1
410 260 1
410 280 1
410 290 1
410 293 1
410 304 1
410 307 1
410 308 1
410 310 1
410 312 1
410 322 1
410 324 1
410 329 1
410 331 1
410 333 1
410 340 1
410 350 1
410 356 1
410 361 1
410 367 1
410 368 1
410 373 1
410 374 1
410 376 1
410 388 1
410 390 1
410 391 1
410 393 1
410 396 1
410 401 1
410 403 1
410 407 1
410 412 1
410 415 1
410 417 1
410 430 1
410 431 1
410 435 1
410 438 1
410 443 1
410 446 1
410 447 1
410 451 1
410 455 1
410 457 1
410 459 1
410 473 1
410 480 1
410 483 1
410 489 1
410 492 1
410 500 1
411 4 1
411 5 1
411 7 1
411 17 1
411 19 1
411 22 1
411 36 1
411 37 1
411 38 1
411 40 1
411 58 1
411 65 1
411 68 1
411 70 1
411 77 1
411 80 1
411 85 1
411 89 1
411 91 1
411 94 1
411 99 1
411 103 1
411 111 1
411 125 1
411 129 1
411 134 1
411 142 1
411 151 1
411 152 1
411 155 1
411 158 1
411 173 1
411 176 1
411 179 1
411 181 1
411 184 1
411 188 1
411 195 1
411 196 1
411 197 1
411 199 1
411 212 1
411 213 1
411 218 1
411 219 1
411 222 1
411 239 1
411 240 1
411 248 1
411 249 1
411 251 1
411 253 1
411 254 1
411 258 1
411 259 1
411 263 1
411 267 1
411 268 1
411 272 1
411 282 1
411 290 1
411 295 1
411 298 1
411 303 1
411 310 1
411 311 1
411 312 1
411 322 1
411 327 1
411 330 1
411 335 1
411 343 1
411 348 1
411 350 1
411 354 1
411 356 1
411 357 1
411 363 1
411 365 1
411 372 1
411 377 1
411 387 1
411 395 1
411 401 1
411 413 1
411 415 1
411 422 1
411 425 1
411 426 1
411 427 1
411 430 1
411 431 1
411 434 1
411 435 1
411 439 1
411 441 1
411 450 1
411 454 1
411 458 1
411 459 1
411 468 1
411 473 1
411 474 1
411 476 1
411 479 1
411 481 1
411 482 1
411 493 1
411 494 1
412 5 1
412 8 1
412 13 1
412 14 1
412 15 1
412 21 1
412 26 1
412 28 1
412 33 1
412 34 1
412 38 1
412 39 1
412 45 1
412 47 1
412 50 1
412 54 1
412 57 1
412 61 1
412 70 1
412 71 1
412 75 1
412 82 1
412 85 1
412 86 1
412 91 1
412 92 1
412 99 1
412 100 1
412 111 1
412 118 1
412 123 1
412 125 1
412 133 1
412 136 1
412 144 1
412 146 1
412 148 1
412 159 1
412 169 1
412 171 1
412 173 1
412 174 1
412 175 1
412 179 1
412 190 1
412 195 1
412 197 1
412 211 1
412 212 1
412 215 1
412 220 1
412 222 1
412 229 1
412 231 1
412 235 1
412 239 1
412 242 1
412 244 1
412 246 1
412 250 1
412 253 1
412 268 1
412 274 1
412 282 1
412 285 1
412 286 1
412 288 1
412 300 1
412 303 1
412 306 1
412 310 1
412 317 1
412 323 1
412 327 1
412 334 1
412 336 1
412 338 1
412 343 1
412 345 1
412 346 1
412 347 1
412 348 1
412 356 1
412 362 1
412 373 1
412 379 1
412 385 1
412 392 1
412 394 1
412 396 1
412 402 1
412 403 1
412 410 1
412 414 1
412 421 1
412 431 1
412 434 1
412 441 1
412 449 1
412 451 1
412 452 1
412 473 1
412 476 1
412 477 1
412 479 1
412 480 1
412 481 1
412 483 1
412 484 1
412 485 1
412 488 1
412 491 1
412 497 1
413 2 1
413 9 1
413 15 1
413 17 1
413 22 1
413 27 1
413 33 1
413 41 1
413 44 1
413 46 1
413 48 1
413 51 1
413 54 1
413 60 1
413 61 1
413 64 1
413 68 1
413 69 1
413 70 1
413 76 1
413 78 1
413 79 1
413 82 1
413 90 1
413 96 1
413 98 1
413 99 1
413 101 1
413 102 1
413 107 1
413 113 1
413 118 1
413 128 1
413 133 1
413 134 1
413 138 1
413 139 1
413 141 1
413 152 1
413 155 1
413 160 1
413 162 1
413 166 1
413 167 1
413 171 1
413 175 1
413 186 1
413 188 1
413 192 1
413 194 1
413 208 1
413 210 1
413 217 1
413 229 1
413 245 1
413 249 1
413 262 1
413 273 1
413 279 1
413 281 1
413 284 1
413 285 1
413 300 1
413 302 1
413 304 1
413 309 1
413 315 1
413 323 1
413 329 1
413 330 1
413 340 1
413 342 1
413 343 1
413 348 1
413 353 1
413 357 1
413 358 1
413 367 1
413 378 1
413 387 1
413 388 1
413 402 1
413 409 1
413 411 1
413 415 1
413 422 1
413 423 1
413 444 1
413 455 1
413 460 1
413 462 1
413 467 1
413 468 1
413 470 1
413 480 1
413 481 1
414 3 1
414 10 1
414 21 1
414 32 1
414 33 1
414 34 1
414 46 1
414 51 1
414 52 1
414 55 1
414 57 1
414 60 1
414 67 1
414 70 1
414 71 1
414 77 1
414 84 1
414 85 1
414 86 1
414 88 1
414 103 1
414 111 1
414 114 1
414 118 1
414 121 1
414 131 1
414 133 1
414 135 1
414 145 1
414 150 1
414 151 1
414 153 1
414 154 1
414 159 1
414 161 1
414 174 1
414 190 1
414 193 1
414 203 1
414 210 1
414 213 1
414 215 1
414 217 1
414 218 1
414 221 1
414 230 1
414 231 1
414 240 1
414 273 1
414 287 1
414 288 1
414 294 1
414 297 1
414 307 1
414 311 1
414 325 1
414 328 1
414 329 1
414 330 1
414 334 1
414 339 1
414 343 1
414 345 1
414 347 1
414 356 1
414 357 1
414 360 1
414 364 1
414 366 1
414 368 1
414 374 1
414 377 1
414 378 1
414 386 1
414 391 1
414 394 1
414 395 1
414 412 1
414 417 1
414 428 1
414 432 1
414 436 1
414 446 1
414 460 1
414 461 1
414 470 1
414 472 1
414 476 1
414 479 1
414 481 1
414 487 1
414 500 1
415 3 1
415 8 1
415 10 1
415 14 1
415 15 1
415 27 1
415 29 1
415 38 1
415 49 1
415 52 1
415 63 1
415 66 1
415 71 1
415 73 1
415 79 1
415 101 1
415 104 1
415 109 1
415 111 1
415 113 1
415 118 1
415 125 1
415 126 1
415 130 1
415 142 1
415 147 1
415 153 1
415 155 1
415 164 1
415 167 1
415 169 1
415 179 1
415 180 1
415 183 1
415 189 1
415 190 1
415 199 1
415 201 1
415 202 1
415 206 1
415 208 1
415 209 1
415 211 1
415 225 1
415 229 1
415 230 1
415 236 1
415 237 1
415 238 1
415 241 1
415 250 1
415 251 1
415 259 1
415 264 1
415 269 1
415 278 1
415 280 1
415 283 1
415 285 1
415 286 1
415 289 1
415 291 1
415 297 1
415 298 1
415 315 1
415 326 1
415 329 1
415 332 1
415 335 1
415 336 1
415 339 1
415 341 1
415 345 1
415 347 1
415 352 1
415 354 1
415 359 1
415 363 1
415 372 1
415 376 1
415 381 1
415 384 1
415 385 1
415 410 1
415 411 1
415 413 1
415 418 1
415 430 1
415 438 1
415 439 1
415 441 1
415 451 1
415 470 1
415 471 1
415 474 1
415 476 1
415 480 1
415 482 1
415 484 1
415 489 1
416 3 1
416 4 1
416 7 1
416 11 1
416 12 1
416 16 1
416 21 1
416 26 1
416 28 1
416 31 1
416 45 1
416 47 1
416 48 1
416 54 1
416 55 1
416 66 1
416 68 1
416 73 1
416 77 1
416 79 1
416 87 1
416 90 1
416 91 1
416 96 1
416 98 1
416 110 1
416 113 1
416 117 1
416 123 1
416 131 1
416 139 1
416 141 1
416 143 1
416 149 1
416 153 1
416 155 1
416 163 1
416 168 1
416 174 1
416 183 1
416 185 1
416 186 1
416 187 1
416 206 1
416 216 1
416 222 1
416 229 1
416 235 1
416 249 1
416 251 1
416 253 1
416 255 1
416 257 1
416 260 1
416 270 1
416 275 1
416 277 1
416 284 1
416 285 1
416 287 1
416 288 1
416 291 1
416 296 1
416 301 1
416 305 1
416 315 1
416 324 1
416 327 1
416 330 1
416 332 1
416 334 1
416 336 1
416 337 1
416 341 1
416 346 1
416 357 1
416 358 1
416 363 1
416 365 1
416 385 1
416 386 1
416 392 1
416 399 1
416 400 1
416 402 1
416 418 1
416 420 1
416 421 1
416 427 1
416 428 1
416 429 1
416 432 1
416 440 1
416 445 1
416 447 1
416 449 1
416 451 1
416 454 1
416 455 1
416 456 1
416 463 1
416 467 1
416 473 1
416 488 1
416 491 1
416 492 1
416 497 1
416 498 1
417 5 1
417 8 1
417 9 1
417 13 1
417 15 1
417 29 1
417 31 1
417 34 1
417 35 1
417 40 1
417 57 1
417 63 1
417 64 1
417 67 1
417 68 1
417 70 1
417 77 1
417 80 1
417 81 1
417 84 1
417 85 1
417 88 1
417 91 1
417 92 1
417 96 1
417 97 1
417 102 1
417 104 1
417 106 1
417 108 1
417 110 1
417 111 1
417 120 1
417 124 1
417 137 1
417 148 1
417 149 1
417 152 1
417 154 1
417 155 1
417 159 1
417 170 1
417 179 1
417 182 1
417 188 1
417 192 1
417 205 1
417 210 1
417 214 1
417 216 1
417 219 1
417 225 1
417 242 1
417 245 1
417 246 1
417 248 1
417 250 1
417 252 1
417 253 1
417 259 1
417 263 1
417 267 1
417 269 1
417 274 1
417 280 1
417 287 1
417 302 1
417 303 1
417 307 1
417 308 1
417 310 1
417 311 1
417 313 1
417 318 1
417 331 1
417 332 1
417 335 1
417 337 1
417 343 1
417 344 1
417 347 1
417 348 1
417 351 1
417 363 1
417 368 1
417 369 1
417 370 1
417 374 1
417 381 1
417 382 1
417 385 1
417 388 1
417 394 1
417 408 1
417 410 1
417 414 1
417 418 1
417 420 1
417 425 1
417 428 1
417 435 1
417 437 1
417 439 1
417 440 1
417 444 1
417 452 1
417 456 1
417 463 1
417 472 1
417 481 1
417 485 1
417 488 1
417 489 1
417 490 1
417 500 1
418 3 1
418 10 1
418 23 1
418 25 1
418 26 1
418 31 1
418 34 1
418 37 1
418 40 1
418 44 1
418 47 1
418 65 1
418 74 1
418 77 1
418 86 1
418 90 1
418 92 1
418 94 1
418 95 1
418 100 1
418 110 1
418 117 1
418 118 1
418 129 1
418 135 1
418 137 1
418 144 1
418 147 1
418 148 1
418 153 1
418 154 1
418 158 1
418 166 1
418 176 1
418 181 1
418 183 1
418 193 1
418 196 1
418 201 1
418 225 1
418 228 1
418 230 1
418 238 1
418 256 1
418 264 1
418 273 1
418 274 1
418 276 1
418 279 1
418 286 1
418 290 1
418 293 1
418 300 1
418 302 1
418 303 1
418 310 1
418 321 1
418 326 1
418 338 1
418 342 1
418 350 1
418 355 1
418 356 1
418 359 1
418 367 1
418 371 1
418 374 1
418 387 1
418 392 1
418 395 1
418 396 1
418 397 1
418 398 1
418 401 1
418 402 1
418 415 1
418 416 1
418 417 1
418 422 1
418 425 1
418 427 1
418 438 1
418 443 1
418 444 1
418 449 1
418 451 1
418 462 1
418 465 1
418 470 1
418 485 1
418 498 1
418 499 1
419 5 1
419 22 1
419 23 1
419 24 1
419 27 1
419 29 1
419 30 1
419 37 1
419 42 1
419 50 1
419 54 1
419 55 1
419 61 1
419 64 1
419 66 1
419 67 1
419 76 1
419 79 1
419 96 1
419 98 1
419 99 1
419 100 1
419 102 1
419 103 1
419 104 1
419 107 1
419 108 1
419 113 1
419 118 1
419 127 1
419 129 1
419 138 1
419 139 1
419 143 1
419 144 1
419 146 1
419 151 1
419 155 1
419 156 1
419 160 1
419 166 1
419 172 1
419 175 1
419 181 1
419 183 1
419 185 1
419 187 1
419 190 1
419 193 1
419 205 1
419 206 1
419 211 1
419 228 1
419 234 1
419 235 1
419 242 1
419 243 1
419 253 1
419 260 1
419 262 1
419 265 1
419 268 1
419 269 1
419 271 1
419 275 1
419 283 1
419 285 1
419 288 1
419 289 1
419 290 1
419 292 1
419 295 1
419 298 1
419 300 1
419 305 1
419 308 1
419 310 1
419 312 1
419 313 1
419 316 1
419 323 1
419 324 1
419 331 1
419 337 1
419 339 1
419 341 1
419 349 1
419 350 1
419 356 1
419 361 1
419 368 1
419 371 1
419 376 1
419 387 1
419 390 1
419 392 1
419 393 1
419 394 1
419 402 1
419 408 1
419 420 1
419 430 1
419 434 1
419 438 1
419 450 1
419 454 1
419 456 1
419 472 1
419 478 1
419 480 1
419 481 1
419 485 1
419 494 1
419 496 1
420 4 1
420 5 1
420 9 1
420 15 1
420 23 1
420 25 1
420 26 1
420 27 1
420 36 1
420 43 1
420 54 1
420 57 1
420 68 1
420 71 1
420 74 1
420 78 1
420 85 1
420 90 1
420 98 1
420 109 1
420 117 1
420 130 1
420 134 1
420 135 1
420 139 1
420 151 1
420 153 1
420 155 1
420 159 1
420 170 1
420 176 1
420 179 1
420 182 1
420 187 1
420 189 1
420 194 1
420 195 1
420 201 1
420 203 1
420 210 1
420 213 1
420 218 1
420 221 1
420 223 1
420 237 1
420 249 1
420 251 1
420 253 1
420 256 1
420 262 1
420 268 1
420 270 1
420 280 1
420 283 1
420 284 1
420 296 1
420 303 1
420 307 1
420 316 1
420 318 1
420 325 1
420 332 1
420 337 1
420 348 1
420 351 1
420 356 1
420 357 1
420 372 1
420 387 1
420 391 1
420 395 1
420 396 1
420 399 1
420 416 1
420 417 1
420 419 1
420 427 1
420 430 1
420 433 1
420 438 1
420 440 1
420 445 1
420 446 1
420 457 1
420 459 1
420 463 1
420 470 1
420 474 1
420 480 1
420 494 1
420 495 1
421 1 1
421 4 1
421 12 1
421 13 1
421 40 1
421 41 1
421 44 1
421 55 1
421 57 1
421 58 1
421 61 1
421 76 1
421 84 1
421 88 1
421 104 1
421 110 1
421 114 1
421 127 1
421 130 1
421 132 1
421 133 1
421 136 1
421 142 1
421 143 1
421 150 1
421 157 1
421 160 1
421 165 1
421 166 1
421 171 1
421 176 1
421 189 1
421 193 1
421 196 1
421 202 1
421 204 1
421 210 1
421 220 1
421 223 1
421 226 1
421 229 1
421 231 1
421 233 1
421 237 1
421 242 1
421 243 1
421 256 1
421 261 1
421 267 1
421 274 1
421 281 1
421 288 1
421 290 1
421 292 1
421 298 1
421 307 1
421 328 1
421 332 1
421 338 1
421 339 1
421 352 1
421 359 1
421 367 1
421 372 1
421 384 1
421 395 1
421 396 1
421 402 1
421 403 1
421 412 1
421 416 1
421 425 1
421 430 1
421 431 1
421 432 1
421 437 1
421 446 1
421 447 1
421 448 1
421 458 1
421 461 1
421 462 1
421 465 1
421 467 1
421 468 1
421 471 1
421 480 1
421 483 1
421 491 1
421 494 1
422 2 1
422 4 1
422 8 1
422 9 1
422 11 1
422 17 1
422 20 1
422 28 1
422 34 1
422 37 1
422 39 1
422 42 1
422 49 1
422 50 1
422 55 1
422 59 1
422 77 1
422 82 1
422 84 1
422 89 1
422 94 1
422 99 1
422 102 1
422 108 1
422 109 1
422 112 1
422 118 1
422 119 1
422 127 1
422 152 1
422 155 1
422 167 1
422 169 1
422 183 1
422 199 1
422 212 1
422 214 1
422 215 1
422 222 1
422 223 1
422 224 1
422 230 1
422 234 1
422 236 1
422 238 1
422 243 1
422 245 1
422 251 1
422 252 1
422 257 1
422 269 1
422 283 1
422 287 1
422 288 1
422 289 1
422 293 1
422 297 1
422 298 1
422 304 1
422 305 1
422 306 1
422 309 1
422 317 1
422 321 1
422 322 1
422 323 1
422 332 1
422 336 1
422 337 1
422 349 1
422 358 1
422 379 1
422 382 1
422 383 1
422 385 1
422 394 1
422 396 1
422 405 1
422 411 1
422 413 1
422 418 1
422 423 1
422 426 1
422 432 1
422 437 1
422 443 1
422 444 1
422 479 1
422 487 1
422 492 1
422 497 1
422 499 1
423 3 1
423 5 1
423 7 1
423 8 1
423 10 1
423 13 1
423 14 1
423 19 1
423 20 1
423 39 1
423 45 1
423 51 1
423 52 1
423 63 1
423 68 1
423 73 1
423 91 1
423 92 1
423 103 1
423 110 1
423 111 1
423 116 1
423 118 1
423 126 1
423 132 1
423 134 1
423 147 1
423 149 1
423 151 1
423 152 1
423 156 1
423 171 1
423 178 1
423 181 1
423 185 1
423 187 1
423 192 1
423 193 1
423 198 1
423 203 1
423 206 1
423 213 1
423 220 1
423 221 1
423 225 1
423 231 1
423 232 1
423 235 1
423 238 1
423 253 1
423 254 1
423 257 1
423 259 1
423 263 1
423 275 1
423 278 1
423 280 1
423 281 1
423 282 1
423 287 1
423 291 1
423 293 1
423 303 1
423 305 1
423 308 1
423 309 1
423 316 1
423 319 1
423 321 1
423 327 1
423 337 1
423 339 1
423 340 1
423 345 1
423 346 1
423 347 1
423 348 1
423 361 1
423 362 1
423 379 1
423 380 1
423 385 1
423 392 1
423 398 1
423 403 1
423 409 1
423 413 1
423 422 1
423 425 1
423 426 1
423 432 1
423 433 1
423 439 1
423 441 1
423 450 1
423 453 1
423 461 1
423 462 1
423 465 1
423 477 1
423 488 1
423 491 1
423 494 1
423 496 1
423 497 1
423 499 1
424 3 1
424 12 1
424 13 1
424 23 1
424 31 1
424 32 1
424 48 1
424 58 1
424 59 1
424 65 1
424 88 1
424 90 1
424 91 1
424 104 1
424 108 1
424 118 1
424 119 1
424 122 1
424 126 1
424 127 1
424 139 1
424 145 1
424 146 1
424 148 1
424 151 1
424 162 1
424 169 1
424 178 1
424 180 1
424 181 1
424 185 1
424 189 1
424 191 1
424 195 1
424 196 1
424 198 1
424 207 1
424 210 1
424 217 1
424 219 1
424 225 1
424 226 1
424 232 1
424 234 1
424 237 1
424 249 1
424 266 1
424 268 1
424 273 1
424 275 1
424 279 1
424 280 1
424 281 1
424 286 1
424 295 1
424 299 1
424 301 1
424 308 1
424 311 1
424 317 1
424 320 1
424 326 1
424 328 1
424 331 1
424 332 1
424 338 1
424 339 1
424 340 1
424 363 1
424 369 1
424 378 1
424 381 1
424 388 1
424 391 1
424 392 1
424 395 1
424 397 1
424 400 1
424 405 1
424 406 1
424 425 1
424 430 1
424 440 1
424 443 1
424 446 1
424 449 1
424 453 1
424 477 1
424 483 1
424 486 1
424 491 1
424 492 1
424 494 1
424 496 1
424 498 1
425 5 1
425 7 1
425 8 1
425 14 1
425 15 1
425 21 1
425 36 1
425 37 1
425 39 1
425 42 1
425 43 1
425 44 1
425 46 1
425 51 1
425 52 1
425 68 1
425 74 1
425 79 1
425 82 1
425 84 1
425 95 1
425 96 1
425 98 1
425 99 1
425 108 1
425 109 1
425 112 1
425 120 1
425 121 1
425 122 1
425 129 1
425 136 1
425 138 1
425 140 1
425 149 1
425 153 1
425 165 1
425 168 1
425 170 1
425 174 1
425 176 1
425 196 1
425 200 1
425 202 1
425 204 1
425 205 1
425 209 1
425 214 1
425 217 1
425 229 1
425 233 1
425 238 1
425 239 1
425 244 1
425 245 1
425 256 1
425 257 1
425 258 1
425 263 1
425 265 1
425 269 1
425 277 1
425 280 1
425 285 1
425 287 1
425 290 1
425 292 1
425 303 1
425 305 1
425 308 1
425 320 1
425 343 1
425 346 1
425 350 1
425 359 1
425 360 1
425 363 1
425 368 1
425 369 1
425 371 1
425 383 1
425 385 1
425 386 1
425 387 1
425 396 1
425 399 1
425 408 1
425 409 1
425 411 1
425 417 1
425 418 1
425 421 1
425 423 1
425 424 1
425 427 1
425 428 1
425 441 1
425 443 1
425 453 1
425 458 1
425 462 1
425 469 1
425 470 1
425 472 1
425 485 1
425 491 1
425 493 1
426 6 1
426 10 1
426 19 1
426 21 1
426 23 1
426 24 1
426 30 1
426 38 1
426 40 1
426 42 1
426 47 1
426 48 1
426 49 1
426 50 1
426 51 1
426 52 1
426 57 1
426 69 1
426 85 1
426 87 1
426 88 1
426 91 1
426 100 1
426 101 1
426 103 1
426 107 1
426 113 1
426 114 1
426 117 1
426 122 1
426 127 1
426 130 1
426 131 1
426 133 1
426 136 1
426 140 1
426 146 1
426 150 1
426 152 1
426 164 1
426 167 1
426 168 1
426 171 1
426 173 1
426 174 1
426 176 1
426 177 1
426 179 1
426 181 1
426 182 1
426 183 1
426 186 1
426 189 1
426 191 1
426 192 1
426 198 1
426 229 1
426 231 1
426 234 1
426 235 1
426 245 1
426 246 1
426 250 1
426 258 1
426 260 1
426 263 1
426 267 1
426 275 1
426 278 1
426 291 1
426 296 1
426 299 1
426 300 1
426 303 1
426 305 1
426 311 1
426 312 1
426 318 1
426 319 1
426 323 1
426 324 1
426 328 1
426 334 1
426 335 1
426 336 1
426 338 1
426 349 1
426 350 1
426 356 1
426 363 1
426 368 1
426 370 1
426 383 1
426 387 1
426 391 1
426 395 1
426 402 1
426 411 1
426 422 1
426 423 1
426 429 1
426 433 1
426 434 1
426 440 1
426 451 1
426 465 1
426 471 1
426 484 1
426 489 1
426 491 1
426 494 1
426 496 1
426 498 1
427 1 1
427 14 1
427 16 1
427 17 1
427 25 1
427 34 1
427 36 1
427 48 1
427 62 1
427 65 1
427 66 1
427 67 1
427 68 1
427 69 1
427 72 1
427 78 1
427 87 1
427 89 1
427 95 1
427 96 1
427 97 1
427 98 1
427 104 1
427 107 1
427 113 1
427 118 1
427 129 1
427 133 1
427 139 1
427 141 1
427 143 1
427 144 1
427 150 1
427 152 1
427 162 1
427 174 1
427 187 1
427 193 1
427 208 1
427 215 1
427 218 1
427 223 1
427 227 1
427 228 1
427 229 1
427 233 1
427 241 1
427 245 1
427 249 1
427 252 1
427 257 1
427 261 1
427 264 1
427 267 1
427 271 1
427 278 1
427 279 1
427 284 1
427 287 1
427 289 1
427 291 1
427 293 1
427 295 1
427 299 1
427 301 1
427 302 1
427 303 1
427 306 1
427 312 1
427 323 1
427 325 1
427 326 1
427 327 1
427 332 1
427 334 1
427 335 1
427 341 1
427 346 1
427 350 1
427 351 1
427 355 1
427 357 1
427 360 1
427 369 1
427 370 1
427 371 1
427 386 1
427 395 1
427 399 1
427 400 1
427 407 1
427 409 1
427 411 1
427 416 1
427 418 1
427 420 1
427 425 1
427 431 1
427 432 1
427 434 1
427 447 1
427 450 1
427 455 1
427 457 1
427 467 1
427 476 1
427 480 1
427 481 1
427 482 1
427 483 1
427 485 1
427 486 1
427 487 1
427 490 1
427 491 1
427 493 1
427 495 1
428 9 1
428 11 1
428 15 1
428 18 1
428 36 1
428 39 1
428 46 1
428 52 1
428 56 1
428 57 1
428 60 1
428 63 1
428 70 1
428 76 1
428 78 1
428 80 1
428 81 1
428 88 1
428 111 1
428 115 1
428 120 1
428 121 1
428 127 1
428 128 1
428 135 1
428 138 1
428 146 1
428 156 1
428 158 1
428 159 1
428 161 1
428 164 1
428 167 1
428 169 1
428 183 1
428 187 1
428 191 1
428 193 1
428 194 1
428 197 1
428 215 1
428 220 1
428 222 1
428 224 1
428 226 1
428 230 1
428 232 1
428 236 1
428 244 1
428 245 1
428 252 1
428 256 1
428 263 1
428 264 1
428 281 1
428 292 1
428 300 1
428 305 1
428 312 1
428 313 1
428 318 1
428 323 1
428 331 1
428 337 1
428 341 1
428 345 1
428 350 1
428 354 1
428 357 1
428 372 1
428 376 1
428 384 1
428 396 1
428 398 1
428 403 1
428 405 1
428 414 1
428 416 1
428 417 1
428 425 1
428 429 1
428 432 1
428 444 1
428 446 1
428 456 1
428 462 1
428 463 1
428 466 1
428 474 1
428 477 1
428 480 1
428 482 1
428 484 1
428 487 1
428 492 1
428 497 1
428 498 1
428 500 1
429 19 1
429 21 1
429 25 1
429 28 1
429 29 1
429 30 1
429 31 1
429 35 1
429 37 1
429 39 1
429 41 1
429 42 1
429 54 1
429 62 1
429 63 1
429 73 1
429 77 1
429 78 1
429 82 1
429 84 1
429 92 1
429 94 1
429 100 1
429 112 1
429 117 1
429 118 1
429 120 1
429 124 1
429 134 1
429 148 1
429 154 1
429 155 1
429 163 1
429 169 1
429 172 1
429 176 1
429 180 1
429 181 1
429 182 1
429 186 1
429 195 1
429 197 1
429 205 1
429 207 1
429 209 1
429 211 1
429 213 1
429 218 1
429 245 1
429 260 1
429 261 1
429 263 1
429 265 1
429 273 1
429 275 1
429 277 1
429 286 1
429 297 1
429 304 1
429 307 1
429 314 1
429 315 1
429 317 1
429 318 1
429 329 1
429 337 1
429 338 1
429 344 1
429 346 1
429 347 1
429 348 1
429 350 1
429 351 1
429 357 1
429 361 1
429 364 1
429 367 1
429 369 1
429 370 1
429 374 1
429 376 1
429 377 1
429 380 1
429 383 1
429 387 1
429 397 1
429 398 1
429 399 1
429 400 1
429 401 1
429 406 1
429 416 1
429 426 1
429 428 1
429 433 1
429 434 1
429 435 1
429 442 1
429 457 1
429 458 1
429 467 1
429 475 1
429 479 1
429 482 1
429 483 1
429 484 1
429 487 1
429 490 1
429 495 1
430 3 1
430 6 1
430 7 1
430 18 1
430 28 1
430 30 1
430 37 1
430 40 1
430 43 1
430 44 1
430 50 1
430 53 1
430 62 1
430 75 1
430 77 1
430 82 1
430 89 1
430 91 1
430 92 1
430 94 1
430 102 1
430 104 1
430 109 1
430 111 1
430 125 1
430 127 1
430 128 1
430 131 1
430 140 1
430 144 1
430 147 1
430 151 1
430 164 1
430 166 1
430 176 1
430 182 1
430 183 1
430 184 1
430 187 1
430 190 1
430 197 1
430 199 1
430 201 1
430 213 1
430 215 1
430 220 1
430 221 1
430 222 1
430 223 1
430 224 1
430 226 1
430 231 1
430 232 1
430 244 1
430 245 1
430 247 1
430 252 1
430 259 1
430 263 1
430 264 1
430 270 1
430 278 1
430 279 1
430 284 1
430 287 1
430 289 1
430 297 1
430 298 1
430 310 1
430 329 1
430 334 1
430 335 1
430 338 1
430 343 1
430 344 1
430 356 1
430 359 1
430 383 1
430 389 1
430 392 1
430 396 1
430 397 1
430 398 1
430 399 1
430 409 1
430 410 1
430 411 1
430 415 1
430 419 1
430 420 1
430 421 1
430 424 1
430 434 1
430 437 1
430 451 1
430 454 1
430 464 1
430 467 1
430 469 1
430 475 1
430 479 1
430 489 1
430 493 1
430 497 1
430 498 1
430 499 1
431 4 1
431 9 1
431 14 1
431 16 1
431 19 1
431 21 1
431 25 1
431 37 1
431 41 1
431 44 1
431 49 1
431 54 1
431 58 1
431 59 1
431 62 1
431 63 1
431 67 1
431 68 1
431 77 1
431 79 1
431 83 1
431 84 1
431 86 1
431 92 1
431 94 1
431 101 1
431 105 1
431 106 1
431 110 1
431 134 1
431 146 1
431 147 1
431 169 1
431 172 1
431 173 1
431 176 1
431 177 1
431 183 1
431 185 1
431 188 1
431 189 1
431 194 1
431 198 1
431 200 1
431 202 1
431 203 1
431 213 1
431 220 1
431 224 1
431 230 1
431 232 1
431 233 1
431 235 1
431 237 1
431 248 1
431 251 1
431 256 1
431 262 1
431 266 1
431 273 1
431 276 1
431 278 1
431 279 1
431 284 1
431 289 1
431 297 1
431 305 1
431 314 1
431 318 1
431 319 1
431 323 1
431 334 1
431 336 1
431 338 1
431 347 1
431 366 1
431 368 1
431 377 1
431 378 1
431 386 1
431 393 1
431 397 1
431 400 1
431 401 1
431 407 1
431 408 1
431 410 1
431 411 1
431 412 1
431 421 1
431 427 1
431 432 1
431 439 1
431 440 1
431 441 1
431 443 1
431 445 1
431 447 1
431 452 1
431 455 1
431 462 1
431 463 1
431 466 1
431 467 1
431 468 1
431 471 1
431 476 1
431 481 1
431 484 1
431 490 1
431 498 1
432 8 1
432 10 1
432 14 1
432 18 1
432 25 1
432 26 1
432 33 1
432 38 1
432 40 1
432 45 1
432 48 1
432 49 1
432 68 1
432 74 1
432 77 1
432 80 1
432 83 1
432 88 1
432 96 1
432 100 1
432 103 1
432 105 1
432 112 1
432 117 1
432 126 1
432 140 1
432 143 1
432 150 1
432 162 1
432 175 1
432 176 1
432 178 1
432 185 1
432 190 1
432 196 1
432 198 1
432 200 1
432 203 1
432 206 1
432 215 1
432 223 1
432 226 1
432 239 1
432 253 1
432 256 1
432 266 1
432 267 1
432 268 1
432 277 1
432 286 1
432 287 1
432 288 1
432 294 1
432 302 1
432 306 1
432 309 1
432 313 1
432 315 1
432 333 1
432 340 1
432 344 1
432 346 1
432 352 1
432 359 1
432 360 1
432 361 1
432 369 1
432 373 1
432 386 1
432 387 1
432 395 1
432 403 1
432 406 1
432 414 1
432 416 1
432 421 1
432 422 1
432 423 1
432 427 1
432 428 1
432 431 1
432 435 1
432 439 1
432 444 1
432 445 1
432 446 1
432 448 1
432 449 1
432 453 1
432 455 1
432 457 1
432 463 1
432 466 1
432 472 1
432 477 1
432 493 1
432 499 1
433 2 1
433 4 1
433 5 1
433 7 1
433 13 1
433 19 1
433 25 1
433 31 1
433 32 1
433 34 1
433 35 1
433 40 1
433 43 1
433 46 1
433 48 1
433 52 1
433 60 1
433 61 1
433 63 1
433 65 1
433 66 1
433 67 1
433 70 1
433 75 1
433 79 1
433 80 1
433 83 1
433 84 1
433 88 1
433 95 1
433 98 1
433 104 1
433 111 1
433 115 1
433 125 1
433 140 1
433 142 1
433 144 1
433 156 1
433 157 1
433 169 1
433 172 1
433 173 1
433 186 1
433 193 1
433 197 1
433 198 1
433 203 1
433 209 1
433 221 1
433 223 1
433 225 1
433 228 1
433 230 1
433 237 1
433 238 1
433 249 1
433 250 1
433 256 1
433 259 1
433 261 1
433 268 1
433 269 1
433 277 1
433 282 1
433 284 1
433 286 1
433 288 1
433 289 1
433 299 1
433 301 1
433 309 1
433 314 1
433 317 1
433 336 1
433 343 1
433 349 1
433 354 1
433 363 1
433 364 1
433 372 1
433 378 1
433 379 1
433 387 1
433 393 1
433 394 1
433 395 1
433 400 1
433 402 1
433 403 1
433 409 1
433 420 1
433 423 1
433 426 1
433 429 1
433 435 1
433 440 1
433 441 1
433 445 1
433 450 1
433 461 1
433 472 1
433 479 1
433 482 1
433 485 1
433 490 1
433 492 1
433 496 1
434 2 1
434 10 1
434 11 1
434 18 1
434 20 1
434 21 1
434 27 1
434 38 1
434 41 1
434 44 1
434 50 1
434 56 1
434 59 1
434 70 1
434 71 1
434 72 1
434 73 1
434 76 1
434 77 1
434 84 1
434 85 1
434 91 1
434 94 1
434 97 1
434 103 1
434 112 1
434 114 1
434 116 1
434 120 1
434 122 1
434 127 1
434 128 1
434 130 1
434 133 1
434 135 1
434 137 1
434 138 1
434 143 1
434 147 1
434 151 1
434 152 1
434 154 1
434 157 1
434 159 1
434 166 1
434 170 1
434 180 1
434 189 1
434 190 1
434 195 1
434 203 1
434 210 1
434 211 1
434 213 1
434 228 1
434 229 1
434 231 1
434 232 1
434 234 1
434 244 1
434 248 1
434 252 1
434 255 1
434 263 1
434 271 1
434 272 1
434 274 1
434 275 1
434 279 1
434 281 1
434 289 1
434 290 1
434 294 1
434 298 1
434 299 1
434 301 1
434 308 1
434 313 1
434 332 1
434 334 1
434 337 1
434 340 1
434 341 1
434 343 1
434 344 1
434 345 1
434 346 1
434 349 1
434 350 1
434 355 1
434 357 1
434 358 1
434 359 1
434 364 1
434 368 1
434 369 1
434 371 1
434 373 1
434 383 1
434 397 1
434 406 1
434 407 1
434 411 1
434 412 1
434 419 1
434 426 1
434 427 1
434 429 1
434 430 1
434 439 1
434 446 1
434 447 1
434 449 1
434 457 1
434 463 1
434 466 1
434 470 1
434 487 1
434 490 1
434 494 1
434 497 1
435 2 1
435 4 1
435 5 1
435 16 1
435 30 1
435 37 1
435 48 1
435 50 1
435 57 1
435 59 1
435 70 1
435 84 1
435 99 1
435 102 1
435 104 1
435 106 1
435 113 1
435 121 1
435 122 1
435 130 1
435 142 1
435 143 1
435 144 1
435 155 1
435 160 1
435 165 1
435 169 1
435 173 1
435 182 1
435 185 1
435 188 1
435 192 1
435 200 1
435 205 1
435 207 1
435 214 1
435 218 1
435 223 1
435 225 1
435 226 1
435 230 1
435 233 1
435 234 1
435 239 1
435 241 1
435 246 1
435 247 1
435 252 1
435 253 1
435 255 1
435 258 1
435 260 1
435 276 1
435 282 1
435 288 1
435 289 1
435 292 1
435 298 1
435 299 1
435 300 1
435 315 1
435 316 1
435 322 1
435 323 1
435 331 1
435 333 1
435 338 1
435 340 1
435 346 1
435 355 1
435 362 1
435 367 1
435 370 1
435 375 1
435 385 1
435 393 1
435 397 1
435 399 1
435 410 1
435 411 1
435 417 1
435 429 1
435 432 1
435 433 1
435 437 1
435 446 1
435 449 1
435 453 1
435 455 1
435 464 1
435 466 1
435 467 1
435 468 1
435 482 1
435 487 1
435 489 1
435 493 1
435 494 1
435 497 1
436 3 1
436 6 1
436 9 1
436 14 1
436 19 1
436 25 1
436 29 1
436 32 1
436 37 1
436 38 1
436 41 1
436 42 1
436 45 1
436 50 1
436 54 1
436 58 1
436 61 1
436 62 1
436 65 1
436 67 1
436 79 1
436 87 1
436 91 1
436 92 1
436 102 1
436 104 1
436 114 1
436 115 1
436 118 1
436 120 1
436 142 1
436 143 1
436 146 1
436 147 1
436 150 1
436 151 1
436 152 1
436 155 1
436 157 1
436 168 1
436 180 1
436 185 1
436 189 1
436 192 1
436 194 1
436 196 1
436 204 1
436 212 1
436 221 1
436 222 1
436 225 1
436 233 1
436 236 1
436 238 1
436 244 1
436 251 1
436 255 1
436 265 1
436 266 1
436 272 1
436 274 1
436 276 1
436 284 1
436 287 1
436 289 1
436 290 1
436 304 1
436 323 1
436 331 1
436 336 1
436 342 1
436 343 1
436 345 1
436 349 1
436 359 1
436 365 1
436 371 1
436 373 1
436 374 1
436 380 1
436 387 1
436 389 1
436 394 1
436 395 1
436 396 1
436 402 1
436 405 1
436 407 1
436 409 1
436 414 1
436 438 1
436 443 1
436 446 1
436 455 1
436 460 1
436 466 1
436 475 1
436 477 1
436 478 1
436 484 1
436 488 1
436 493 1
437 4 1
437 9 1
437 12 1
437 18 1
437 19 1
437 23 1
437 24 1
437 25 1
437 28 1
437 32 1
437 33 1
437 47 1
437 78 1
437 83 1
437 84 1
437 99 1
437 101 1
437 109 1
437 112 1
437 115 1
437 124 1
437 132 1
437 138 1
437 149 1
437 150 1
437 152 1
437 154 1
437 156 1
437 157 1
437 160 1
437 161 1
437 165 1
437 169 1
437 171 1
437 173 1
437 177 1
437 181 1
437 182 1
437 188 1
437 197 1
437 198 1
437 203 1
437 211 1
437 215 1
437 216 1
437 218 1
437 224 1
437 230 1
437 241 1
437 245 1
437 250 1
437 254 1
437 255 1
437 258 1
437 261 1
437 263 1
437 266 1
437 272 1
437 273 1
437 275 1
437 282 1
437 283 1
437 284 1
437 294 1
437 303 1
437 310 1
437 311 1
437 324 1
437 333 1
437 336 1
437 346 1
437 350 1
437 353 1
437 358 1
437 360 1
437 375 1
437 389 1
437 392 1
437 393 1
437 395 1
437 401 1
437 407 1
437 417 1
437 421 1
437 422 1
437 430 1
437 435 1
437 441 1
437 443 1
437 447 1
437 449 1
437 452 1
437 456 1
437 457 1
437 459 1
437 470 1
437 474 1
437 480 1
437 483 1
437 485 1
437 493 1
438 3 1
438 6 1
438 21 1
438 28 1
438 32 1
438 34 1
438 36 1
438 42 1
438 45 1
438 46 1
438 47 1
438 49 1
438 52 1
438 53 1
438 62 1
438 65 1
438 68 1
438 70 1
438 71 1
438 80 1
438 82 1
438 91 1
438 92 1
438 93 1
438 95 1
438 97 1
438 101 1
438 104 1
438 105 1
438 110 1
438 120 1
438 123 1
438 124 1
438 125 1
438 128 1
438 143 1
438 144 1
438 146 1
438 151 1
438 159 1
438 161 1
438 162 1
438 190 1
438 192 1
438 193 1
438 195 1
438 200 1
438 201 1
438 204 1
438 205 1
438 207 1
438 213 1
438 214 1
438 218 1
438 223 1
438 224 1
438 226 1
438 227 1
438 236 1
438 242 1
438 248 1
438 249 1
438 256 1
438 257 1
438 269 1
438 282 1
438 289 1
438 293 1
438 295 1
438 297 1
438 298 1
438 305 1
438 306 1
438 307 1
438 310 1
438 319 1
438 320 1
438 322 1
438 323 1
438 324 1
438 325 1
438 326 1
438 329 1
438 334 1
438 341 1
438 344 1
438 346 1
438 357 1
438 364 1
438 365 1
438 369 1
438 370 1
438 371 1
438 374 1
438 375 1
438 386 1
438 405 1
438 407 1
438 410 1
438 415 1
438 418 1
438 419 1
438 420 1
438 436 1
438 439 1
438 443 1
438 451 1
438 452 1
438 455 1
438 459 1
438 461 1
438 476 1
438 477 1
438 482 1
438 489 1
438 500 1
439 5 1
439 9 1
439 27 1
439 33 1
439 36 1
439 53 1
439 55 1
439 60 1
439 67 1
439 69 1
439 70 1
439 72 1
439 81 1
439 85 1
439 89 1
439 96 1
439 115 1
439 117 1
439 129 1
439 131 1
439 132 1
439 135 1
439 139 1
439 144 1
439 147 1
439 151 1
439 154 1
439 155 1
439 156 1
439 158 1
439 160 1
439 165 1
439 173 1
439 174 1
439 177 1
439 183 1
439 194 1
439 196 1
439 213 1
439 214 1
439 217 1
439 225 1
439 237 1
439 238 1
439 239 1
439 244 1
439 246 1
439 247 1
439 249 1
439 251 1
439 254 1
439 260 1
439 261 1
439 269 1
439 274 1
439 276 1
439 282 1
439 285 1
439 287 1
439 291 1
439 292 1
439 294 1
439 308 1
439 313 1
439 320 1
439 330 1
439 349 1
439 355 1
439 360 1
439 364 1
439 369 1
439 370 1
439 372 1
439 375 1
439 376 1
439 384 1
439 389 1
439 393 1
439 394 1
439 401 1
439 408 1
439 409 1
439 411 1
439 415 1
439 417 1
439 423 1
439 431 1
439 432 1
439 434 1
439 438 1
439 466 1
439 468 1
439 473 1
439 480 1
439 484 1
439 488 1
439 492 1
439 498 1
439 500 1
440 5 1
440 12 1
440 29 1
440 30 1
440 35 1
440 36 1
440 50 1
440 52 1
440 57 1
440 83 1
440 92 1
440 100 1
440 103 1
440 106 1
440 116 1
440 120 1
440 132 1
440 135 1
440 136 1
440 140 1
440 143 1
440 144 1
440 151 1
440 161 1
440 167 1
440 168 1
440 170 1
440 171 1
440 172 1
440 173 1
440 176 1
440 178 1
440 189 1
440 199 1
440 207 1
440 216 1
440 218 1
440 228 1
440 233 1
440 245 1
440 247 1
440 250 1
440 253 1
440 254 1
440 255 1
440 257 1
440 261 1
440 265 1
440 287 1
440 304 1
440 308 1
440 309 1
440 318 1
440 326 1
440 336 1
440 338 1
440 359 1
440 364 1
440 367 1
440 368 1
440 374 1
440 375 1
440 382 1
440 383 1
440 388 1
440 389 1
440 396 1
440 405 1
440 416 1
440 417 1
440 420 1
440 424 1
440 426 1
440 431 1
440 433 1
440 442 1
440 447 1
440 450 1
440 453 1
440 457 1
440 466 1
440 470 1
440 471 1
440 474 1
440 475 1
440 477 1
440 483 1
440 485 1
440 489 1
440 492 1
440 499 1
441 3 1
441 7 1
441 12 1
441 13 1
441 14 1
441 20 1
441 23 1
441 24 1
441 26 1
441 30 1
441 40 1
441 48 1
441 60 1
441 61 1
441 62 1
441 67 1
441 69 1
441 70 1
441 78 1
441 103 1
441 106 1
441 110 1
441 114 1
441 115 1
441 127 1
441 133 1
441 136 1
441 146 1
441 149 1
441 150 1
441 153 1
441 155 1
441 167 1
441 173 1
441 180 1
441 189 1
441 190 1
441 191 1
441 201 1
441 211 1
441 220 1
441 237 1
441 239 1
441 248 1
441 251 1
441 252 1
441 258 1
441 262 1
441 264 1
441 269 1
441 270 1
441 271 1
441 276 1
441 277 1
441 280 1
441 287 1
441 294 1
441 297 1
441 306 1
441 308 1
441 319 1
441 333 1
441 334 1
441 335 1
441 336 1
441 338 1
441 341 1
441 349 1
441 358 1
441 363 1
441 367 1
441 370 1
441 372 1
441 376 1
441 378 1
441 381 1
441 387 1
441 389 1
441 397 1
441 400 1
441 408 1
441 411 1
441 412 1
441 415 1
441 423 1
441 425 1
441 431 1
441 433 1
441 437 1
441 445 1
441 447 1
441 448 1
441 449 1
441 460 1
441 463 1
441 467 1
441 468 1
441 471 1
441 473 1
441 484 1
441 489 1
441 490 1
441 492 1
441 494 1
441 495 1
441 496 1
441 498 1
441 500 1
442 1 1
442 6 1
442 9 1
442 14 1
442 20 1
442 21 1
442 23 1
442 30 1
442 32 1
442 47 1
442 51 1
442 53 1
442 54 1
442 58 1
442 66 1
442 78 1
442 81 1
442 91 1
442 93 1
442 96 1
442 98 1
442 103 1
442 106 1
442 110 1
442 114 1
442 118 1
442 126 1
442 133 1
442 153 1
442 156 1
442 162 1
442 168 1
442 175 1
442 187 1
442 189 1
442 196 1
442 199 1
442 200 1
442 207 1
442 209 1
442 211 1
442 214 1
442 229 1
442 230 1
442 235 1
442 239 1
442 240 1
442 243 1
442 245 1
442 249 1
442 252 1
442 259 1
442 261 1
442 268 1
442 270 1
442 280 1
442 292 1
442 293 1
442 301 1
442 306 1
442 321 1
442 323 1
442 328 1
442 350 1
442 357 1
442 359 1
442 366 1
442 371 1
442 372 1
442 373 1
442 374 1
442 375 1
442 388 1
442 389 1
442 394 1
442 401 1
442 429 1
442 440 1
442 448 1
442 450 1
442 453 1
442 455 1
442 475 1
442 480 1
442 487 1
442 500 1
443 2 1
443 8 1
443 9 1
443 13 1
443 25 1
443 30 1
443 32 1
443 33 1
443 40 1
443 42 1
443 43 1
443 45 1
443 48 1
443 53 1
443 54 1
443 57 1
443 58 1
443 65 1
443 79 1
443 80 1
443 86 1
443 106 1
443 114 1
443 115 1
443 123 1
443 124 1
443 125 1
443 128 1
443 133 1
443 136 1
443 143 1
443 146 1
443 156 1
443 158 1
443 166 1
443 171 1
443 173 1
443 179 1
443 188 1
443 190 1
443 191 1
443 199 1
443 204 1
443 206 1
443 223 1
443 224 1
443 229 1
443 233 1
443 255 1
443 262 1
443 266 1
443 268 1
443 278 1
443 280 1
443 306 1
443 309 1
443 311 1
443 314 1
443 318 1
443 320 1
443 321 1
443 322 1
443 325 1
443 335 1
443 336 1
443 339 1
443 340 1
443 351 1
443 355 1
443 357 1
443 367 1
443 372 1
443 373 1
443 378 1
443 383 1
443 390 1
443 393 1
443 407 1
443 410 1
443 418 1
443 422 1
443 424 1
443 425 1
443 431 1
443 436 1
443 437 1
443 438 1
443 446 1
443 451 1
443 456 1
443 459 1
443 462 1
443 463 1
443 476 1
443 478 1
443 482 1
443 488 1
444 7 1
444 11 1
444 13 1
444 19 1
444 20 1
444 23 1
444 27 1
444 33 1
444 38 1
444 42 1
444 46 1
444 54 1
444 62 1
444 64 1
444 78 1
444 82 1
444 97 1
444 101 1
444 110 1
444 118 1
444 122 1
444 128 1
444 129 1
444 145 1
444 147 1
444 149 1
444 150 1
444 162 1
444 167 1
444 169 1
444 170 1
444 177 1
444 182 1
444 185 1
444 205 1
444 208 1
444 210 1
444 211 1
444 212 1
444 226 1
444 230 1
444 245 1
444 246 1
444 247 1
444 248 1
444 266 1
444 268 1
444 270 1
444 282 1
444 283 1
444 298 1
444 305 1
444 308 1
444 309 1
444 313 1
444 320 1
444 330 1
444 340 1
444 344 1
444 347 1
444 357 1
444 363 1
444 365 1
444 366 1
444 369 1
444 378 1
444 379 1
444 381 1
444 386 1
444 389 1
444 396 1
444 403 1
444 406 1
444 407 1
444 408 1
444 413 1
444 417 1
444 418 1
444 422 1
444 428 1
444 432 1
444 450 1
444 456 1
444 462 1
444 474 1
444 482 1
444 486 1
444 487 1
444 488 1
445 16 1
445 22 1
445 23 1
445 28 1
445 31 1
445 34 1
445 38 1
445 41 1
445 57 1
445 59 1
445 61 1
445 66 1
445 84 1
445 87 1
445 91 1
445 98 1
445 101 1
445 106 1
445 107 1
445 110 1
445 114 1
445 118 1
445 127 1
445 130 1
445 133 1
445 136 1
445 140 1
445 142 1
445 143 1
445 151 1
445 153 1
445 156 1
445 157 1
445 162 1
445 164 1
445 166 1
445 168 1
445 169 1
445 176 1
445 178 1
445 179 1
445 182 1
445 192 1
445 195 1
445 207 1
445 208 1
445 209 1
445 211 1
445 220 1
445 221 1
445 227 1
445 229 1
445 231 1
445 237 1
445 240 1
445 244 1
445 251 1
445 257 1
445 264 1
445 266 1
445 271 1
445 283 1
445 285 1
445 286 1
445 287 1
445 295 1
445 297 1
445 299 1
445 306 1
445 310 1
445 311 1
445 330 1
445 334 1
445 336 1
445 341 1
445 345 1
445 346 1
445 348 1
445 366 1
445 369 1
445 372 1
445 374 1
445 375 1
445 377 1
445 379 1
445 381 1
445 382 1
445 384 1
445 386 1
445 387 1
445 388 1
445 391 1
445 393 1
445 416 1
445 420 1
445 431 1
445 432 1
445 433 1
445 441 1
445 447 1
445 453 1
445 460 1
445 465 1
445 469 1
445 471 1
445 476 1
445 477 1
445 484 1
445 485 1
445 492 1
445 493 1
445 496 1
446 1 1
446 8 1
446 9 1
446 17 1
446 22 1
446 35 1
446 40 1
446 48 1
446 51 1
446 55 1
446 60 1
446 63 1
446 69 1
446 73 1
446 77 1
446 80 1
446 82 1
446 86 1
446 91 1
446 102 1
446 105 1
446 110 1
446 117 1
446 121 1
446 129 1
446 134 1
446 138 1
446 140 1
446 141 1
446 143 1
446 153 1
446 155 1
446 158 1
446 164 1
446 166 1
446 171 1
446 180 1
446 183 1
446 194 1
446 201 1
446 203 1
446 209 1
446 211 1
446 212 1
446 213 1
446 214 1
446 216 1
446 219 1
446 220 1
446 221 1
446 222 1
446 225 1
446 233 1
446 235 1
446 253 1
446 256 1
446 260 1
446 271 1
446 277 1
446 280 1
446 282 1
446 298 1
446 305 1
446 307 1
446 312 1
446 316 1
446 326 1
446 327 1
446 336 1
446 339 1
446 346 1
446 351 1
446 362 1
446 366 1
446 369 1
446 372 1
446 375 1
446 377 1
446 386 1
446 388 1
446 389 1
446 393 1
446 400 1
446 404 1
446 409 1
446 410 1
446 414 1
446 420 1
446 421 1
446 424 1
446 428 1
446 432 1
446 434 1
446 435 1
446 436 1
446 443 1
446 451 1
446 456 1
446 464 1
446 469 1
446 470 1
446 475 1
446 478 1
446 499 1
447 3 1
447 10 1
447 15 1
447 22 1
447 43 1
447 51 1
447 53 1
447 55 1
447 60 1
447 61 1
447 65 1
447 70 1
447 73 1
447 88 1
447 91 1
447 95 1
447 96 1
447 104 1
447 105 1
447 121 1
447 123 1
447 124 1
447 125 1
447 126 1
447 139 1
447 141 1
447 148 1
447 149 1
447 155 1
447 158 1
447 159 1
447 176 1
447 178 1
447 181 1
447 187 1
447 189 1
447 191 1
447 193 1
447 198 1
447 207 1
447 210 1
447 218 1
447 223 1
447 225 1
447 227 1
447 232 1
447 241 1
447 243 1
447 251 1
447 258 1
447 264 1
447 267 1
447 273 1
447 278 1
447 282 1
447 300 1
447 306 1
447 308 1
447 310 1
447 314 1
447 318 1
447 319 1
447 327 1
447 330 1
447 333 1
447 344 1
447 345 1
447 347 1
447 350 1
447 352 1
447 361 1
447 371 1
447 380 1
447 388 1
447 390 1
447 391 1
447 404 1
447 410 1
447 416 1
447 421 1
447 427 1
447 431 1
447 434 1
447 437 1
447 440 1
447 441 1
447 445 1
447 457 1
447 462 1
447 463 1
447 464 1
447 465 1
447 473 1
447 474 1
447 475 1
447 476 1
447 485 1
447 486 1
447 487 1
447 489 1
447 496 1
447 499 1
448 1 1
448 6 1
448 10 1
448 11 1
448 22 1
448 23 1
448 26 1
448 27 1
448 28 1
448 31 1
448 33 1
448 38 1
448 42 1
448 49 1
448 53 1
448 55 1
448 62 1
448 70 1
448 71 1
448 72 1
448 73 1
448 75 1
448 76 1
448 77 1
448 78 1
448 83 1
448 87 1
448 89 1
448 91 1
448 101 1
448 105 1
448 106 1
448 107 1
448 112 1
448 113 1
448 114 1
448 117 1
448 118 1
448 122 1
448 135 1
448 137 1
448 140 1
448 147 1
448 152 1
448 153 1
448 154 1
448 155 1
448 158 1
448 178 1
448 179 1
448 194 1
448 199 1
448 203 1
448 204 1
448 210 1
448 211 1
448 215 1
448 220 1
448 224 1
448 225 1
448 227 1
448 228 1
448 229 1
448 230 1
448 234 1
448 246 1
448 249 1
448 250 1
448 255 1
448 259 1
448 262 1
448 263 1
448 264 1
448 266 1
448 270 1
448 276 1
448 278 1
448 280 1
448 283 1
448 288 1
448 291 1
448 292 1
448 299 1
448 302 1
448 303 1
448 306 1
448 307 1
448 309 1
448 310 1
448 315 1
448 316 1
448 319 1
448 323 1
448 335 1
448 339 1
448 345 1
448 351 1
448 352 1
448 353 1
448 355 1
448 357 1
448 359 1
448 366 1
448 367 1
448 369 1
448 372 1
448 374 1
448 376 1
448 384 1
448 386 1
448 388 1
448 392 1
448 395 1
448 402 1
448 421 1
448 432 1
448 441 1
448 442 1
448 451 1
448 455 1
448 457 1
448 466 1
448 483 1
448 498 1
449 5 1
449 12 1
449 28 1
449 31 1
449 38 1
449 39 1
449 46 1
449 53 1
449 59 1
449 62 1
449 65 1
449 73 1
449 96 1
449 98 1
449 100 1
449 106 1
449 111 1
449 113 1
449 118 1
449 132 1
449 135 1
449 137 1
449 138 1
449 140 1
449 144 1
449 157 1
449 160 1
449 165 1
449 167 1
449 168 1
449 173 1
449 174 1
449 176 1
449 186 1
449 199 1
449 208 1
449 213 1
449 219 1
449 235 1
449 238 1
449 241 1
449 247 1
449 250 1
449 253 1
449 263 1
449 268 1
449 271 1
449 272 1
449 281 1
449 283 1
449 288 1
449 302 1
449 303 1
449 308 1
449 314 1
449 323 1
449 328 1
449 335 1
449 347 1
449 349 1
449 353 1
449 359 1
449 372 1
449 376 1
449 379 1
449 381 1
449 382 1
449 388 1
449 391 1
449 401 1
449 407 1
449 409 1
449 412 1
449 416 1
449 418 1
449 424 1
449 432 1
449 434 1
449 435 1
449 437 1
449 441 1
449 450 1
449 458 1
449 472 1
449 482 1
449 484 1
449 488 1
449 490 1
449 492 1
449 495 1
449 499 1
449 500 1
450 4 1
450 6 1
450 8 1
450 12 1
450 17 1
450 38 1
450 40 1
450 43 1
450 51 1
450 59 1
450 60 1
450 66 1
450 67 1
450 71 1
450 76 1
450 79 1
450 82 1
450 83 1
450 86 1
450 87 1
450 88 1
450 89 1
450 96 1
450 97 1
450 100 1
450 102 1
450 104 1
450 108 1
450 109 1
450 110 1
450 118 1
450 119 1
450 121 1
450 122 1
450 138 1
450 140 1
450 149 1
450 151 1
450 152 1
450 161 1
450 163 1
450 168 1
450 172 1
450 180 1
450 194 1
450 202 1
450 206 1
450 207 1
450 209 1
450 212 1
450 214 1
450 216 1
450 217 1
450 218 1
450 227 1
450 228 1
450 229 1
450 230 1
450 234 1
450 245 1
450 256 1
450 260 1
450 267 1
450 271 1
450 281 1
450 284 1
450 287 1
450 292 1
450 295 1
450 296 1
450 297 1
450 298 1
450 302 1
450 304 1
450 309 1
450 317 1
450 320 1
450 321 1
450 326 1
450 332 1
450 341 1
450 345 1
450 349 1
450 356 1
450 357 1
450 364 1
450 365 1
450 381 1
450 390 1
450 395 1
450 400 1
450 408 1
450 411 1
450 419 1
450 423 1
450 427 1
450 433 1
450 440 1
450 442 1
450 444 1
450 449 1
450 452 1
450 462 1
450 465 1
450 469 1
450 472 1
450 475 1
450 485 1
450 487 1
450 488 1
450 493 1
450 494 1
450 497 1
450 498 1
451 2 1
451 10 1
451 11 1
451 15 1
451 18 1
451 20 1
451 44 1
451 45 1
451 47 1
451 51 1
451 56 1
451 66 1
451 81 1
451 83 1
451 84 1
451 85 1
451 88 1
451 96 1
451 109 1
451 110 1
451 124 1
451 128 1
451 131 1
451 149 1
451 157 1
451 158 1
451 161 1
451 175 1
451 187 1
451 196 1
451 199 1
451 202 1
451 211 1
451 216 1
451 227 1
451 234 1
451 237 1
451 240 1
451 247 1
451 250 1
451 263 1
451 266 1
451 268 1
451 274 1
451 282 1
451 287 1
451 289 1
451 290 1
451 294 1
451 298 1
451 301 1
451 306 1
451 309 1
451 312 1
451 313 1
451 314 1
451 315 1
451 316 1
451 324 1
451 330 1
451 334 1
451 336 1
451 340 1
451 342 1
451 343 1
451 346 1
451 354 1
451 358 1
451 360 1
451 363 1
451 369 1
451 375 1
451 383 1
451 385 1
451 388 1
451 392 1
451 396 1
451 397 1
451 401 1
451 405 1
451 407 1
451 409 1
451 410 1
451 412 1
451 415 1
451 416 1
451 418 1
451 426 1
451 430 1
451 438 1
451 443 1
451 446 1
451 448 1
451 452 1
451 456 1
451 462 1
451 469 1
451 475 1
451 478 1
451 480 1
451 487 1
451 488 1
451 490 1
451 493 1
451 498 1
452 7 1
452 16 1
452 20 1
452 26 1
452 27 1
452 29 1
452 33 1
452 43 1
452 44 1
452 51 1
452 59 1
452 64 1
452 66 1
452 72 1
452 78 1
452 79 1
452 86 1
452 87 1
452 89 1
452 94 1
452 97 1
452 105 1
452 110 1
452 111 1
452 117 1
452 119 1
452 120 1
452 128 1
452 135 1
452 141 1
452 145 1
452 146 1
452 149 1
452 153 1
452 155 1
452 156 1
452 162 1
452 166 1
452 168 1
452 177 1
452 183 1
452 186 1
452 187 1
452 191 1
452 193 1
452 201 1
452 202 1
452 203 1
452 204 1
452 222 1
452 225 1
452 226 1
452 228 1
452 229 1
452 231 1
452 236 1
452 242 1
452 255 1
452 256 1
452 258 1
452 279 1
452 280 1
452 291 1
452 293 1
452 294 1
452 310 1
452 312 1
452 326 1
452 329 1
452 333 1
452 335 1
452 341 1
452 344 1
452 345 1
452 350 1
452 352 1
452 357 1
452 359 1
452 368 1
452 370 1
452 371 1
452 381 1
452 384 1
452 385 1
452 386 1
452 391 1
452 396 1
452 400 1
452 409 1
452 412 1
452 417 1
452 431 1
452 437 1
452 438 1
452 450 1
452 451 1
452 459 1
452 463 1
452 464 1
452 467 1
452 476 1
452 477 1
452 480 1
452 483 1
452 486 1
452 487 1
452 493 1
453 6 1
453 11 1
453 18 1
453 19 1
453 25 1
453 28 1
453 31 1
453 42 1
453 52 1
453 59 1
453 77 1
453 81 1
453 87 1
453 91 1
453 94 1
453 101 1
453 106 1
453 117 1
453 119 1
453 122 1
453 125 1
453 134 1
453 142 1
453 144 1
453 168 1
453 173 1
453 179 1
453 182 1
453 196 1
453 203 1
453 211 1
453 217 1
453 219 1
453 222 1
453 233 1
453 239 1
453 259 1
453 261 1
453 264 1
453 267 1
453 272 1
453 273 1
453 274 1
453 280 1
453 304 1
453 305 1
453 307 1
453 316 1
453 324 1
453 332 1
453 343 1
453 347 1
453 361 1
453 366 1
453 368 1
453 370 1
453 375 1
453 376 1
453 389 1
453 393 1
453 398 1
453 403 1
453 404 1
453 423 1
453 424 1
453 425 1
453 432 1
453 435 1
453 440 1
453 442 1
453 445 1
453 455 1
453 456 1
453 466 1
453 467 1
453 482 1
453 487 1
453 492 1
454 10 1
454 19 1
454 20 1
454 32 1
454 34 1
454 35 1
454 40 1
454 44 1
454 47 1
454 48 1
454 51 1
454 52 1
454 60 1
454 62 1
454 68 1
454 76 1
454 80 1
454 88 1
454 98 1
454 102 1
454 109 1
454 111 1
454 112 1
454 114 1
454 115 1
454 116 1
454 121 1
454 123 1
454 124 1
454 129 1
454 136 1
454 146 1
454 147 1
454 148 1
454 153 1
454 156 1
454 159 1
454 170 1
454 171 1
454 176 1
454 191 1
454 192 1
454 193 1
454 196 1
454 199 1
454 200 1
454 202 1
454 212 1
454 224 1
454 229 1
454 230 1
454 231 1
454 232 1
454 233 1
454 237 1
454 252 1
454 258 1
454 262 1
454 267 1
454 278 1
454 281 1
454 288 1
454 291 1
454 298 1
454 299 1
454 303 1
454 305 1
454 306 1
454 310 1
454 313 1
454 321 1
454 328 1
454 332 1
454 333 1
454 337 1
454 339 1
454 344 1
454 347 1
454 348 1
454 352 1
454 353 1
454 359 1
454 362 1
454 363 1
454 365 1
454 372 1
454 379 1
454 382 1
454 385 1
454 391 1
454 398 1
454 403 1
454 411 1
454 416 1
454 419 1
454 430 1
454 455 1
454 473 1
454 476 1
454 477 1
454 483 1
454 489 1
454 500 1
455 5 1
455 7 1
455 17 1
455 21 1
455 28 1
455 42 1
455 53 1
455 55 1
455 66 1
455 69 1
455 70 1
455 73 1
455 76 1
455 79 1
455 103 1
455 120 1
455 121 1
455 123 1
455 132 1
455 142 1
455 159 1
455 163 1
455 165 1
455 167 1
455 172 1
455 176 1
455 187 1
455 188 1
455 195 1
455 201 1
455 205 1
455 207 1
455 211 1
455 214 1
455 221 1
455 229 1
455 232 1
455 234 1
455 237 1
455 246 1
455 247 1
455 253 1
455 254 1
455 263 1
455 264 1
455 265 1
455 269 1
455 281 1
455 299 1
455 332 1
455 333 1
455 334 1
455 335 1
455 337 1
455 344 1
455 351 1
455 366 1
455 369 1
455 375 1
455 379 1
455 386 1
455 387 1
455 388 1
455 401 1
455 403 1
455 410 1
455 413 1
455 416 1
455 427 1
455 431 1
455 432 1
455 435 1
455 436 1
455 438 1
455 442 1
455 448 1
455 453 1
455 454 1
455 464 1
455 468 1
455 474 1
455 475 1
455 481 1
455 482 1
455 484 1
455 486 1
455 488 1
455 492 1
455 494 1
455 495 1
456 9 1
456 12 1
456 19 1
456 22 1
456 25 1
456 46 1
456 49 1
456 51 1
456 57 1
456 62 1
456 67 1
456 68 1
456 73 1
456 74 1
456 77 1
456 79 1
456 80 1
456 81 1
456 85 1
456 89 1
456 105 1
456 107 1
456 109 1
456 116 1
456 117 1
456 119 1
456 121 1
456 124 1
456 125 1
456 136 1
456 137 1
456 138 1
456 145 1
456 150 1
456 153 1
456 154 1
456 158 1
456 162 1
456 170 1
456 173 1
456 179 1
456 184 1
456 188 1
456 190 1
456 192 1
456 197 1
456 201 1
456 202 1
456 205 1
456 207 1
456 211 1
456 212 1
456 219 1
456 223 1
456 238 1
456 242 1
456 248 1
456 254 1
456 262 1
456 264 1
456 272 1
456 274 1
456 280 1
456 291 1
456 301 1
456 302 1
456 304 1
456 307 1
456 312 1
456 313 1
456 315 1
456 318 1
456 329 1
456 341 1
456 342 1
456 351 1
456 358 1
456 364 1
456 392 1
456 394 1
456 406 1
456 409 1
456 416 1
456 417 1
456 419 1
456 428 1
456 437 1
456 443 1
456 444 1
456 446 1
456 451 1
456 453 1
456 458 1
456 463 1
456 469 1
456 476 1
456 480 1
456 482 1
456 489 1
456 490 1
456 492 1
456 493 1
456 495 1
456 498 1
456 499 1
457 9 1
457 14 1
457 15 1
457 22 1
457 25 1
457 34 1
457 36 1
457 37 1
457 41 1
457 42 1
457 54 1
457 56 1
457 61 1
457 72 1
457 88 1
457 102 1
457 104 1
457 105 1
457 111 1
457 112 1
457 113 1
457 118 1
457 119 1
457 125 1
457 127 1
457 134 1
457 137 1
457 141 1
457 143 1
457 144 1
457 146 1
457 162 1
457 165 1
457 178 1
457 181 1
457 186 1
457 187 1
457 197 1
457 201 1
457 209 1
457 210 1
457 213 1
457 220 1
457 221 1
457 229 1
457 245 1
457 262 1
457 266 1
457 269 1
457 281 1
457 283 1
457 287 1
457 293 1
457 295 1
457 302 1
457 303 1
457 304 1
457 305 1
457 306 1
457 313 1
457 336 1
457 339 1
457 344 1
457 351 1
457 353 1
457 355 1
457 357 1
457 358 1
457 361 1
457 364 1
457 366 1
457 367 1
457 377 1
457 378 1
457 385 1
457 386 1
457 388 1
457 393 1
457 395 1
457 396 1
457 400 1
457 407 1
457 410 1
457 420 1
457 427 1
457 429 1
457 432 1
457 434 1
457 437 1
457 440 1
457 447 1
457 448 1
457 463 1
457 464 1
457 465 1
457 472 1
457 476 1
457 478 1
457 483 1
457 487 1
457 489 1
457 490 1
457 496 1
458 4 1
458 13 1
458 14 1
458 15 1
458 34 1
458 51 1
458 54 1
458 56 1
458 57 1
458 65 1
458 66 1
458 75 1
458 100 1
458 103 1
458 121 1
458 125 1
458 130 1
458 132 1
458 138 1
458 149 1
458 166 1
458 167 1
458 172 1
458 178 1
458 182 1
458 187 1
458 189 1
458 190 1
458 193 1
458 198 1
458 199 1
458 207 1
458 209 1
458 219 1
458 221 1
458 224 1
458 228 1
458 231 1
458 244 1
458 250 1
458 263 1
458 270 1
458 271 1
458 277 1
458 280 1
458 283 1
458 286 1
458 287 1
458 290 1
458 299 1
458 308 1
458 309 1
458 316 1
458 323 1
458 332 1
458 333 1
458 341 1
458 343 1
458 344 1
458 349 1
458 351 1
458 352 1
458 358 1
458 388 1
458 398 1
458 401 1
458 403 1
458 404 1
458 411 1
458 421 1
458 425 1
458 429 1
458 449 1
458 456 1
458 471 1
458 473 1
458 474 1
458 476 1
458 478 1
458 480 1
458 490 1
458 491 1
458 493 1
459 17 1
459 27 1
459 31 1
459 34 1
459 36 1
459 38 1
459 43 1
459 46 1
459 56 1
459 61 1
459 63 1
459 64 1
459 67 1
459 70 1
459 73 1
459 76 1
459 86 1
459 88 1
459 90 1
459 92 1
459 96 1
459 101 1
459 102 1
459 104 1
459 107 1
459 109 1
459 114 1
459 115 1
459 126 1
459 127 1
459 129 1
459 135 1
459 138 1
459 139 1
459 142 1
459 159 1
459 160 1
459 162 1
459 176 1
459 177 1
459 179 1
459 185 1
459 186 1
459 191 1
459 194 1
459 195 1
459 196 1
459 197 1
459 204 1
459 211 1
459 215 1
459 218 1
459 225 1
459 230 1
459 232 1
459 241 1
459 259 1
459 265 1
459 276 1
459 295 1
459 297 1
459 299 1
459 305 1
459 306 1
459 313 1
459 318 1
459 329 1
459 333 1
459 336 1
459 337 1
459 338 1
459 340 1
459 343 1
459 354 1
459 357 1
459 358 1
459 360 1
459 361 1
459 379 1
459 392 1
459 394 1
459 401 1
459 402 1
459 410 1
459 411 1
459 420 1
459 437 1
459 438 1
459 443 1
459 452 1
459 463 1
459 464 1
459 473 1
459 476 1
459 477 1
459 496 1
459 497 1
459 498 1
460 9 1
460 27 1
460 28 1
460 29 1
460 42 1
460 49 1
460 54 1
460 56 1
460 75 1
460 79 1
460 87 1
460 88 1
460 89 1
460 93 1
460 102 1
460 103 1
460 113 1
460 114 1
460 117 1
460 118 1
460 121 1
460 134 1
460 138 1
460 139 1
460 151 1
460 156 1
460 157 1
460 163 1
460 166 1
460 170 1
460 171 1
460 173 1
460 179 1
460 180 1
460 181 1
460 186 1
460 187 1
460 197 1
460 203 1
460 204 1
460 205 1
460 208 1
460 215 1
460 219 1
460 220 1
460 222 1
460 223 1
460 227 1
460 233 1
460 234 1
460 240 1
460 252 1
460 254 1
460 256 1
460 257 1
460 259 1
460 263 1
460 264 1
460 273 1
460 279 1
460 282 1
460 285 1
460 286 1
460 288 1
460 294 1
460 299 1
460 302 1
460 304 1
460 307 1
460 308 1
460 309 1
460 336 1
460 344 1
460 348 1
460 352 1
460 358 1
460 368 1
460 377 1
460 379 1
460 382 1
460 385 1
460 389 1
460 404 1
460 405 1
460 406 1
460 413 1
460 414 1
460 436 1
460 441 1
460 445 1
460 465 1
460 468 1
460 470 1
460 471 1
460 474 1
460 482 1
460 486 1
460 493 1
460 497 1
460 500 1
461 1 1
461 4 1
461 8 1
461 27 1
461 28 1
461 31 1
461 34 1
461 35 1
461 37 1
461 42 1
461 51 1
461 53 1
461 57 1
461 58 1
461 65 1
461 68 1
461 86 1
461 89 1
461 91 1
461 94 1
461 96 1
461 98 1
461 102 1
461 121 1
461 135 1
461 147 1
461 153 1
461 160 1
461 170 1
461 172 1
461 176 1
461 180 1
461 181 1
461 184 1
461 189 1
461 193 1
461 194 1
461 195 1
461 201 1
461 210 1
461 212 1
461 215 1
461 223 1
461 230 1
461 236 1
461 237 1
461 240 1
461 253 1
461 260 1
461 264 1
461 268 1
461 269 1
461 278 1
461 280 1
461 285 1
461 287 1
461 289 1
461 293 1
461 299 1
461 305 1
461 314 1
461 318 1
461 322 1
461 331 1
461 332 1
461 339 1
461 349 1
461 361 1
461 364 1
461 367 1
461 370 1
461 377 1
461 381 1
461 383 1
461 384 1
461 385 1
461 389 1
461 401 1
461 408 1
461 414 1
461 421 1
461 423 1
461 433 1
461 438 1
461 465 1
461 467 1
461 469 1
461 470 1
461 472 1
461 473 1
461 482 1
461 489 1
461 490 1
461 491 1
462 7 1
462 22 1
462 25 1
462 32 1
462 35 1
462 50 1
462 51 1
462 62 1
462 64 1
462 66 1
462 70 1
462 75 1
462 100 1
462 106 1
462 116 1
462 117 1
462 120 1
462 131 1
462 158 1
462 165 1
462 170 1
462 177 1
462 178 1
462 182 1
462 186 1
462 187 1
462 190 1
462 195 1
462 197 1
462 205 1
462 208 1
462 209 1
462 215 1
462 218 1
462 219 1
462 222 1
462 223 1
462 225 1
462 239 1
462 242 1
462 250 1
462 254 1
462 256 1
462 257 1
462 258 1
462 274 1
462 278 1
462 282 1
462 286 1
462 290 1
462 291 1
462 292 1
462 313 1
462 322 1
462 325 1
462 326 1
462 327 1
462 328 1
462 334 1
462 345 1
462 349 1
462 351 1
462 357 1
462 360 1
462 361 1
462 370 1
462 390 1
462 391 1
462 393 1
462 399 1
462 402 1
462 403 1
462 413 1
462 418 1
462 421 1
462 423 1
462 425 1
462 428 1
462 431 1
462 443 1
462 444 1
462 447 1
462 450 1
462 451 1
462 472 1
462 473 1
462 475 1
462 478 1
462 482 1
462 489 1
462 490 1
462 491 1
462 492 1
462 499 1
463 2 1
463 8 1
463 9 1
463 11 1
463 14 1
463 18 1
463 29 1
463 30 1
463 37 1
463 38 1
463 43 1
463 44 1
463 51 1
463 59 1
463 60 1
463 63 1
463 64 1
463 69 1
463 74 1
463 83 1
463 100 1
463 104 1
463 111 1
463 113 1
463 118 1
463 119 1
463 121 1
463 124 1
463 133 1
463 139 1
463 144 1
463 148 1
463 157 1
463 158 1
463 159 1
463 163 1
463 167 1
463 168 1
463 170 1
463 187 1
463 191 1
463 201 1
463 205 1
463 206 1
463 214 1
463 220 1
463 237 1
463 238 1
463 248 1
463 260 1
463 261 1
463 270 1
463 271 1
463 272 1
463 273 1
463 276 1
463 278 1
463 284 1
463 288 1
463 298 1
463 300 1
463 307 1
463 312 1
463 313 1
463 318 1
463 320 1
463 323 1
463 327 1
463 328 1
463 331 1
463 333 1
463 335 1
463 341 1
463 346 1
463 347 1
463 350 1
463 359 1
463 374 1
463 390 1
463 391 1
463 392 1
463 397 1
463 400 1
463 402 1
463 416 1
463 417 1
463 420 1
463 428 1
463 431 1
463 432 1
463 434 1
463 441 1
463 443 1
463 447 1
463 452 1
463 456 1
463 457 1
463 459 1
463 465 1
463 469 1
463 470 1
463 474 1
463 475 1
463 479 1
463 481 1
463 484 1
463 486 1
463 487 1
463 489 1
463 497 1
463 499 1
464 4 1
464 7 1
464 8 1
464 20 1
464 22 1
464 43 1
464 68 1
464 71 1
464 75 1
464 78 1
464 84 1
464 87 1
464 88 1
464 91 1
464 106 1
464 109 1
464 117 1
464 122 1
464 126 1
464 128 1
464 136 1
464 141 1
464 143 1
464 170 1
464 175 1
464 176 1
464 177 1
464 188 1
464 196 1
464 197 1
464 211 1
464 212 1
464 213 1
464 219 1
464 234 1
464 235 1
464 238 1
464 240 1
464 242 1
464 265 1
464 267 1
464 268 1
464 281 1
464 287 1
464 288 1
464 302 1
464 315 1
464 318 1
464 327 1
464 330 1
464 356 1
464 359 1
464 360 1
464 370 1
464 373 1
464 377 1
464 378 1
464 401 1
464 404 1
464 405 1
464 430 1
464 435 1
464 446 1
464 447 1
464 452 1
464 455 1
464 457 1
464 459 1
464 465 1
464 470 1
464 474 1
464 497 1
465 1 1
465 26 1
465 49 1
465 58 1
465 65 1
465 73 1
465 74 1
465 86 1
465 89 1
465 91 1
465 92 1
465 93 1
465 102 1
465 104 1
465 107 1
465 108 1
465 113 1
465 122 1
465 134 1
465 135 1
465 136 1
465 138 1
465 159 1
465 163 1
465 164 1
465 171 1
465 178 1
465 185 1
465 189 1
465 190 1
465 205 1
465 210 1
465 211 1
465 223 1
465 250 1
465 257 1
465 260 1
465 265 1
465 274 1
465 275 1
465 283 1
465 288 1
465 289 1
465 292 1
465 293 1
465 299 1
465 300 1
465 305 1
465 314 1
465 318 1
465 324 1
465 328 1
465 329 1
465 330 1
465 337 1
465 340 1
465 349 1
465 351 1
465 355 1
465 359 1
465 361 1
465 364 1
465 372 1
465 375 1
465 382 1
465 386 1
465 391 1
465 394 1
465 398 1
465 401 1
465 403 1
465 407 1
465 418 1
465 421 1
465 423 1
465 426 1
465 445 1
465 447 1
465 450 1
465 457 1
465 460 1
465 461 1
465 463 1
465 464 1
465 487 1
465 489 1
465 495 1
466 6 1
466 7 1
466 8 1
466 11 1
466 15 1
466 17 1
466 25 1
466 32 1
466 34 1
466 37 1
466 38 1
466 40 1
466 41 1
466 47 1
466 54 1
466 60 1
466 62 1
466 65 1
466 71 1
466 76 1
466 79 1
466 82 1
466 86 1
466 91 1
466 94 1
466 104 1
466 105 1
466 110 1
466 112 1
466 117 1
466 119 1
466 120 1
466 126 1
466 131 1
466 133 1
466 135 1
466 139 1
466 149 1
466 150 1
466 151 1
466 161 1
466 165 1
466 166 1
466 169 1
466 170 1
466 172 1
466 173 1
466 175 1
466 177 1
466 178 1
466 182 1
466 186 1
466 202 1
466 205 1
466 208 1
466 211 1
466 212 1
466 213 1
466 215 1
466 224 1
466 226 1
466 227 1
466 233 1
466 236 1
466 237 1
466 240 1
466 242 1
466 252 1
466 262 1
466 263 1
466 270 1
466 275 1
466 279 1
466 287 1
466 289 1
466 293 1
466 301 1
466 302 1
466 313 1
466 314 1
466 319 1
466 320 1
466 324 1
466 326 1
466 327 1
466 332 1
466 336 1
466 338 1
466 348 1
466 350 1
466 351 1
466 353 1
466 355 1
466 356 1
466 362 1
466 363 1
466 364 1
466 365 1
466 366 1
466 369 1
466 372 1
466 373 1
466 375 1
466 376 1
466 379 1
466 386 1
466 389 1
466 391 1
466 406 1
466 428 1
466 431 1
466 432 1
466 434 1
466 435 1
466 436 1
466 439 1
466 440 1
466 448 1
466 453 1
466 470 1
466 473 1
466 481 1
466 498 1
466 500 1
467 4 1
467 13 1
467 15 1
467 17 1
467 25 1
467 26 1
467 30 1
467 32 1
467 47 1
467 50 1
467 53 1
467 56 1
467 71 1
467 79 1
467 81 1
467 84 1
467 91 1
467 97 1
467 101 1
467 113 1
467 114 1
467 117 1
467 123 1
467 128 1
467 129 1
467 136 1
467 138 1
467 139 1
467 141 1
467 143 1
467 151 1
467 154 1
467 155 1
467 158 1
467 163 1
467 167 1
467 172 1
467 176 1
467 183 1
467 189 1
467 191 1
467 205 1
467 206 1
467 209 1
467 211 1
467 212 1
467 214 1
467 240 1
467 251 1
467 252 1
467 253 1
467 269 1
467 270 1
467 271 1
467 273 1
467 275 1
467 279 1
467 280 1
467 283 1
467 284 1
467 287 1
467 288 1
467 291 1
467 292 1
467 298 1
467 300 1
467 310 1
467 311 1
467 314 1
467 316 1
467 321 1
467 328 1
467 332 1
467 338 1
467 351 1
467 352 1
467 354 1
467 357 1
467 370 1
467 394 1
467 403 1
467 404 1
467 408 1
467 413 1
467 416 1
467 421 1
467 427 1
467 429 1
467 430 1
467 431 1
467 435 1
467 441 1
467 452 1
467 453 1
467 461 1
467 477 1
467 481 1
467 492 1
467 497 1
468 2 1
468 14 1
468 16 1
468 20 1
468 21 1
468 34 1
468 51 1
468 52 1
468 57 1
468 67 1
468 68 1
468 74 1
468 78 1
468 82 1
468 84 1
468 85 1
468 86 1
468 87 1
468 89 1
468 108 1
468 110 1
468 114 1
468 124 1
468 140 1
468 149 1
468 151 1
468 155 1
468 157 1
468 163 1
468 164 1
468 165 1
468 176 1
468 195 1
468 200 1
468 204 1
468 213 1
468 218 1
468 252 1
468 260 1
468 261 1
468 281 1
468 283 1
468 295 1
468 299 1
468 300 1
468 304 1
468 309 1
468 315 1
468 316 1
468 317 1
468 319 1
468 321 1
468 324 1
468 326 1
468 328 1
468 330 1
468 332 1
468 339 1
468 347 1
468 351 1
468 353 1
468 355 1
468 360 1
468 363 1
468 371 1
468 382 1
468 384 1
468 390 1
468 391 1
468 396 1
468 397 1
468 403 1
468 411 1
468 413 1
468 421 1
468 431 1
468 435 1
468 439 1
468 441 1
468 455 1
468 460 1
468 470 1
468 471 1
468 472 1
468 474 1
468 476 1
468 480 1
468 486 1
468 500 1
469 4 1
469 6 1
469 13 1
469 19 1
469 37 1
469 46 1
469 53 1
469 61 1
469 66 1
469 69 1
469 70 1
469 79 1
469 81 1
469 88 1
469 90 1
469 109 1
469 112 1
469 116 1
469 119 1
469 121 1
469 129 1
469 137 1
469 141 1
469 150 1
469 156 1
469 161 1
469 162 1
469 165 1
469 166 1
469 169 1
469 174 1
469 176 1
469 181 1
469 187 1
469 188 1
469 197 1
469 203 1
469 229 1
469 230 1
469 243 1
469 244 1
469 249 1
469 250 1
469 255 1
469 257 1
469 258 1
469 259 1
469 260 1
469 264 1
469 275 1
469 279 1
469 282 1
469 283 1
469 295 1
469 302 1
469 311 1
469 313 1
469 315 1
469 317 1
469 325 1
469 341 1
469 355 1
469 356 1
469 358 1
469 362 1
469 365 1
469 366 1
469 371 1
469 375 1
469 385 1
469 393 1
469 399 1
469 400 1
469 403 1
469 404 1
469 405 1
469 408 1
469 425 1
469 430 1
469 445 1
469 446 1
469 450 1
469 451 1
469 456 1
469 461 1
469 463 1
469 470 1
469 471 1
469 481 1
469 487 1
469 498 1
469 499 1
470 4 1
470 9 1
470 15 1
470 18 1
470 21 1
470 31 1
470 36 1
470 42 1
470 43 1
470 52 1
470 54 1
470 56 1
470 60 1
470 75 1
470 78 1
470 87 1
470 101 1
470 106 1
470 108 1
470 120 1
470 123 1
470 125 1
470 130 1
470 133 1
470 136 1
470 137 1
470 142 1
470 143 1
470 151 1
470 155 1
470 158 1
470 176 1
470 181 1
470 184 1
470 188 1
470 191 1
470 200 1
470 208 1
470 210 1
470 211 1
470 214 1
470 215 1
470 218 1
470 219 1
470 224 1
470 225 1
470 229 1
470 233 1
470 239 1
470 245 1
470 249 1
470 250 1
470 252 1
470 254 1
470 255 1
470 264 1
470 279 1
470 290 1
470 293 1
470 301 1
470 309 1
470 311 1
470 312 1
470 318 1
470 319 1
470 320 1
470 322 1
470 324 1
470 325 1
470 337 1
470 341 1
470 346 1
470 351 1
470 354 1
470 365 1
470 384 1
470 386 1
470 397 1
470 413 1
470 414 1
470 415 1
470 418 1
470 420 1
470 425 1
470 434 1
470 437 1
470 440 1
470 446 1
470 460 1
470 461 1
470 463 1
470 464 1
470 466 1
470 468 1
470 469 1
470 477 1
470 487 1
471 14 1
471 20 1
471 22 1
471 27 1
471 28 1
471 44 1
471 45 1
471 55 1
471 56 1
471 58 1
471 71 1
471 75 1
471 80 1
471 99 1
471 101 1
471 104 1
471 106 1
471 122 1
471 132 1
471 134 1
471 143 1
471 148 1
471 150 1
471 152 1
471 155 1
471 159 1
471 184 1
471 191 1
471 194 1
471 202 1
471 209 1
471 215 1
471 218 1
471 221 1
471 225 1
471 231 1
471 235 1
471 241 1
471 242 1
471 245 1
471 253 1
471 254 1
471 261 1
471 262 1
471 268 1
471 274 1
471 277 1
471 283 1
471 288 1
471 289 1
471 293 1
471 294 1
471 296 1
471 297 1
471 306 1
471 319 1
471 320 1
471 328 1
471 330 1
471 331 1
471 338 1
471 340 1
471 342 1
471 343 1
471 345 1
471 347 1
471 348 1
471 354 1
471 357 1
471 359 1
471 362 1
471 364 1
471 366 1
471 369 1
471 370 1
471 377 1
471 381 1
471 388 1
471 392 1
471 406 1
471 407 1
471 415 1
471 421 1
471 426 1
471 431 1
471 440 1
471 441 1
471 445 1
471 458 1
471 460 1
471 468 1
471 469 1
471 474 1
471 478 1
471 480 1
471 481 1
471 482 1
471 484 1
471 485 1
471 500 1
472 4 1
472 19 1
472 21 1
472 24 1
472 27 1
472 34 1
472 45 1
472 48 1
472 49 1
472 50 1
472 55 1
472 59 1
472 65 1
472 77 1
472 85 1
472 88 1
472 90 1
472 94 1
472 102 1
472 104 1
472 107 1
472 109 1
472 128 1
472 130 1
472 131 1
472 134 1
472 141 1
472 148 1
472 149 1
472 151 1
472 157 1
472 167 1
472 169 1
472 174 1
472 176 1
472 186 1
472 200 1
472 208 1
472 223 1
472 230 1
472 231 1
472 233 1
472 239 1
472 245 1
472 246 1
472 264 1
472 271 1
472 272 1
472 280 1
472 283 1
472 296 1
472 297 1
472 299 1
472 301 1
472 304 1
472 309 1
472 311 1
472 313 1
472 315 1
472 317 1
472 319 1
472 325 1
472 329 1
472 331 1
472 334 1
472 337 1
472 339 1
472 343 1
472 350 1
472 353 1
472 355 1
472 368 1
472 377 1
472 380 1
472 386 1
472 389 1
472 392 1
472 414 1
472 417 1
472 419 1
472 425 1
472 432 1
472 433 1
472 449 1
472 450 1
472 457 1
472 461 1
472 462 1
472 468 1
472 489 1
473 1 1
473 3 1
473 4 1
473 9 1
473 11 1
473 14 1
473 17 1
473 30 1
473 32 1
473 36 1
473 37 1
473 43 1
473 44 1
473 48 1
473 49 1
473 56 1
473 57 1
473 69 1
473 82 1
473 83 1
473 85 1
473 92 1
473 95 1
473 104 1
473 106 1
473 108 1
473 109 1
473 118 1
473 123 1
473 125 1
473 126 1
473 137 1
473 139 1
473 144 1
473 152 1
473 159 1
473 160 1
473 165 1
473 167 1
473 171 1
473 182 1
473 194 1
473 199 1
473 201 1
473 210 1
473 214 1
473 215 1
473 216 1
473 217 1
473 234 1
473 236 1
473 247 1
473 252 1
473 255 1
473 257 1
473 258 1
473 262 1
473 264 1
473 269 1
473 273 1
473 276 1
473 277 1
473 280 1
473 283 1
473 294 1
473 304 1
473 306 1
473 307 1
473 312 1
473 314 1
473 321 1
473 325 1
473 342 1
473 353 1
473 355 1
473 356 1
473 359 1
473 360 1
473 365 1
473 382 1
473 384 1
473 385 1
473 388 1
473 389 1
473 393 1
473 410 1
473 411 1
473 412 1
473 416 1
473 439 1
473 441 1
473 447 1
473 454 1
473 458 1
473 459 1
473 461 1
473 462 1
473 466 1
473 479 1
473 485 1
473 490 1
473 496 1
474 22 1
474 26 1
474 29 1
474 38 1
474 39 1
474 51 1
474 65 1
474 66 1
474 69 1
474 71 1
474 74 1
474 83 1
474 85 1
474 90 1
474 97 1
474 106 1
474 111 1
474 116 1
474 117 1
474 124 1
474 130 1
474 133 1
474 136 1
474 138 1
474 139 1
474 141 1
474 142 1
474 143 1
474 144 1
474 147 1
474 148 1
474 150 1
474 152 1
474 157 1
474 160 1
474 172 1
474 174 1
474 183 1
474 184 1
474 187 1
474 189 1
474 193 1
474 195 1
474 200 1
474 204 1
474 205 1
474 206 1
474 208 1
474 211 1
474 212 1
474 218 1
474 220 1
474 230 1
474 241 1
474 251 1
474 262 1
474 266 1
474 267 1
474 277 1
474 282 1
474 284 1
474 288 1
474 289 1
474 294 1
474 295 1
474 301 1
474 306 1
474 307 1
474 309 1
474 321 1
474 325 1
474 338 1
474 342 1
474 347 1
474 350 1
474 355 1
474 359 1
474 361 1
474 367 1
474 372 1
474 377 1
474 382 1
474 387 1
474 405 1
474 411 1
474 415 1
474 420 1
474 428 1
474 437 1
474 440 1
474 444 1
474 447 1
474 455 1
474 458 1
474 460 1
474 463 1
474 464 1
474 468 1
474 471 1
474 478 1
474 481 1
474 491 1
475 9 1
475 11 1
475 13 1
475 17 1
475 18 1
475 22 1
475 28 1
475 40 1
475 41 1
475 48 1
475 49 1
475 50 1
475 65 1
475 66 1
475 68 1
475 69 1
475 72 1
475 73 1
475 74 1
475 75 1
475 83 1
475 86 1
475 87 1
475 90 1
475 91 1
475 95 1
475 97 1
475 99 1
475 100 1
475 116 1
475 119 1
475 120 1
475 122 1
475 125 1
475 127 1
475 129 1
475 130 1
475 139 1
475 145 1
475 152 1
475 154 1
475 157 1
475 162 1
475 165 1
475 177 1
475 180 1
475 182 1
475 185 1
475 199 1
475 207 1
475 211 1
475 216 1
475 223 1
475 227 1
475 230 1
475 239 1
475 251 1
475 255 1
475 264 1
475 276 1
475 282 1
475 284 1
475 291 1
475 292 1
475 294 1
475 295 1
475 298 1
475 301 1
475 302 1
475 303 1
475 311 1
475 312 1
475 314 1
475 323 1
475 325 1
475 328 1
475 331 1
475 336 1
475 337 1
475 346 1
475 347 1
475 348 1
475 357 1
475 359 1
475 362 1
475 369 1
475 375 1
475 376 1
475 377 1
475 379 1
475 386 1
475 388 1
475 391 1
475 400 1
475 405 1
475 429 1
475 430 1
475 436 1
475 440 1
475 442 1
475 446 1
475 447 1
475 450 1
475 451 1
475 455 1
475 462 1
475 463 1
475 479 1
475 480 1
475 481 1
475 483 1
475 486 1
475 487 1
475 499 1
476 10 1
476 17 1
476 19 1
476 21 1
476 22 1
476 34 1
476 35 1
476 62 1
476 64 1
476 66 1
476 72 1
476 79 1
476 83 1
476 94 1
476 96 1
476 101 1
476 102 1
476 103 1
476 105 1
476 109 1
476 113 1
476 121 1
476 124 1
476 127 1
476 129 1
476 136 1
476 144 1
476 150 1
476 159 1
476 168 1
476 173 1
476 175 1
476 179 1
476 183 1
476 184 1
476 185 1
476 186 1
476 187 1
476 197 1
476 209 1
476 212 1
476 213 1
476 217 1
476 221 1
476 228 1
476 236 1
476 243 1
476 246 1
476 258 1
476 269 1
476 271 1
476 272 1
476 274 1
476 282 1
476 286 1
476 292 1
476 295 1
476 303 1
476 307 1
476 308 1
476 309 1
476 312 1
476 315 1
476 324 1
476 326 1
476 330 1
476 337 1
476 339 1
476 342 1
476 343 1
476 345 1
476 346 1
476 347 1
476 348 1
476 351 1
476 353 1
476 354 1
476 356 1
476 357 1
476 365 1
476 374 1
476 375 1
476 376 1
476 379 1
476 382 1
476 385 1
476 388 1
476 390 1
476 393 1
476 395 1
476 398 1
476 405 1
476 406 1
476 411 1
476 412 1
476 414 1
476 415 1
476 427 1
476 431 1
476 438 1
476 443 1
476 445 1
476 447 1
476 452 1
476 454 1
476 456 1
476 457 1
476 458 1
476 459 1
476 468 1
476 484 1
476 494 1
476 498 1
477 4 1
477 13 1
477 21 1
477 22 1
477 23 1
477 28 1
477 37 1
477 43 1
477 45 1
477 51 1
477 54 1
477 55 1
477 59 1
477 80 1
477 93 1
477 94 1
477 110 1
477 114 1
477 116 1
477 118 1
477 119 1
477 123 1
477 125 1
477 139 1
477 143 1
477 149 1
477 156 1
477 164 1
477 175 1
477 187 1
477 190 1
477 195 1
477 198 1
477 206 1
477 207 1
477 227 1
477 231 1
477 238 1
477 239 1
477 248 1
477 251 1
477 253 1
477 256 1
477 258 1
477 262 1
477 265 1
477 268 1
477 277 1
477 287 1
477 290 1
477 305 1
477 307 1
477 308 1
477 313 1
477 318 1
477 322 1
477 331 1
477 342 1
477 343 1
477 344 1
477 347 1
477 351 1
477 356 1
477 357 1
477 361 1
477 365 1
477 366 1
477 369 1
477 375 1
477 376 1
477 381 1
477 384 1
477 386 1
477 388 1
477 389 1
477 403 1
477 404 1
477 412 1
477 423 1
477 424 1
477 428 1
477 432 1
477 436 1
477 438 1
477 440 1
477 445 1
477 452 1
477 454 1
477 459 1
477 467 1
477 470 1
477 484 1
477 495 1
477 497 1
478 2 1
478 12 1
478 14 1
478 17 1
478 27 1
478 30 1
478 34 1
478 41 1
478 42 1
478 45 1
478 46 1
478 48 1
478 68 1
478 71 1
478 73 1
478 74 1
478 79 1
478 86 1
478 89 1
478 91 1
478 93 1
478 97 1
478 101 1
478 105 1
478 108 1
478 110 1
478 114 1
478 121 1
478 125 1
478 129 1
478 133 1
478 135 1
478 147 1
478 150 1
478 152 1
478 157 1
478 169 1
478 172 1
478 173 1
478 174 1
478 181 1
478 188 1
478 194 1
478 203 1
478 210 1
478 214 1
478 219 1
478 223 1
478 226 1
478 227 1
478 231 1
478 233 1
478 239 1
478 270 1
478 277 1
478 285 1
478 287 1
478 290 1
478 293 1
478 296 1
478 306 1
478 310 1
478 317 1
478 330 1
478 342 1
478 345 1
478 355 1
478 360 1
478 362 1
478 390 1
478 398 1
478 402 1
478 404 1
478 409 1
478 419 1
478 436 1
478 443 1
478 446 1
478 451 1
478 457 1
478 458 1
478 462 1
478 471 1
478 474 1
478 486 1
478 488 1
478 495 1
479 5 1
479 7 1
479 8 1
479 12 1
479 15 1
479 17 1
479 21 1
479 25 1
479 28 1
479 46 1
479 47 1
479 50 1
479 57 1
479 62 1
479 79 1
479 80 1
479 81 1
479 111 1
479 119 1
479 121 1
479 126 1
479 129 1
479 132 1
479 133 1
479 135 1
479 136 1
479 138 1
479 145 1
479 146 1
479 153 1
479 157 1
479 161 1
479 162 1
479 167 1
479 168 1
479 171 1
479 173 1
479 180 1
479 185 1
479 186 1
479 190 1
479 198 1
479 201 1
479 202 1
479 204 1
479 208 1
479 210 1
479 217 1
479 220 1
479 222 1
479 227 1
479 229 1
479 231 1
479 234 1
479 239 1
479 242 1
479 251 1
479 252 1
479 263 1
479 266 1
479 278 1
479 283 1
479 291 1
479 299 1
479 304 1
479 312 1
479 318 1
479 319 1
479 339 1
479 340 1
479 358 1
479 365 1
479 369 1
479 380 1
479 384 1
479 387 1
479 389 1
479 393 1
479 399 1
479 411 1
479 412 1
479 414 1
479 422 1
479 429 1
479 430 1
479 433 1
479 463 1
479 473 1
479 475 1
479 481 1
479 483 1
479 486 1
479 488 1
479 489 1
479 492 1
479 499 1
479 500 1
480 5 1
480 10 1
480 13 1
480 16 1
480 17 1
480 26 1
480 31 1
480 35 1
480 41 1
480 58 1
480 62 1
480 70 1
480 72 1
480 73 1
480 87 1
480 88 1
480 91 1
480 103 1
480 106 1
480 110 1
480 111 1
480 117 1
480 122 1
480 123 1
480 126 1
480 137 1
480 139 1
480 140 1
480 152 1
480 155 1
480 159 1
480 163 1
480 168 1
480 182 1
480 185 1
480 188 1
480 190 1
480 192 1
480 196 1
480 200 1
480 201 1
480 206 1
480 211 1
480 212 1
480 217 1
480 237 1
480 241 1
480 242 1
480 243 1
480 253 1
480 265 1
480 266 1
480 267 1
480 270 1
480 274 1
480 283 1
480 287 1
480 297 1
480 299 1
480 301 1
480 308 1
480 314 1
480 318 1
480 323 1
480 330 1
480 334 1
480 338 1
480 345 1
480 352 1
480 361 1
480 363 1
480 364 1
480 378 1
480 383 1
480 386 1
480 387 1
480 389 1
480 390 1
480 399 1
480 405 1
480 410 1
480 412 1
480 413 1
480 415 1
480 419 1
480 420 1
480 421 1
480 427 1
480 428 1
480 437 1
480 439 1
480 442 1
480 451 1
480 452 1
480 456 1
480 458 1
480 468 1
480 471 1
480 475 1
480 491 1
481 2 1
481 9 1
481 15 1
481 17 1
481 22 1
481 25 1
481 26 1
481 31 1
481 33 1
481 41 1
481 56 1
481 58 1
481 65 1
481 69 1
481 70 1
481 72 1
481 74 1
481 76 1
481 78 1
481 80 1
481 81 1
481 88 1
481 93 1
481 99 1
481 106 1
481 121 1
481 123 1
481 129 1
481 130 1
481 132 1
481 135 1
481 145 1
481 149 1
481 150 1
481 154 1
481 158 1
481 166 1
481 172 1
481 182 1
481 183 1
481 187 1
481 191 1
481 195 1
481 196 1
481 197 1
481 206 1
481 212 1
481 217 1
481 220 1
481 224 1
481 226 1
481 243 1
481 249 1
481 256 1
481 261 1
481 262 1
481 263 1
481 266 1
481 271 1
481 272 1
481 286 1
481 292 1
481 295 1
481 300 1
481 302 1
481 307 1
481 310 1
481 315 1
481 317 1
481 318 1
481 319 1
481 334 1
481 335 1
481 336 1
481 337 1
481 341 1
481 362 1
481 364 1
481 367 1
481 374 1
481 375 1
481 376 1
481 380 1
481 405 1
481 411 1
481 412 1
481 413 1
481 414 1
481 417 1
481 419 1
481 427 1
481 431 1
481 455 1
481 463 1
481 466 1
481 467 1
481 469 1
481 471 1
481 474 1
481 475 1
481 479 1
481 488 1
481 496 1
481 498 1
482 2 1
482 4 1
482 7 1
482 16 1
482 23 1
482 24 1
482 28 1
482 37 1
482 43 1
482 45 1
482 48 1
482 51 1
482 52 1
482 53 1
482 55 1
482 68 1
482 84 1
482 88 1
482 98 1
482 100 1
482 103 1
482 106 1
482 111 1
482 112 1
482 113 1
482 118 1
482 120 1
482 127 1
482 131 1
482 136 1
482 137 1
482 139 1
482 141 1
482 155 1
482 158 1
482 161 1
482 162 1
482 165 1
482 167 1
482 172 1
482 177 1
482 178 1
482 191 1
482 193 1
482 201 1
482 202 1
482 205 1
482 206 1
482 212 1
482 216 1
482 218 1
482 223 1
482 224 1
482 225 1
482 246 1
482 247 1
482 249 1
482 250 1
482 252 1
482 258 1
482 264 1
482 266 1
482 272 1
482 287 1
482 290 1
482 296 1
482 309 1
482 322 1
482 323 1
482 328 1
482 331 1
482 332 1
482 334 1
482 342 1
482 343 1
482 350 1
482 353 1
482 356 1
482 363 1
482 364 1
482 365 1
482 372 1
482 382 1
482 383 1
482 389 1
482 393 1
482 400 1
482 411 1
482 415 1
482 427 1
482 428 1
482 429 1
482 433 1
482 435 1
482 438 1
482 443 1
482 444 1
482 449 1
482 453 1
482 455 1
482 456 1
482 460 1
482 461 1
482 462 1
482 471 1
482 484 1
482 485 1
482 489 1
482 495 1
482 496 1
483 7 1
483 9 1
483 12 1
483 15 1
483 17 1
483 23 1
483 30 1
483 41 1
483 43 1
483 49 1
483 52 1
483 55 1
483 56 1
483 58 1
483 74 1
483 76 1
483 83 1
483 85 1
483 95 1
483 104 1
483 106 1
483 113 1
483 114 1
483 116 1
483 119 1
483 125 1
483 130 1
483 136 1
483 149 1
483 167 1
483 168 1
483 169 1
483 175 1
483 179 1
483 186 1
483 189 1
483 198 1
483 201 1
483 206 1
483 211 1
483 212 1
483 231 1
483 234 1
483 237 1
483 249 1
483 253 1
483 255 1
483 257 1
483 263 1
483 266 1
483 267 1
483 270 1
483 276 1
483 278 1
483 282 1
483 299 1
483 302 1
483 303 1
483 308 1
483 321 1
483 323 1
483 327 1
483 330 1
483 334 1
483 344 1
483 347 1
483 350 1
483 352 1
483 358 1
483 360 1
483 362 1
483 367 1
483 380 1
483 381 1
483 384 1
483 389 1
483 392 1
483 393 1
483 400 1
483 403 1
483 406 1
483 407 1
483 410 1
483 412 1
483 421 1
483 424 1
483 427 1
483 429 1
483 437 1
483 440 1
483 448 1
483 452 1
483 454 1
483 457 1
483 475 1
483 479 1
483 484 1
483 494 1
484 3 1
484 12 1
484 29 1
484 31 1
484 36 1
484 37 1
484 41 1
484 46 1
484 51 1
484 56 1
484 63 1
484 65 1
484 69 1
484 72 1
484 74 1
484 76 1
484 80 1
484 84 1
484 88 1
484 91 1
484 104 1
484 106 1
484 117 1
484 123 1
484 125 1
484 128 1
484 129 1
484 132 1
484 136 1
484 140 1
484 147 1
484 149 1
484 156 1
484 157 1
484 160 1
484 187 1
484 189 1
484 196 1
484 198 1
484 200 1
484 202 1
484 214 1
484 217 1
484 218 1
484 219 1
484 229 1
484 234 1
484 235 1
484 241 1
484 244 1
484 247 1
484 248 1
484 255 1
484 256 1
484 260 1
484 262 1
484 268 1
484 273 1
484 281 1
484 282 1
484 287 1
484 289 1
484 291 1
484 294 1
484 299 1
484 308 1
484 309 1
484 312 1
484 314 1
484 315 1
484 318 1
484 327 1
484 334 1
484 336 1
484 339 1
484 341 1
484 342 1
484 351 1
484 353 1
484 354 1
484 360 1
484 368 1
484 369 1
484 372 1
484 373 1
484 378 1
484 380 1
484 381 1
484 383 1
484 385 1
484 388 1
484 392 1
484 394 1
484 395 1
484 412 1
484 415 1
484 426 1
484 428 1
484 429 1
484 431 1
484 436 1
484 439 1
484 441 1
484 445 1
484 449 1
484 455 1
484 463 1
484 471 1
484 476 1
484 477 1
484 482 1
484 483 1
484 485 1
484 488 1
484 492 1
484 494 1
484 497 1
484 498 1
485 6 1
485 7 1
485 22 1
485 25 1
485 27 1
485 34 1
485 39 1
485 53 1
485 55 1
485 56 1
485 64 1
485 67 1
485 68 1
485 72 1
485 75 1
485 76 1
485 81 1
485 88 1
485 90 1
485 91 1
485 94 1
485 97 1
485 105 1
485 109 1
485 111 1
485 125 1
485 136 1
485 137 1
485 141 1
485 155 1
485 158 1
485 169 1
485 182 1
485 183 1
485 187 1
485 195 1
485 200 1
485 216 1
485 227 1
485 232 1
485 234 1
485 236 1
485 248 1
485 250 1
485 251 1
485 256 1
485 257 1
485 263 1
485 264 1
485 273 1
485 303 1
485 308 1
485 317 1
485 325 1
485 331 1
485 343 1
485 345 1
485 346 1
485 349 1
485 350 1
485 351 1
485 357 1
485 360 1
485 364 1
485 366 1
485 367 1
485 375 1
485 382 1
485 384 1
485 397 1
485 406 1
485 409 1
485 412 1
485 417 1
485 418 1
485 419 1
485 425 1
485 427 1
485 433 1
485 437 1
485 440 1
485 445 1
485 447 1
485 450 1
485 471 1
485 473 1
485 482 1
485 484 1
485 486 1
485 490 1
485 494 1
485 497 1
485 499 1
485 500 1
486 5 1
486 9 1
486 17 1
486 19 1
486 20 1
486 26 1
486 29 1
486 36 1
486 43 1
486 46 1
486 49 1
486 51 1
486 63 1
486 68 1
486 82 1
486 89 1
486 93 1
486 96 1
486 100 1
486 115 1
486 117 1
486 118 1
486 129 1
486 144 1
486 151 1
486 153 1
486 154 1
486 159 1
486 172 1
486 175 1
486 176 1
486 179 1
486 182 1
486 186 1
486 198 1
486 201 1
486 204 1
486 208 1
486 211 1
486 213 1
486 220 1
486 224 1
486 232 1
486 239 1
486 243 1
486 252 1
486 254 1
486 255 1
486 272 1
486 277 1
486 284 1
486 288 1
486 294 1
486 296 1
486 301 1
486 306 1
486 309 1
486 310 1
486 312 1
486 315 1
486 324 1
486 328 1
486 331 1
486 332 1
486 334 1
486 340 1
486 341 1
486 345 1
486 348 1
486 351 1
486 370 1
486 375 1
486 382 1
486 387 1
486 389 1
486 402 1
486 424 1
486 427 1
486 444 1
486 447 1
486 452 1
486 455 1
486 460 1
486 463 1
486 468 1
486 475 1
486 478 1
486 479 1
486 485 1
486 497 1
487 1 1
487 7 1
487 18 1
487 21 1
487 23 1
487 30 1
487 33 1
487 38 1
487 48 1
487 55 1
487 56 1
487 66 1
487 69 1
487 76 1
487 77 1
487 79 1
487 84 1
487 88 1
487 89 1
487 90 1
487 92 1
487 94 1
487 95 1
487 100 1
487 108 1
487 121 1
487 131 1
487 141 1
487 144 1
487 154 1
487 156 1
487 159 1
487 160 1
487 166 1
487 186 1
487 187 1
487 189 1
487 192 1
487 197 1
487 200 1
487 206 1
487 210 1
487 218 1
487 220 1
487 225 1
487 230 1
487 239 1
487 242 1
487 248 1
487 249 1
487 254 1
487 258 1
487 260 1
487 264 1
487 267 1
487 277 1
487 278 1
487 282 1
487 283 1
487 286 1
487 287 1
487 293 1
487 294 1
487 298 1
487 318 1
487 320 1
487 323 1
487 332 1
487 333 1
487 338 1
487 352 1
487 356 1
487 357 1
487 361 1
487 371 1
487 373 1
487 380 1
487 384 1
487 386 1
487 389 1
487 393 1
487 395 1
487 400 1
487 405 1
487 409 1
487 414 1
487 422 1
487 427 1
487 428 1
487 429 1
487 434 1
487 435 1
487 442 1
487 444 1
487 447 1
487 450 1
487 451 1
487 452 1
487 453 1
487 457 1
487 463 1
487 465 1
487 469 1
487 470 1
487 475 1
487 491 1
487 493 1
487 498 1
488 24 1
488 30 1
488 34 1
488 43 1
488 47 1
488 48 1
488 55 1
488 58 1
488 62 1
488 63 1
488 64 1
488 65 1
488 66 1
488 69 1
488 71 1
488 74 1
488 78 1
488 79 1
488 80 1
488 82 1
488 86 1
488 87 1
488 90 1
488 91 1
488 92 1
488 93 1
488 95 1
488 96 1
488 100 1
488 101 1
488 103 1
488 109 1
488 121 1
488 134 1
488 136 1
488 137 1
488 140 1
488 142 1
488 147 1
488 160 1
488 161 1
488 162 1
488 167 1
488 170 1
488 180 1
488 183 1
488 190 1
488 192 1
488 194 1
488 199 1
488 204 1
488 211 1
488 219 1
488 226 1
488 227 1
488 228 1
488 233 1
488 235 1
488 240 1
488 245 1
488 246 1
488 247 1
488 252 1
488 271 1
488 277 1
488 281 1
488 282 1
488 284 1
488 290 1
488 291 1
488 302 1
488 304 1
488 305 1
488 310 1
488 323 1
488 329 1
488 339 1
488 345 1
488 347 1
488 353 1
488 355 1
488 356 1
488 357 1
488 365 1
488 375 1
488 388 1
488 392 1
488 404 1
488 412 1
488 416 1
488 417 1
488 423 1
488 436 1
488 439 1
488 443 1
488 444 1
488 449 1
488 450 1
488 451 1
488 455 1
488 478 1
488 479 1
488 481 1
488 484 1
488 495 1
489 6 1
489 11 1
489 13 1
489 15 1
489 16 1
489 28 1
489 32 1
489 34 1
489 35 1
489 41 1
489 43 1
489 45 1
489 69 1
489 73 1
489 76 1
489 79 1
489 80 1
489 84 1
489 87 1
489 90 1
489 95 1
489 96 1
489 101 1
489 120 1
489 124 1
489 135 1
489 141 1
489 153 1
489 154 1
489 157 1
489 161 1
489 175 1
489 180 1
489 190 1
489 195 1
489 200 1
489 206 1
489 208 1
489 209 1
489 210 1
489 216 1
489 221 1
489 226 1
489 229 1
489 236 1
489 245 1
489 246 1
489 256 1
489 260 1
489 267 1
489 270 1
489 271 1
489 284 1
489 291 1
489 296 1
489 300 1
489 303 1
489 307 1
489 316 1
489 327 1
489 328 1
489 329 1
489 336 1
489 350 1
489 353 1
489 358 1
489 361 1
489 373 1
489 375 1
489 378 1
489 381 1
489 384 1
489 408 1
489 409 1
489 410 1
489 415 1
489 417 1
489 426 1
489 430 1
489 435 1
489 438 1
489 440 1
489 441 1
489 447 1
489 454 1
489 456 1
489 457 1
489 461 1
489 462 1
489 463 1
489 465 1
489 472 1
489 479 1
489 482 1
489 497 1
490 7 1
490 8 1
490 11 1
490 15 1
490 16 1
490 17 1
490 27 1
490 29 1
490 38 1
490 39 1
490 42 1
490 43 1
490 52 1
490 62 1
490 64 1
490 78 1
490 86 1
490 88 1
490 90 1
490 100 1
490 101 1
490 102 1
490 110 1
490 114 1
490 116 1
490 126 1
490 132 1
490 144 1
490 147 1
490 150 1
490 151 1
490 154 1
490 155 1
490 164 1
490 173 1
490 176 1
490 178 1
490 187 1
490 188 1
490 196 1
490 200 1
490 203 1
490 205 1
490 207 1
490 212 1
490 219 1
490 221 1
490 222 1
490 223 1
490 224 1
490 227 1
490 230 1
490 232 1
490 234 1
490 241 1
490 247 1
490 249 1
490 253 1
490 256 1
490 258 1
490 260 1
490 261 1
490 264 1
490 267 1
490 269 1
490 272 1
490 274 1
490 293 1
490 295 1
490 307 1
490 308 1
490 310 1
490 317 1
490 321 1
490 328 1
490 335 1
490 336 1
490 338 1
490 353 1
490 364 1
490 365 1
490 366 1
490 370 1
490 371 1
490 374 1
490 379 1
490 380 1
490 384 1
490 385 1
490 388 1
490 391 1
490 393 1
490 397 1
490 398 1
490 400 1
490 402 1
490 417 1
490 427 1
490 429 1
490 431 1
490 433 1
490 434 1
490 441 1
490 449 1
490 451 1
490 456 1
490 457 1
490 458 1
490 461 1
490 462 1
490 473 1
490 485 1
490 492 1
491 1 1
491 4 1
491 5 1
491 8 1
491 13 1
491 14 1
491 16 1
491 28 1
491 29 1
491 47 1
491 52 1
491 58 1
491 59 1
491 77 1
491 81 1
491 84 1
491 89 1
491 99 1
491 111 1
491 112 1
491 117 1
491 145 1
491 146 1
491 152 1
491 156 1
491 169 1
491 172 1
491 173 1
491 176 1
491 187 1
491 189 1
491 197 1
491 199 1
491 204 1
491 208 1
491 224 1
491 226 1
491 252 1
491 253 1
491 257 1
491 259 1
491 262 1
491 265 1
491 270 1
491 279 1
491 284 1
491 285 1
491 290 1
491 291 1
491 293 1
491 296 1
491 299 1
491 305 1
491 308 1
491 309 1
491 313 1
491 328 1
491 329 1
491 344 1
491 350 1
491 352 1
491 359 1
491 360 1
491 372 1
491 374 1
491 377 1
491 378 1
491 379 1
491 381 1
491 394 1
491 397 1
491 398 1
491 412 1
491 416 1
491 421 1
491 423 1
491 424 1
491 425 1
491 426 1
491 427 1
491 458 1
491 461 1
491 462 1
491 474 1
491 480 1
491 487 1
491 497 1
491 500 1
492 19 1
492 22 1
492 24 1
492 29 1
492 35 1
492 37 1
492 39 1
492 41 1
492 56 1
492 60 1
492 67 1
492 69 1
492 72 1
492 87 1
492 109 1
492 112 1
492 116 1
492 131 1
492 139 1
492 143 1
492 145 1
492 148 1
492 149 1
492 159 1
492 162 1
492 163 1
492 164 1
492 169 1
492 173 1
492 174 1
492 176 1
492 180 1
492 181 1
492 184 1
492 189 1
492 195 1
492 199 1
492 201 1
492 202 1
492 209 1
492 210 1
492 216 1
492 218 1
492 225 1
492 227 1
492 228 1
492 229 1
492 230 1
492 231 1
492 234 1
492 242 1
492 248 1
492 255 1
492 261 1
492 263 1
492 281 1
492 285 1
492 290 1
492 291 1
492 292 1
492 293 1
492 298 1
492 299 1
492 303 1
492 306 1
492 315 1
492 316 1
492 319 1
492 325 1
492 331 1
492 338 1
492 339 1
492 343 1
492 345 1
492 347 1
492 348 1
492 355 1
492 358 1
492 364 1
492 367 1
492 376 1
492 383 1
492 390 1
492 395 1
492 397 1
492 400 1
492 402 1
492 410 1
492 416 1
492 422 1
492 424 1
492 428 1
492 433 1
492 439 1
492 440 1
492 441 1
492 445 1
492 449 1
492 453 1
492 455 1
492 456 1
492 462 1
492 467 1
492 479 1
492 484 1
492 490 1
492 494 1
492 496 1
492 498 1
493 12 1
493 33 1
493 34 1
493 40 1
493 43 1
493 48 1
493 49 1
493 52 1
493 68 1
493 70 1
493 75 1
493 78 1
493 82 1
493 93 1
493 95 1
493 100 1
493 102 1
493 107 1
493 110 1
493 117 1
493 127 1
493 129 1
493 138 1
493 139 1
493 141 1
493 142 1
493 143 1
493 144 1
493 152 1
493 153 1
493 157 1
493 172 1
493 185 1
493 188 1
493 194 1
493 200 1
493 202 1
493 203 1
493 207 1
493 214 1
493 223 1
493 227 1
493 239 1
493 248 1
493 252 1
493 256 1
493 279 1
493 280 1
493 281 1
493 292 1
493 297 1
493 315 1
493 320 1
493 323 1
493 325 1
493 331 1
493 338 1
493 341 1
493 351 1
493 354 1
493 360 1
493 363 1
493 378 1
493 382 1
493 390 1
493 392 1
493 400 1
493 403 1
493 407 1
493 408 1
493 409 1
493 411 1
493 425 1
493 427 1
493 430 1
493 432 1
493 435 1
493 436 1
493 437 1
493 445 1
493 450 1
493 451 1
493 452 1
493 456 1
493 458 1
493 460 1
493 487 1
493 496 1
494 3 1
494 4 1
494 5 1
494 6 1
494 13 1
494 19 1
494 21 1
494 25 1
494 29 1
494 33 1
494 37 1
494 38 1
494 45 1
494 47 1
494 50 1
494 56 1
494 58 1
494 60 1
494 62 1
494 70 1
494 72 1
494 74 1
494 85 1
494 89 1
494 90 1
494 91 1
494 94 1
494 95 1
494 96 1
494 101 1
494 106 1
494 110 1
494 112 1
494 120 1
494 123 1
494 124 1
494 148 1
494 152 1
494 153 1
494 156 1
494 164 1
494 168 1
494 170 1
494 176 1
494 182 1
494 183 1
494 185 1
494 187 1
494 191 1
494 193 1
494 194 1
494 196 1
494 205 1
494 223 1
494 224 1
494 237 1
494 240 1
494 253 1
494 259 1
494 266 1
494 272 1
494 281 1
494 288 1
494 290 1
494 293 1
494 294 1
494 296 1
494 297 1
494 299 1
494 308 1
494 316 1
494 331 1
494 336 1
494 337 1
494 344 1
494 348 1
494 352 1
494 353 1
494 354 1
494 358 1
494 359 1
494 370 1
494 381 1
494 386 1
494 387 1
494 388 1
494 389 1
494 392 1
494 396 1
494 397 1
494 399 1
494 407 1
494 411 1
494 419 1
494 420 1
494 421 1
494 423 1
494 424 1
494 426 1
494 434 1
494 435 1
494 441 1
494 450 1
494 455 1
494 476 1
494 483 1
494 484 1
494 485 1
494 492 1
494 496 1
495 8 1
495 11 1
495 16 1
495 17 1
495 27 1
495 32 1
495 33 1
495 34 1
495 43 1
495 52 1
495 53 1
495 55 1
495 60 1
495 63 1
495 64 1
495 70 1
495 78 1
495 79 1
495 92 1
495 96 1
495 108 1
495 111 1
495 122 1
495 126 1
495 132 1
495 142 1
495 144 1
495 152 1
495 154 1
495 158 1
495 161 1
495 162 1
495 165 1
495 175 1
495 178 1
495 185 1
495 186 1
495 187 1
495 188 1
495 203 1
495 210 1
495 213 1
495 214 1
495 219 1
495 220 1
495 228 1
495 229 1
495 230 1
495 236 1
495 237 1
495 238 1
495 241 1
495 248 1
495 253 1
495 254 1
495 257 1
495 267 1
495 270 1
495 273 1
495 279 1
495 292 1
495 304 1
495 308 1
495 316 1
495 324 1
495 325 1
495 326 1
495 329 1
495 331 1
495 342 1
495 347 1
495 358 1
495 360 1
495 366 1
495 367 1
495 368 1
495 378 1
495 390 1
495 392 1
495 420 1
495 427 1
495 429 1
495 441 1
495 449 1
495 455 1
495 456 1
495 465 1
495 477 1
495 478 1
495 482 1
495 488 1
495 496 1
495 498 1
496 8 1
496 12 1
496 22 1
496 24 1
496 25 1
496 33 1
496 34 1
496 36 1
496 40 1
496 46 1
496 49 1
496 53 1
496 59 1
496 62 1
496 65 1
496 67 1
496 74 1
496 75 1
496 79 1
496 83 1
496 85 1
496 88 1
496 103 1
496 106 1
496 109 1
496 112 1
496 117 1
496 119 1
496 120 1
496 127 1
496 129 1
496 135 1
496 136 1
496 143 1
496 150 1
496 152 1
496 176 1
496 180 1
496 183 1
496 186 1
496 195 1
496 205 1
496 208 1
496 218 1
496 224 1
496 225 1
496 239 1
496 241 1
496 247 1
496 251 1
496 252 1
496 254 1
496 255 1
496 263 1
496 269 1
496 276 1
496 281 1
496 290 1
496 332 1
496 335 1
496 339 1
496 343 1
496 350 1
496 351 1
496 359 1
496 367 1
496 378 1
496 390 1
496 391 1
496 400 1
496 401 1
496 419 1
496 423 1
496 424 1
496 426 1
496 433 1
496 441 1
496 445 1
496 447 1
496 457 1
496 459 1
496 473 1
496 481 1
496 482 1
496 492 1
496 493 1
496 494 1
496 495 1
497 6 1
497 24 1
497 33 1
497 39 1
497 46 1
497 49 1
497 53 1
497 59 1
497 62 1
497 64 1
497 65 1
497 98 1
497 111 1
497 112 1
497 116 1
497 119 1
497 120 1
497 121 1
497 123 1
497 125 1
497 126 1
497 131 1
497 138 1
497 139 1
497 141 1
497 143 1
497 145 1
497 146 1
497 147 1
497 151 1
497 154 1
497 155 1
497 157 1
497 160 1
497 168 1
497 169 1
497 174 1
497 176 1
497 179 1
497 189 1
497 195 1
497 196 1
497 203 1
497 206 1
497 214 1
497 224 1
497 226 1
497 230 1
497 236 1
497 240 1
497 242 1
497 244 1
497 245 1
497 254 1
497 256 1
497 258 1
497 260 1
497 264 1
497 279 1
497 283 1
497 285 1
497 294 1
497 303 1
497 304 1
497 305 1
497 309 1
497 319 1
497 325 1
497 331 1
497 333 1
497 337 1
497 350 1
497 351 1
497 361 1
497 375 1
497 381 1
497 385 1
497 386 1
497 390 1
497 395 1
497 399 1
497 405 1
497 407 1
497 412 1
497 416 1
497 422 1
497 423 1
497 428 1
497 430 1
497 434 1
497 435 1
497 450 1
497 459 1
497 460 1
497 463 1
497 464 1
497 467 1
497 477 1
497 484 1
497 485 1
497 486 1
497 489 1
497 491 1
498 11 1
498 12 1
498 15 1
498 16 1
498 23 1
498 24 1
498 27 1
498 29 1
498 35 1
498 41 1
498 49 1
498 53 1
498 58 1
498 74 1
498 75 1
498 79 1
498 82 1
498 84 1
498 90 1
498 94 1
498 96 1
498 104 1
498 106 1
498 108 1
498 112 1
498 126 1
498 138 1
498 139 1
498 150 1
498 156 1
498 163 1
498 166 1
498 167 1
498 174 1
498 190 1
498 194 1
498 195 1
498 198 1
498 209 1
498 211 1
498 213 1
498 214 1
498 215 1
498 218 1
498 220 1
498 229 1
498 232 1
498 233 1
498 239 1
498 243 1
498 246 1
498 260 1
498 269 1
498 283 1
498 288 1
498 290 1
498 312 1
498 323 1
498 340 1
498 345 1
498 357 1
498 361 1
498 363 1
498 369 1
498 371 1
498 372 1
498 374 1
498 377 1
498 382 1
498 384 1
498 398 1
498 400 1
498 416 1
498 418 1
498 424 1
498 426 1
498 428 1
498 430 1
498 431 1
498 439 1
498 441 1
498 448 1
498 450 1
498 451 1
498 456 1
498 459 1
498 466 1
498 469 1
498 476 1
498 481 1
498 484 1
498 487 1
498 492 1
498 495 1
499 2 1
499 3 1
499 4 1
499 6 1
499 9 1
499 10 1
499 12 1
499 14 1
499 15 1
499 17 1
499 32 1
499 34 1
499 37 1
499 55 1
499 56 1
499 58 1
499 64 1
499 72 1
499 87 1
499 90 1
499 91 1
499 93 1
499 94 1
499 104 1
499 106 1
499 107 1
499 118 1
499 120 1
499 125 1
499 130 1
499 133 1
499 140 1
499 142 1
499 144 1
499 146 1
499 147 1
499 151 1
499 161 1
499 171 1
499 172 1
499 183 1
499 184 1
499 188 1
499 196 1
499 198 1
499 199 1
499 205 1
499 207 1
499 208 1
499 216 1
499 220 1
499 234 1
499 236 1
499 238 1
499 241 1
499 248 1
499 253 1
499 269 1
499 271 1
499 277 1
499 285 1
499 286 1
499 290 1
499 296 1
499 300 1
499 320 1
499 322 1
499 325 1
499 327 1
499 336 1
499 342 1
499 346 1
499 349 1
499 352 1
499 354 1
499 357 1
499 363 1
499 372 1
499 373 1
499 374 1
499 382 1
499 385 1
499 387 1
499 402 1
499 408 1
499 418 1
499 422 1
499 423 1
499 430 1
499 432 1
499 440 1
499 446 1
499 447 1
499 449 1
499 456 1
499 462 1
499 463 1
499 469 1
499 475 1
499 479 1
499 485 1
500 3 1
500 11 1
500 12 1
500 13 1
500 18 1
500 24 1
500 28 1
500 39 1
500 51 1
500 53 1
500 65 1
500 81 1
500 82 1
500 103 1
500 107 1
500 116 1
500 118 1
500 119 1
500 124 1
500 132 1
500 134 1
500 145 1
500 146 1
500 151 1
500 152 1
500 154 1
500 169 1
500 175 1
500 184 1
500 189 1
500 192 1
500 193 1
500 195 1
500 196 1
500 207 1
500 208 1
500 210 1
500 219 1
500 221 1
500 223 1
500 230 1
500 232 1
500 237 1
500 240 1
500 244 1
500 251 1
500 264 1
500 266 1
500 270 1
500 279 1
500 287 1
500 289 1
500 291 1
500 300 1
500 311 1
500 312 1
500 313 1
500 316 1
500 327 1
500 330 1
500 338 1
500 339 1
500 344 1
500 351 1
500 352 1
500 358 1
500 362 1
500 364 1
500 369 1
500 372 1
500 374 1
500 375 1
500 378 1
500 381 1
500 385 1
500 388 1
500 392 1
500 394 1
500 397 1
500 398 1
500 399 1
500 401 1
500 404 1
500 406 1
500 407 1
500 410 1
500 414 1
500 417 1
500 428 1
500 438 1
500 439 1
500 441 1
500 442 1
500 449 1
500 454 1
500 460 1
500 466 1
500 468 1
500 471 1
500 479 1
500 485 1
500 491 1
