%%MatrixMarket matrix coordinate integer general
%
700 700 97992
1 2 1
1 6 1
1 10 1
1 12 1
1 16 1
1 26 1
1 33 1
1 35 1
1 37 1
1 39 1
1 51 1
1 52 1
1 53 1
1 54 1
1 59 1
1 64 1
1 65 1
1 70 1
1 72 1
1 74 1
1 76 1
1 81 1
1 89 1
1 91 1
1 92 1
1 95 1
1 100 1
1 102 1
1 106 1
1 107 1
1 109 1
1 111 1
1 112 1
1 121 1
1 125 1
1 126 1
1 128 1
1 132 1
1 139 1
1 146 1
1 159 1
1 160 1
1 163 1
1 164 1
1 166 1
1 181 1
1 184 1
1 185 1
1 186 1
1 187 1
1 189 1
1 190 1
1 193 1
1 203 1
1 210 1
1 212 1
1 222 1
1 224 1
1 227 1
1 228 1
1 229 1
1 233 1
1 238 1
1 250 1
1 256 1
1 258 1
1 265 1
1 266 1
1 277 1
1 280 1
1 281 1
1 283 1
1 285 1
1 286 1
1 290 1
1 293 1
1 312 1
1 314 1
1 318 1
1 323 1
1 324 1
1 342 1
1 343 1
1 348 1
1 355 1
1 357 1
1 363 1
1 366 1
1 369 1
1 382 1
1 391 1
1 399 1
1 410 1
1 411 1
1 415 1
1 417 1
1 422 1
1 433 1
1 438 1
1 439 1
1 442 1
1 443 1
1 445 1
1 453 1
1 455 1
1 457 1
1 458 1
1 461 1
1 466 1
1 468 1
1 485 1
1 492 1
1 495 1
1 498 1
1 509 1
1 510 1
1 512 1
1 516 1
1 517 1
1 518 1
1 526 1
1 527 1
1 529 1
1 533 1
1 534 1
1 558 1
1 559 1
1 562 1
1 565 1
1 567 1
1 576 1
1 579 1
1 581 1
1 588 1
1 590 1
1 594 1
1 595 1
1 596 1
1 597 1
1 598 1
1 599 1
1 600 1
1 603 1
1 606 1
1 608 1
1 610 1
1 630 1
1 641 1
1 656 1
1 663 1
1 664 1
1 669 1
1 670 1
1 674 1
1 675 1
1 685 1
1 686 1
1 689 1
1 699 1
1 700 1
2 1 1
2 7 1
2 9 1
2 18 1
2 28 1
2 36 1
2 40 1
2 51 1
2 52 1
2 54 1
2 55 1
2 61 1
2 63 1
2 65 1
2 79 1
2 89 1
2 99 1
2 100 1
2 101 1
2 113 1
2 118 1
2 121 1
2 133 1
2 139 1
2 140 1
2 144 1
2 148 1
2 155 1
2 160 1
2 163 1
2 164 1
2 165 1
2 180 1
2 200 1
2 203 1
2 208 1
2 215 1
2 218 1
2 220 1
2 224 1
2 230 1
2 239 1
2 240 1
2 243 1
2 247 1
2 256 1
2 261 1
2 262 1
2 263 1
2 265 1
2 268 1
2 269 1
2 275 1
2 278 1
2 285 1
2 290 1
2 301 1
2 303 1
2 306 1
2 310 1
2 312 1
2 314 1
2 317 1
2 318 1
2 321 1
2 327 1
2 333 1
2 339 1
2 347 1
2 349 1
2 351 1
2 353 1
2 358 1
2 366 1
2 368 1
2 380 1
2 381 1
2 390 1
2 392 1
2 393 1
2 402 1
2 406 1
2 407 1
2 410 1
2 423 1
2 427 1
2 430 1
2 431 1
2 440 1
2 449 1
2 454 1
2 458 1
2 459 1
2 471 1
2 475 1
2 482 1
2 483 1
2 494 1
2 499 1
2 510 1
2 515 1
2 517 1
2 520 1
2 522 1
2 527 1
2 531 1
2 532 1
2 534 1
2 538 1
2 539 1
2 542 1
2 546 1
2 552 1
2 560 1
2 561 1
2 566 1
2 577 1
2 579 1
2 586 1
2 589 1
2 600 1
2 601 1
2 603 1
2 616 1
2 618 1
2 637 1
2 638 1
2 644 1
2 650 1
2 658 1
2 665 1
2 681 1
2 685 1
2 695 1
2 697 1
3 4 1
3 13 1
3 16 1
3 17 1
3 31 1
3 40 1
3 47 1
3 49 1
3 50 1
3 58 1
3 61 1
3 64 1
3 67 1
3 73 1
3 74 1
3 75 1
3 76 1
3 78 1
3 85 1
3 86 1
3 87 1
3 103 1
3 105 1
3 109 1
3 113 1
3 114 1
3 117 1
3 119 1
3 124 1
3 127 1
3 128 1
3 131 1
3 133 1
3 136 1
3 150 1
3 152 1
3 162 1
3 163 1
3 169 1
3 172 1
3 179 1
3 180 1
3 185 1
3 187 1
3 189 1
3 196 1
3 199 1
3 207 1
3 210 1
3 215 1
3 223 1
3 228 1
3 231 1
3 237 1
3 238 1
3 239 1
3 242 1
3 243 1
3 244 1
3 245 1
3 249 1
3 266 1
3 275 1
3 276 1
3 277 1
3 285 1
3 286 1
3 288 1
3 290 1
3 295 1
3 301 1
3 302 1
3 304 1
3 311 1
3 316 1
3 323 1
3 324 1
3 326 1
3 328 1
3 330 1
3 337 1
3 347 1
3 351 1
3 355 1
3 356 1
3 358 1
3 361 1
3 365 1
3 372 1
3 375 1
3 379 1
3 397 1
3 402 1
3 415 1
3 416 1
3 423 1
3 435 1
3 438 1
3 443 1
3 444 1
3 451 1
3 452 1
3 457 1
3 462 1
3 463 1
3 472 1
3 484 1
3 485 1
3 491 1
3 499 1
3 515 1
3 516 1
3 524 1
3 528 1
3 531 1
3 532 1
3 535 1
3 539 1
3 543 1
3 544 1
3 549 1
3 556 1
3 562 1
3 568 1
3 570 1
3 573 1
3 574 1
3 577 1
3 578 1
3 584 1
3 589 1
3 592 1
3 594 1
3 595 1
3 600 1
3 602 1
3 605 1
3 608 1
3 609 1
3 614 1
3 618 1
3 620 1
3 625 1
3 631 1
3 634 1
3 636 1
3 638 1
3 643 1
3 645 1
3 648 1
3 652 1
3 656 1
3 659 1
3 666 1
3 691 1
3 692 1
3 697 1
4 3 1
4 8 1
4 11 1
4 13 1
4 23 1
4 29 1
4 31 1
4 37 1
4 49 1
4 51 1
4 52 1
4 55 1
4 66 1
4 70 1
4 72 1
4 85 1
4 102 1
4 103 1
4 107 1
4 108 1
4 110 1
4 115 1
4 125 1
4 132 1
4 134 1
4 136 1
4 139 1
4 142 1
4 147 1
4 151 1
4 166 1
4 167 1
4 178 1
4 182 1
4 192 1
4 195 1
4 199 1
4 207 1
4 210 1
4 212 1
4 218 1
4 221 1
4 234 1
4 249 1
4 250 1
4 251 1
4 257 1
4 259 1
4 260 1
4 269 1
4 271 1
4 272 1
4 279 1
4 283 1
4 293 1
4 295 1
4 302 1
4 305 1
4 306 1
4 315 1
4 325 1
4 331 1
4 334 1
4 335 1
4 344 1
4 352 1
4 355 1
4 356 1
4 357 1
4 365 1
4 376 1
4 379 1
4 381 1
4 384 1
4 389 1
4 391 1
4 393 1
4 411 1
4 435 1
4 438 1
4 458 1
4 461 1
4 473 1
4 474 1
4 477 1
4 480 1
4 485 1
4 489 1
4 503 1
4 508 1
4 513 1
4 518 1
4 523 1
4 532 1
4 533 1
4 536 1
4 539 1
4 541 1
4 542 1
4 553 1
4 564 1
4 569 1
4 571 1
4 578 1
4 581 1
4 585 1
4 610 1
4 614 1
4 622 1
4 628 1
4 629 1
4 649 1
4 656 1
4 666 1
4 670 1
4 672 1
4 678 1
4 680 1
4 685 1
4 687 1
4 690 1
4 692 1
4 695 1
4 699 1
5 7 1
5 20 1
5 27 1
5 36 1
5 39 1
5 63 1
5 64 1
5 65 1
5 77 1
5 81 1
5 86 1
5 88 1
5 102 1
5 105 1
5 110 1
5 115 1
5 116 1
5 117 1
5 120 1
5 122 1
5 123 1
5 124 1
5 128 1
5 131 1
5 132 1
5 149 1
5 150 1
5 153 1
5 155 1
5 156 1
5 161 1
5 168 1
5 182 1
5 183 1
5 188 1
5 196 1
5 202 1
5 207 1
5 210 1
5 212 1
5 218 1
5 219 1
5 223 1
5 226 1
5 229 1
5 241 1
5 242 1
5 244 1
5 259 1
5 264 1
5 270 1
5 276 1
5 283 1
5 290 1
5 291 1
5 300 1
5 301 1
5 302 1
5 310 1
5 312 1
5 321 1
5 325 1
5 328 1
5 329 1
5 340 1
5 341 1
5 346 1
5 351 1
5 354 1
5 357 1
5 379 1
5 381 1
5 385 1
5 386 1
5 387 1
5 394 1
5 399 1
5 403 1
5 404 1
5 407 1
5 412 1
5 418 1
5 419 1
5 427 1
5 428 1
5 432 1
5 439 1
5 442 1
5 443 1
5 450 1
5 452 1
5 454 1
5 456 1
5 459 1
5 465 1
5 468 1
5 479 1
5 482 1
5 493 1
5 494 1
5 497 1
5 502 1
5 505 1
5 509 1
5 513 1
5 518 1
5 521 1
5 525 1
5 526 1
5 527 1
5 533 1
5 539 1
5 550 1
5 551 1
5 552 1
5 559 1
5 563 1
5 568 1
5 573 1
5 579 1
5 582 1
5 583 1
5 584 1
5 594 1
5 600 1
5 607 1
5 609 1
5 613 1
5 618 1
5 619 1
5 621 1
5 623 1
5 626 1
5 631 1
5 639 1
5 657 1
5 660 1
5 667 1
5 673 1
5 675 1
5 683 1
5 684 1
5 686 1
5 687 1
5 690 1
5 693 1
5 695 1
5 698 1
5 699 1
6 1 1
6 14 1
6 15 1
6 36 1
6 37 1
6 51 1
6 54 1
6 57 1
6 60 1
6 63 1
6 67 1
6 80 1
6 81 1
6 83 1
6 88 1
6 91 1
6 92 1
6 97 1
6 102 1
6 104 1
6 106 1
6 120 1
6 129 1
6 131 1
6 134 1
6 146 1
6 148 1
6 149 1
6 151 1
6 153 1
6 154 1
6 158 1
6 175 1
6 176 1
6 181 1
6 185 1
6 189 1
6 193 1
6 205 1
6 212 1
6 213 1
6 232 1
6 234 1
6 239 1
6 242 1
6 249 1
6 254 1
6 257 1
6 258 1
6 268 1
6 278 1
6 280 1
6 284 1
6 291 1
6 292 1
6 298 1
6 305 1
6 308 1
6 324 1
6 331 1
6 335 1
6 336 1
6 342 1
6 350 1
6 353 1
6 354 1
6 362 1
6 369 1
6 370 1
6 371 1
6 372 1
6 374 1
6 375 1
6 380 1
6 389 1
6 390 1
6 391 1
6 392 1
6 393 1
6 400 1
6 403 1
6 405 1
6 414 1
6 417 1
6 418 1
6 422 1
6 427 1
6 430 1
6 435 1
6 438 1
6 440 1
6 442 1
6 445 1
6 446 1
6 448 1
6 467 1
6 473 1
6 476 1
6 508 1
6 509 1
6 515 1
6 530 1
6 542 1
6 547 1
6 549 1
6 550 1
6 552 1
6 554 1
6 559 1
6 561 1
6 565 1
6 566 1
6 567 1
6 568 1
6 569 1
6 578 1
6 582 1
6 584 1
6 587 1
6 589 1
6 591 1
6 620 1
6 622 1
6 625 1
6 626 1
6 649 1
6 650 1
6 658 1
6 670 1
6 673 1
6 681 1
6 685 1
7 2 1
7 5 1
7 9 1
7 11 1
7 19 1
7 28 1
7 31 1
7 36 1
7 37 1
7 39 1
7 42 1
7 45 1
7 46 1
7 47 1
7 50 1
7 57 1
7 66 1
7 70 1
7 76 1
7 78 1
7 85 1
7 87 1
7 90 1
7 97 1
7 99 1
7 101 1
7 114 1
7 123 1
7 124 1
7 127 1
7 135 1
7 138 1
7 144 1
7 147 1
7 150 1
7 154 1
7 159 1
7 163 1
7 177 1
7 180 1
7 186 1
7 187 1
7 194 1
7 196 1
7 202 1
7 204 1
7 212 1
7 214 1
7 225 1
7 233 1
7 236 1
7 239 1
7 247 1
7 253 1
7 255 1
7 256 1
7 260 1
7 263 1
7 269 1
7 271 1
7 273 1
7 276 1
7 286 1
7 293 1
7 296 1
7 304 1
7 307 1
7 309 1
7 320 1
7 330 1
7 334 1
7 339 1
7 340 1
7 347 1
7 354 1
7 356 1
7 359 1
7 364 1
7 365 1
7 368 1
7 370 1
7 372 1
7 380 1
7 389 1
7 394 1
7 396 1
7 406 1
7 417 1
7 429 1
7 435 1
7 437 1
7 440 1
7 443 1
7 445 1
7 458 1
7 460 1
7 465 1
7 466 1
7 471 1
7 484 1
7 486 1
7 492 1
7 495 1
7 507 1
7 509 1
7 521 1
7 524 1
7 525 1
7 532 1
7 535 1
7 543 1
7 551 1
7 558 1
7 561 1
7 566 1
7 578 1
7 582 1
7 588 1
7 590 1
7 594 1
7 595 1
7 597 1
7 603 1
7 609 1
7 611 1
7 617 1
7 625 1
7 627 1
7 630 1
7 633 1
7 638 1
7 649 1
7 650 1
7 654 1
7 664 1
7 670 1
7 671 1
7 672 1
7 682 1
7 688 1
7 691 1
7 695 1
7 696 1
7 700 1
8 4 1
8 23 1
8 28 1
8 30 1
8 32 1
8 35 1
8 36 1
8 41 1
8 48 1
8 57 1
8 60 1
8 62 1
8 65 1
8 66 1
8 75 1
8 81 1
8 92 1
8 94 1
8 96 1
8 97 1
8 98 1
8 104 1
8 107 1
8 117 1
8 119 1
8 123 1
8 125 1
8 126 1
8 130 1
8 135 1
8 138 1
8 139 1
8 142 1
8 151 1
8 157 1
8 159 1
8 167 1
8 168 1
8 170 1
8 183 1
8 190 1
8 193 1
8 208 1
8 213 1
8 216 1
8 229 1
8 237 1
8 240 1
8 241 1
8 256 1
8 261 1
8 264 1
8 275 1
8 277 1
8 286 1
8 289 1
8 296 1
8 304 1
8 309 1
8 310 1
8 314 1
8 315 1
8 319 1
8 320 1
8 324 1
8 325 1
8 328 1
8 329 1
8 347 1
8 350 1
8 362 1
8 363 1
8 367 1
8 377 1
8 379 1
8 380 1
8 383 1
8 384 1
8 386 1
8 394 1
8 399 1
8 401 1
8 404 1
8 410 1
8 415 1
8 422 1
8 426 1
8 428 1
8 432 1
8 433 1
8 437 1
8 441 1
8 446 1
8 455 1
8 459 1
8 464 1
8 484 1
8 488 1
8 493 1
8 494 1
8 498 1
8 499 1
8 517 1
8 536 1
8 542 1
8 545 1
8 547 1
8 548 1
8 553 1
8 555 1
8 557 1
8 568 1
8 570 1
8 573 1
8 579 1
8 582 1
8 595 1
8 598 1
8 600 1
8 610 1
8 611 1
8 628 1
8 633 1
8 639 1
8 641 1
8 642 1
8 644 1
8 648 1
8 652 1
8 654 1
8 662 1
8 664 1
8 673 1
8 674 1
8 675 1
8 677 1
8 678 1
8 679 1
8 681 1
8 687 1
8 688 1
8 695 1
8 696 1
8 698 1
9 2 1
9 7 1
9 13 1
9 27 1
9 29 1
9 32 1
9 33 1
9 42 1
9 51 1
9 59 1
9 64 1
9 66 1
9 70 1
9 77 1
9 78 1
9 83 1
9 90 1
9 91 1
9 95 1
9 101 1
9 106 1
9 108 1
9 119 1
9 126 1
9 127 1
9 134 1
9 135 1
9 152 1
9 157 1
9 170 1
9 173 1
9 174 1
9 181 1
9 184 1
9 185 1
9 192 1
9 193 1
9 195 1
9 196 1
9 197 1
9 199 1
9 200 1
9 203 1
9 207 1
9 212 1
9 214 1
9 215 1
9 216 1
9 220 1
9 224 1
9 235 1
9 236 1
9 237 1
9 240 1
9 245 1
9 254 1
9 258 1
9 263 1
9 269 1
9 271 1
9 273 1
9 274 1
9 275 1
9 292 1
9 293 1
9 297 1
9 303 1
9 314 1
9 315 1
9 316 1
9 322 1
9 324 1
9 333 1
9 337 1
9 338 1
9 353 1
9 354 1
9 358 1
9 360 1
9 361 1
9 362 1
9 363 1
9 365 1
9 373 1
9 374 1
9 375 1
9 378 1
9 379 1
9 380 1
9 381 1
9 382 1
9 386 1
9 388 1
9 402 1
9 403 1
9 405 1
9 406 1
9 408 1
9 410 1
9 418 1
9 423 1
9 429 1
9 430 1
9 435 1
9 444 1
9 445 1
9 455 1
9 456 1
9 460 1
9 464 1
9 470 1
9 483 1
9 494 1
9 498 1
9 503 1
9 505 1
9 509 1
9 518 1
9 531 1
9 536 1
9 539 1
9 541 1
9 546 1
9 547 1
9 551 1
9 553 1
9 557 1
9 563 1
9 565 1
9 575 1
9 579 1
9 587 1
9 589 1
9 590 1
9 598 1
9 600 1
9 607 1
9 612 1
9 628 1
9 637 1
9 645 1
9 646 1
9 647 1
9 650 1
9 666 1
9 669 1
9 670 1
9 674 1
9 675 1
9 677 1
9 681 1
9 682 1
9 686 1
9 687 1
9 697 1
9 698 1
10 1 1
10 12 1
10 16 1
10 17 1
10 18 1
10 23 1
10 30 1
10 44 1
10 70 1
10 78 1
10 88 1
10 95 1
10 102 1
10 105 1
10 111 1
10 115 1
10 124 1
10 127 1
10 128 1
10 129 1
10 131 1
10 132 1
10 138 1
10 144 1
10 146 1
10 152 1
10 160 1
10 164 1
10 167 1
10 181 1
10 182 1
10 184 1
10 185 1
10 197 1
10 203 1
10 220 1
10 223 1
10 226 1
10 229 1
10 230 1
10 232 1
10 235 1
10 239 1
10 243 1
10 248 1
10 249 1
10 251 1
10 268 1
10 271 1
10 288 1
10 301 1
10 302 1
10 305 1
10 309 1
10 323 1
10 325 1
10 328 1
10 331 1
10 338 1
10 340 1
10 353 1
10 357 1
10 360 1
10 363 1
10 364 1
10 366 1
10 367 1
10 368 1
10 380 1
10 389 1
10 391 1
10 392 1
10 393 1
10 395 1
10 397 1
10 400 1
10 404 1
10 416 1
10 422 1
10 424 1
10 427 1
10 432 1
10 436 1
10 440 1
10 445 1
10 458 1
10 463 1
10 465 1
10 467 1
10 468 1
10 471 1
10 474 1
10 483 1
10 488 1
10 516 1
10 520 1
10 521 1
10 530 1
10 531 1
10 532 1
10 534 1
10 541 1
10 546 1
10 547 1
10 548 1
10 551 1
10 557 1
10 570 1
10 577 1
10 584 1
10 585 1
10 588 1
10 591 1
10 592 1
10 593 1
10 595 1
10 597 1
10 609 1
10 617 1
10 622 1
10 635 1
10 636 1
10 639 1
10 640 1
10 643 1
10 652 1
10 653 1
10 654 1
10 659 1
10 663 1
10 665 1
10 681 1
10 683 1
10 693 1
11 4 1
11 7 1
11 13 1
11 21 1
11 26 1
11 28 1
11 35 1
11 43 1
11 46 1
11 51 1
11 55 1
11 67 1
11 71 1
11 80 1
11 84 1
11 85 1
11 86 1
11 94 1
11 96 1
11 110 1
11 115 1
11 116 1
11 122 1
11 124 1
11 128 1
11 142 1
11 148 1
11 155 1
11 164 1
11 179 1
11 185 1
11 187 1
11 193 1
11 196 1
11 202 1
11 204 1
11 211 1
11 215 1
11 220 1
11 228 1
11 232 1
11 237 1
11 244 1
11 248 1
11 251 1
11 253 1
11 257 1
11 260 1
11 264 1
11 272 1
11 276 1
11 277 1
11 279 1
11 281 1
11 293 1
11 299 1
11 322 1
11 332 1
11 345 1
11 354 1
11 360 1
11 364 1
11 366 1
11 367 1
11 369 1
11 370 1
11 375 1
11 387 1
11 388 1
11 390 1
11 391 1
11 392 1
11 397 1
11 404 1
11 408 1
11 411 1
11 425 1
11 429 1
11 432 1
11 433 1
11 434 1
11 440 1
11 441 1
11 442 1
11 448 1
11 449 1
11 450 1
11 451 1
11 458 1
11 466 1
11 469 1
11 479 1
11 482 1
11 496 1
11 497 1
11 513 1
11 519 1
11 520 1
11 529 1
11 543 1
11 546 1
11 550 1
11 569 1
11 580 1
11 581 1
11 583 1
11 584 1
11 591 1
11 606 1
11 623 1
11 624 1
11 625 1
11 627 1
11 631 1
11 644 1
11 655 1
11 658 1
11 659 1
11 661 1
11 665 1
11 669 1
11 690 1
11 700 1
12 1 1
12 10 1
12 19 1
12 23 1
12 26 1
12 27 1
12 29 1
12 31 1
12 35 1
12 36 1
12 52 1
12 54 1
12 60 1
12 67 1
12 68 1
12 72 1
12 76 1
12 81 1
12 85 1
12 89 1
12 99 1
12 111 1
12 118 1
12 131 1
12 136 1
12 137 1
12 138 1
12 145 1
12 150 1
12 151 1
12 156 1
12 157 1
12 158 1
12 161 1
12 164 1
12 167 1
12 168 1
12 176 1
12 180 1
12 184 1
12 186 1
12 189 1
12 194 1
12 195 1
12 198 1
12 199 1
12 202 1
12 205 1
12 209 1
12 215 1
12 221 1
12 226 1
12 229 1
12 233 1
12 237 1
12 238 1
12 243 1
12 247 1
12 251 1
12 253 1
12 261 1
12 266 1
12 268 1
12 293 1
12 296 1
12 306 1
12 312 1
12 324 1
12 332 1
12 334 1
12 337 1
12 340 1
12 344 1
12 349 1
12 355 1
12 359 1
12 374 1
12 375 1
12 381 1
12 386 1
12 397 1
12 408 1
12 409 1
12 415 1
12 419 1
12 420 1
12 424 1
12 428 1
12 434 1
12 435 1
12 437 1
12 442 1
12 443 1
12 444 1
12 446 1
12 453 1
12 457 1
12 470 1
12 475 1
12 479 1
12 490 1
12 491 1
12 492 1
12 493 1
12 497 1
12 500 1
12 509 1
12 511 1
12 521 1
12 536 1
12 556 1
12 559 1
12 563 1
12 570 1
12 578 1
12 582 1
12 585 1
12 587 1
12 588 1
12 589 1
12 596 1
12 615 1
12 627 1
12 631 1
12 637 1
12 638 1
12 650 1
12 654 1
12 655 1
12 665 1
12 667 1
12 675 1
12 683 1
12 690 1
13 3 1
13 4 1
13 9 1
13 11 1
13 14 1
13 20 1
13 25 1
13 27 1
13 33 1
13 34 1
13 36 1
13 42 1
13 44 1
13 45 1
13 48 1
13 49 1
13 50 1
13 53 1
13 57 1
13 59 1
13 78 1
13 83 1
13 94 1
13 114 1
13 124 1
13 132 1
13 140 1
13 144 1
13 147 1
13 153 1
13 154 1
13 155 1
13 168 1
13 175 1
13 176 1
13 189 1
13 197 1
13 206 1
13 209 1
13 211 1
13 217 1
13 222 1
13 223 1
13 236 1
13 240 1
13 245 1
13 251 1
13 257 1
13 267 1
13 268 1
13 277 1
13 279 1
13 282 1
13 289 1
13 308 1
13 321 1
13 329 1
13 332 1
13 333 1
13 338 1
13 341 1
13 346 1
13 350 1
13 360 1
13 370 1
13 372 1
13 374 1
13 376 1
13 378 1
13 379 1
13 381 1
13 382 1
13 385 1
13 387 1
13 388 1
13 389 1
13 394 1
13 395 1
13 397 1
13 402 1
13 413 1
13 423 1
13 427 1
13 429 1
13 439 1
13 442 1
13 445 1
13 452 1
13 454 1
13 456 1
13 461 1
13 467 1
13 474 1
13 478 1
13 485 1
13 490 1
13 492 1
13 493 1
13 495 1
13 498 1
13 502 1
13 503 1
13 505 1
13 516 1
13 531 1
13 532 1
13 534 1
13 537 1
13 546 1
13 548 1
13 555 1
13 560 1
13 564 1
13 570 1
13 578 1
13 584 1
13 588 1
13 592 1
13 593 1
13 604 1
13 610 1
13 621 1
13 629 1
13 633 1
13 634 1
13 635 1
13 645 1
13 649 1
13 652 1
13 663 1
13 666 1
13 673 1
13 685 1
13 694 1
13 698 1
14 6 1
14 13 1
14 15 1
14 22 1
14 23 1
14 24 1
14 33 1
14 34 1
14 35 1
14 36 1
14 39 1
14 42 1
14 43 1
14 44 1
14 49 1
14 60 1
14 61 1
14 65 1
14 70 1
14 76 1
14 82 1
14 90 1
14 96 1
14 106 1
14 107 1
14 108 1
14 109 1
14 110 1
14 118 1
14 120 1
14 124 1
14 125 1
14 126 1
14 133 1
14 136 1
14 139 1
14 145 1
14 151 1
14 159 1
14 163 1
14 170 1
14 173 1
14 176 1
14 184 1
14 194 1
14 197 1
14 198 1
14 201 1
14 211 1
14 223 1
14 230 1
14 239 1
14 242 1
14 246 1
14 247 1
14 256 1
14 257 1
14 258 1
14 259 1
14 273 1
14 288 1
14 294 1
14 299 1
14 302 1
14 303 1
14 309 1
14 310 1
14 318 1
14 324 1
14 333 1
14 358 1
14 362 1
14 366 1
14 369 1
14 372 1
14 374 1
14 378 1
14 379 1
14 381 1
14 383 1
14 387 1
14 396 1
14 401 1
14 404 1
14 405 1
14 406 1
14 409 1
14 410 1
14 440 1
14 456 1
14 462 1
14 470 1
14 476 1
14 482 1
14 485 1
14 488 1
14 492 1
14 497 1
14 502 1
14 511 1
14 526 1
14 532 1
14 533 1
14 534 1
14 536 1
14 544 1
14 560 1
14 562 1
14 568 1
14 569 1
14 570 1
14 572 1
14 573 1
14 580 1
14 585 1
14 589 1
14 591 1
14 597 1
14 600 1
14 609 1
14 612 1
14 619 1
14 623 1
14 627 1
14 637 1
14 638 1
14 640 1
14 643 1
14 644 1
14 650 1
14 658 1
14 665 1
14 666 1
14 670 1
14 674 1
14 675 1
14 676 1
14 677 1
14 689 1
14 692 1
14 695 1
14 698 1
15 6 1
15 14 1
15 23 1
15 26 1
15 27 1
15 28 1
15 33 1
15 34 1
15 38 1
15 40 1
15 49 1
15 51 1
15 54 1
15 57 1
15 62 1
15 64 1
15 65 1
15 68 1
15 71 1
15 78 1
15 85 1
15 87 1
15 91 1
15 99 1
15 100 1
15 110 1
15 122 1
15 138 1
15 144 1
15 145 1
15 147 1
15 152 1
15 156 1
15 158 1
15 161 1
15 162 1
15 166 1
15 179 1
15 181 1
15 191 1
15 202 1
15 216 1
15 232 1
15 233 1
15 238 1
15 239 1
15 241 1
15 242 1
15 244 1
15 253 1
15 254 1
15 258 1
15 268 1
15 270 1
15 274 1
15 276 1
15 280 1
15 294 1
15 297 1
15 298 1
15 312 1
15 314 1
15 317 1
15 322 1
15 328 1
15 329 1
15 339 1
15 349 1
15 352 1
15 373 1
15 375 1
15 384 1
15 386 1
15 388 1
15 391 1
15 405 1
15 411 1
15 412 1
15 414 1
15 418 1
15 428 1
15 437 1
15 445 1
15 447 1
15 448 1
15 454 1
15 457 1
15 459 1
15 461 1
15 464 1
15 466 1
15 468 1
15 479 1
15 484 1
15 485 1
15 498 1
15 505 1
15 512 1
15 522 1
15 525 1
15 529 1
15 532 1
15 535 1
15 539 1
15 542 1
15 544 1
15 549 1
15 561 1
15 565 1
15 566 1
15 567 1
15 570 1
15 574 1
15 577 1
15 584 1
15 585 1
15 600 1
15 602 1
15 603 1
15 620 1
15 625 1
15 642 1
15 648 1
15 649 1
15 658 1
15 660 1
15 665 1
15 666 1
15 671 1
15 672 1
15 673 1
15 679 1
15 682 1
15 684 1
15 685 1
15 690 1
15 691 1
15 697 1
16 1 1
16 3 1
16 10 1
16 26 1
16 53 1
16 54 1
16 60 1
16 65 1
16 66 1
16 67 1
16 69 1
16 82 1
16 84 1
16 86 1
16 89 1
16 90 1
16 107 1
16 110 1
16 115 1
16 118 1
16 119 1
16 126 1
16 136 1
16 139 1
16 145 1
16 153 1
16 155 1
16 158 1
16 162 1
16 177 1
16 183 1
16 187 1
16 190 1
16 204 1
16 208 1
16 213 1
16 215 1
16 217 1
16 220 1
16 235 1
16 242 1
16 243 1
16 250 1
16 254 1
16 258 1
16 261 1
16 262 1
16 278 1
16 286 1
16 293 1
16 295 1
16 316 1
16 319 1
16 320 1
16 321 1
16 322 1
16 339 1
16 340 1
16 348 1
16 350 1
16 369 1
16 371 1
16 375 1
16 376 1
16 384 1
16 389 1
16 391 1
16 392 1
16 394 1
16 395 1
16 399 1
16 409 1
16 425 1
16 429 1
16 444 1
16 445 1
16 452 1
16 459 1
16 465 1
16 477 1
16 480 1
16 481 1
16 482 1
16 484 1
16 485 1
16 486 1
16 497 1
16 498 1
16 503 1
16 506 1
16 511 1
16 512 1
16 533 1
16 543 1
16 553 1
16 557 1
16 562 1
16 570 1
16 588 1
16 589 1
16 594 1
16 597 1
16 598 1
16 599 1
16 611 1
16 617 1
16 626 1
16 628 1
16 631 1
16 643 1
16 644 1
16 647 1
16 648 1
16 650 1
16 655 1
16 660 1
16 664 1
16 669 1
16 673 1
16 680 1
16 681 1
16 683 1
16 686 1
16 687 1
16 691 1
16 694 1
16 695 1
17 3 1
17 10 1
17 20 1
17 22 1
17 23 1
17 40 1
17 42 1
17 50 1
17 54 1
17 60 1
17 63 1
17 64 1
17 70 1
17 78 1
17 80 1
17 85 1
17 90 1
17 108 1
17 116 1
17 117 1
17 129 1
17 133 1
17 138 1
17 139 1
17 143 1
17 150 1
17 157 1
17 161 1
17 162 1
17 166 1
17 173 1
17 177 1
17 179 1
17 183 1
17 187 1
17 188 1
17 189 1
17 190 1
17 191 1
17 193 1
17 200 1
17 215 1
17 221 1
17 222 1
17 233 1
17 236 1
17 240 1
17 252 1
17 255 1
17 260 1
17 261 1
17 262 1
17 264 1
17 271 1
17 275 1
17 288 1
17 294 1
17 295 1
17 298 1
17 310 1
17 321 1
17 328 1
17 331 1
17 334 1
17 342 1
17 344 1
17 350 1
17 356 1
17 367 1
17 369 1
17 376 1
17 381 1
17 386 1
17 392 1
17 393 1
17 400 1
17 408 1
17 417 1
17 418 1
17 428 1
17 431 1
17 441 1
17 442 1
17 450 1
17 451 1
17 452 1
17 469 1
17 472 1
17 480 1
17 483 1
17 487 1
17 491 1
17 498 1
17 501 1
17 502 1
17 513 1
17 523 1
17 527 1
17 530 1
17 534 1
17 539 1
17 544 1
17 549 1
17 553 1
17 554 1
17 557 1
17 562 1
17 575 1
17 579 1
17 593 1
17 598 1
17 599 1
17 605 1
17 606 1
17 610 1
17 611 1
17 613 1
17 616 1
17 618 1
17 619 1
17 621 1
17 650 1
17 651 1
17 654 1
17 655 1
17 660 1
17 663 1
17 665 1
17 666 1
17 669 1
17 677 1
17 686 1
17 688 1
17 690 1
17 696 1
18 2 1
18 10 1
18 21 1
18 25 1
18 28 1
18 29 1
18 33 1
18 35 1
18 48 1
18 49 1
18 51 1
18 74 1
18 78 1
18 79 1
18 84 1
18 85 1
18 110 1
18 111 1
18 121 1
18 133 1
18 134 1
18 137 1
18 139 1
18 141 1
18 149 1
18 155 1
18 159 1
18 162 1
18 172 1
18 178 1
18 180 1
18 187 1
18 188 1
18 208 1
18 209 1
18 210 1
18 211 1
18 212 1
18 215 1
18 218 1
18 225 1
18 226 1
18 238 1
18 243 1
18 254 1
18 256 1
18 260 1
18 263 1
18 266 1
18 268 1
18 271 1
18 275 1
18 276 1
18 286 1
18 290 1
18 293 1
18 303 1
18 310 1
18 312 1
18 339 1
18 342 1
18 353 1
18 357 1
18 360 1
18 366 1
18 380 1
18 382 1
18 386 1
18 388 1
18 389 1
18 394 1
18 395 1
18 398 1
18 409 1
18 416 1
18 417 1
18 419 1
18 420 1
18 425 1
18 439 1
18 442 1
18 443 1
18 446 1
18 448 1
18 449 1
18 458 1
18 465 1
18 468 1
18 470 1
18 471 1
18 473 1
18 474 1
18 475 1
18 478 1
18 484 1
18 487 1
18 491 1
18 492 1
18 493 1
18 494 1
18 499 1
18 501 1
18 505 1
18 511 1
18 519 1
18 521 1
18 522 1
18 529 1
18 531 1
18 535 1
18 543 1
18 548 1
18 550 1
18 556 1
18 557 1
18 562 1
18 564 1
18 572 1
18 581 1
18 584 1
18 587 1
18 591 1
18 601 1
18 612 1
18 613 1
18 614 1
18 616 1
18 618 1
18 624 1
18 629 1
18 633 1
18 642 1
18 649 1
18 653 1
18 655 1
18 665 1
18 666 1
18 667 1
18 668 1
18 675 1
18 691 1
18 698 1
18 699 1
19 7 1
19 12 1
19 20 1
19 23 1
19 41 1
19 42 1
19 44 1
19 46 1
19 56 1
19 58 1
19 60 1
19 63 1
19 64 1
19 84 1
19 88 1
19 89 1
19 92 1
19 94 1
19 103 1
19 105 1
19 110 1
19 113 1
19 118 1
19 126 1
19 127 1
19 135 1
19 136 1
19 144 1
19 151 1
19 172 1
19 173 1
19 179 1
19 180 1
19 182 1
19 196 1
19 197 1
19 201 1
19 206 1
19 208 1
19 211 1
19 217 1
19 218 1
19 221 1
19 222 1
19 223 1
19 228 1
19 246 1
19 247 1
19 254 1
19 261 1
19 264 1
19 265 1
19 272 1
19 274 1
19 276 1
19 278 1
19 287 1
19 289 1
19 290 1
19 291 1
19 294 1
19 298 1
19 300 1
19 304 1
19 307 1
19 316 1
19 319 1
19 325 1
19 346 1
19 355 1
19 378 1
19 379 1
19 381 1
19 404 1
19 413 1
19 416 1
19 425 1
19 438 1
19 446 1
19 448 1
19 457 1
19 460 1
19 462 1
19 467 1
19 477 1
19 486 1
19 488 1
19 508 1
19 523 1
19 529 1
19 532 1
19 553 1
19 562 1
19 576 1
19 578 1
19 589 1
19 592 1
19 593 1
19 601 1
19 602 1
19 611 1
19 616 1
19 617 1
19 620 1
19 628 1
19 632 1
19 649 1
19 650 1
19 653 1
19 655 1
19 660 1
19 661 1
19 663 1
19 664 1
19 666 1
19 674 1
19 676 1
19 680 1
19 682 1
19 697 1
20 5 1
20 13 1
20 17 1
20 19 1
20 28 1
20 32 1
20 34 1
20 35 1
20 46 1
20 50 1
20 53 1
20 56 1
20 57 1
20 58 1
20 62 1
20 70 1
20 73 1
20 74 1
20 76 1
20 80 1
20 87 1
20 96 1
20 102 1
20 104 1
20 106 1
20 107 1
20 111 1
20 112 1
20 117 1
20 126 1
20 133 1
20 148 1
20 163 1
20 167 1
20 190 1
20 192 1
20 196 1
20 207 1
20 208 1
20 211 1
20 220 1
20 221 1
20 227 1
20 229 1
20 235 1
20 239 1
20 250 1
20 251 1
20 256 1
20 259 1
20 265 1
20 266 1
20 267 1
20 270 1
20 277 1
20 285 1
20 286 1
20 290 1
20 293 1
20 300 1
20 301 1
20 306 1
20 310 1
20 314 1
20 317 1
20 319 1
20 320 1
20 322 1
20 332 1
20 333 1
20 334 1
20 336 1
20 339 1
20 341 1
20 343 1
20 347 1
20 355 1
20 361 1
20 362 1
20 364 1
20 365 1
20 370 1
20 382 1
20 387 1
20 397 1
20 412 1
20 413 1
20 416 1
20 418 1
20 424 1
20 427 1
20 434 1
20 438 1
20 447 1
20 448 1
20 449 1
20 450 1
20 451 1
20 455 1
20 456 1
20 459 1
20 460 1
20 461 1
20 462 1
20 466 1
20 473 1
20 476 1
20 483 1
20 485 1
20 490 1
20 501 1
20 513 1
20 515 1
20 516 1
20 521 1
20 522 1
20 524 1
20 529 1
20 535 1
20 538 1
20 546 1
20 547 1
20 551 1
20 562 1
20 565 1
20 568 1
20 573 1
20 574 1
20 577 1
20 582 1
20 586 1
20 597 1
20 601 1
20 612 1
20 615 1
20 616 1
20 620 1
20 627 1
20 631 1
20 633 1
20 641 1
20 644 1
20 647 1
20 650 1
20 656 1
20 658 1
20 659 1
20 664 1
20 682 1
20 691 1
20 698 1
21 11 1
21 18 1
21 25 1
21 30 1
21 31 1
21 41 1
21 44 1
21 47 1
21 54 1
21 57 1
21 71 1
21 74 1
21 78 1
21 79 1
21 80 1
21 90 1
21 104 1
21 112 1
21 114 1
21 123 1
21 135 1
21 144 1
21 153 1
21 155 1
21 164 1
21 173 1
21 176 1
21 194 1
21 196 1
21 212 1
21 227 1
21 229 1
21 236 1
21 249 1
21 258 1
21 279 1
21 288 1
21 289 1
21 292 1
21 299 1
21 301 1
21 306 1
21 327 1
21 328 1
21 340 1
21 347 1
21 352 1
21 364 1
21 370 1
21 371 1
21 376 1
21 384 1
21 386 1
21 398 1
21 400 1
21 402 1
21 409 1
21 410 1
21 412 1
21 417 1
21 418 1
21 419 1
21 429 1
21 432 1
21 435 1
21 436 1
21 442 1
21 446 1
21 447 1
21 448 1
21 449 1
21 451 1
21 452 1
21 460 1
21 471 1
21 474 1
21 476 1
21 485 1
21 499 1
21 500 1
21 503 1
21 507 1
21 515 1
21 520 1
21 522 1
21 523 1
21 524 1
21 525 1
21 534 1
21 536 1
21 541 1
21 544 1
21 548 1
21 549 1
21 561 1
21 569 1
21 576 1
21 586 1
21 587 1
21 597 1
21 609 1
21 614 1
21 629 1
21 632 1
21 633 1
21 634 1
21 635 1
21 636 1
21 639 1
21 642 1
21 650 1
21 652 1
21 654 1
21 659 1
21 660 1
21 677 1
21 685 1
21 688 1
21 692 1
21 693 1
21 694 1
21 695 1
22 14 1
22 17 1
22 25 1
22 29 1
22 30 1
22 32 1
22 39 1
22 41 1
22 43 1
22 44 1
22 49 1
22 57 1
22 58 1
22 61 1
22 73 1
22 83 1
22 85 1
22 89 1
22 93 1
22 94 1
22 99 1
22 110 1
22 114 1
22 115 1
22 119 1
22 121 1
22 124 1
22 128 1
22 129 1
22 132 1
22 137 1
22 143 1
22 145 1
22 147 1
22 165 1
22 170 1
22 171 1
22 175 1
22 180 1
22 182 1
22 183 1
22 186 1
22 188 1
22 192 1
22 197 1
22 207 1
22 212 1
22 217 1
22 221 1
22 241 1
22 254 1
22 255 1
22 262 1
22 271 1
22 275 1
22 276 1
22 285 1
22 289 1
22 292 1
22 294 1
22 298 1
22 304 1
22 310 1
22 322 1
22 331 1
22 335 1
22 340 1
22 347 1
22 362 1
22 363 1
22 364 1
22 368 1
22 373 1
22 383 1
22 387 1
22 389 1
22 390 1
22 393 1
22 394 1
22 399 1
22 400 1
22 405 1
22 409 1
22 421 1
22 428 1
22 429 1
22 430 1
22 433 1
22 442 1
22 449 1
22 453 1
22 454 1
22 464 1
22 471 1
22 477 1
22 479 1
22 482 1
22 485 1
22 490 1
22 497 1
22 500 1
22 502 1
22 503 1
22 505 1
22 522 1
22 523 1
22 531 1
22 532 1
22 572 1
22 573 1
22 580 1
22 582 1
22 585 1
22 586 1
22 587 1
22 590 1
22 596 1
22 607 1
22 613 1
22 618 1
22 622 1
22 623 1
22 624 1
22 628 1
22 629 1
22 630 1
22 641 1
22 642 1
22 643 1
22 652 1
22 653 1
22 654 1
22 662 1
22 665 1
22 668 1
22 672 1
22 674 1
22 680 1
22 681 1
22 686 1
22 694 1
22 697 1
22 698 1
22 699 1
23 4 1
23 8 1
23 10 1
23 12 1
23 14 1
23 15 1
23 17 1
23 19 1
23 30 1
23 37 1
23 38 1
23 40 1
23 41 1
23 44 1
23 55 1
23 57 1
23 59 1
23 62 1
23 66 1
23 76 1
23 85 1
23 93 1
23 102 1
23 103 1
23 105 1
23 113 1
23 114 1
23 118 1
23 126 1
23 135 1
23 144 1
23 148 1
23 149 1
23 150 1
23 158 1
23 169 1
23 170 1
23 188 1
23 190 1
23 191 1
23 198 1
23 203 1
23 213 1
23 215 1
23 226 1
23 232 1
23 236 1
23 251 1
23 252 1
23 255 1
23 262 1
23 265 1
23 266 1
23 275 1
23 277 1
23 281 1
23 282 1
23 283 1
23 287 1
23 293 1
23 301 1
23 308 1
23 316 1
23 319 1
23 323 1
23 326 1
23 328 1
23 332 1
23 334 1
23 341 1
23 343 1
23 345 1
23 355 1
23 356 1
23 364 1
23 366 1
23 370 1
23 381 1
23 383 1
23 388 1
23 389 1
23 390 1
23 395 1
23 396 1
23 399 1
23 402 1
23 415 1
23 422 1
23 425 1
23 429 1
23 437 1
23 441 1
23 443 1
23 449 1
23 456 1
23 462 1
23 463 1
23 465 1
23 466 1
23 480 1
23 484 1
23 487 1
23 490 1
23 498 1
23 501 1
23 505 1
23 513 1
23 515 1
23 516 1
23 518 1
23 521 1
23 524 1
23 534 1
23 535 1
23 545 1
23 553 1
23 555 1
23 563 1
23 569 1
23 582 1
23 586 1
23 588 1
23 590 1
23 592 1
23 597 1
23 598 1
23 600 1
23 605 1
23 613 1
23 621 1
23 628 1
23 638 1
23 642 1
23 643 1
23 647 1
23 651 1
23 658 1
23 666 1
23 667 1
23 671 1
23 675 1
23 678 1
23 681 1
23 687 1
23 690 1
23 692 1
23 700 1
24 14 1
24 25 1
24 30 1
24 34 1
24 35 1
24 43 1
24 48 1
24 50 1
24 51 1
24 56 1
24 60 1
24 64 1
24 66 1
24 67 1
24 71 1
24 75 1
24 79 1
24 85 1
24 88 1
24 96 1
24 97 1
24 98 1
24 101 1
24 107 1
24 110 1
24 115 1
24 121 1
24 122 1
24 124 1
24 129 1
24 132 1
24 133 1
24 135 1
24 143 1
24 144 1
24 150 1
24 151 1
24 172 1
24 179 1
24 181 1
24 191 1
24 196 1
24 202 1
24 204 1
24 206 1
24 230 1
24 232 1
24 234 1
24 238 1
24 241 1
24 248 1
24 250 1
24 256 1
24 262 1
24 264 1
24 271 1
24 274 1
24 277 1
24 284 1
24 286 1
24 287 1
24 289 1
24 296 1
24 303 1
24 310 1
24 314 1
24 317 1
24 318 1
24 319 1
24 320 1
24 321 1
24 331 1
24 332 1
24 335 1
24 343 1
24 353 1
24 354 1
24 355 1
24 356 1
24 366 1
24 375 1
24 384 1
24 387 1
24 388 1
24 390 1
24 393 1
24 394 1
24 396 1
24 412 1
24 416 1
24 421 1
24 423 1
24 428 1
24 440 1
24 445 1
24 456 1
24 459 1
24 460 1
24 466 1
24 469 1
24 472 1
24 473 1
24 474 1
24 485 1
24 488 1
24 503 1
24 505 1
24 510 1
24 515 1
24 525 1
24 530 1
24 551 1
24 556 1
24 560 1
24 561 1
24 562 1
24 570 1
24 579 1
24 582 1
24 586 1
24 590 1
24 594 1
24 610 1
24 611 1
24 618 1
24 626 1
24 636 1
24 655 1
24 658 1
24 671 1
24 684 1
24 692 1
24 695 1
24 697 1
24 698 1
25 13 1
25 18 1
25 21 1
25 22 1
25 24 1
25 31 1
25 37 1
25 42 1
25 54 1
25 56 1
25 65 1
25 78 1
25 80 1
25 88 1
25 90 1
25 97 1
25 99 1
25 104 1
25 106 1
25 117 1
25 122 1
25 123 1
25 129 1
25 135 1
25 136 1
25 143 1
25 145 1
25 154 1
25 155 1
25 162 1
25 166 1
25 168 1
25 170 1
25 172 1
25 176 1
25 179 1
25 180 1
25 181 1
25 182 1
25 186 1
25 187 1
25 193 1
25 194 1
25 195 1
25 196 1
25 198 1
25 199 1
25 224 1
25 233 1
25 236 1
25 237 1
25 241 1
25 242 1
25 248 1
25 249 1
25 262 1
25 272 1
25 274 1
25 275 1
25 276 1
25 291 1
25 294 1
25 307 1
25 312 1
25 317 1
25 321 1
25 324 1
25 337 1
25 342 1
25 345 1
25 349 1
25 354 1
25 358 1
25 363 1
25 375 1
25 382 1
25 409 1
25 410 1
25 414 1
25 417 1
25 424 1
25 425 1
25 428 1
25 431 1
25 436 1
25 437 1
25 439 1
25 444 1
25 445 1
25 449 1
25 451 1
25 456 1
25 466 1
25 486 1
25 496 1
25 499 1
25 501 1
25 504 1
25 517 1
25 519 1
25 520 1
25 522 1
25 531 1
25 533 1
25 536 1
25 540 1
25 543 1
25 549 1
25 550 1
25 555 1
25 556 1
25 561 1
25 563 1
25 567 1
25 570 1
25 571 1
25 572 1
25 578 1
25 585 1
25 589 1
25 594 1
25 595 1
25 597 1
25 605 1
25 609 1
25 611 1
25 614 1
25 625 1
25 626 1
25 632 1
25 636 1
25 642 1
25 649 1
25 662 1
25 669 1
25 677 1
25 678 1
25 679 1
25 681 1
25 685 1
25 686 1
25 687 1
25 695 1
25 696 1
25 697 1
25 699 1
26 1 1
26 11 1
26 12 1
26 15 1
26 16 1
26 31 1
26 32 1
26 33 1
26 44 1
26 47 1
26 56 1
26 67 1
26 72 1
26 74 1
26 76 1
26 84 1
26 89 1
26 96 1
26 103 1
26 104 1
26 111 1
26 113 1
26 117 1
26 123 1
26 124 1
26 127 1
26 129 1
26 141 1
26 144 1
26 146 1
26 156 1
26 159 1
26 172 1
26 179 1
26 180 1
26 183 1
26 190 1
26 199 1
26 205 1
26 207 1
26 211 1
26 213 1
26 214 1
26 216 1
26 226 1
26 243 1
26 248 1
26 253 1
26 254 1
26 257 1
26 264 1
26 273 1
26 279 1
26 283 1
26 293 1
26 298 1
26 299 1
26 300 1
26 301 1
26 302 1
26 310 1
26 319 1
26 328 1
26 330 1
26 332 1
26 334 1
26 337 1
26 341 1
26 359 1
26 373 1
26 378 1
26 379 1
26 380 1
26 385 1
26 387 1
26 398 1
26 410 1
26 417 1
26 421 1
26 425 1
26 432 1
26 433 1
26 440 1
26 454 1
26 462 1
26 467 1
26 471 1
26 478 1
26 505 1
26 507 1
26 516 1
26 524 1
26 527 1
26 531 1
26 552 1
26 558 1
26 567 1
26 570 1
26 575 1
26 579 1
26 581 1
26 584 1
26 594 1
26 595 1
26 600 1
26 607 1
26 609 1
26 613 1
26 627 1
26 629 1
26 630 1
26 633 1
26 634 1
26 642 1
26 643 1
26 647 1
26 650 1
26 656 1
26 666 1
26 667 1
26 669 1
26 673 1
26 677 1
26 684 1
26 686 1
26 688 1
26 691 1
26 695 1
26 698 1
26 700 1
27 5 1
27 9 1
27 12 1
27 13 1
27 15 1
27 29 1
27 31 1
27 39 1
27 46 1
27 55 1
27 62 1
27 69 1
27 79 1
27 80 1
27 86 1
27 91 1
27 96 1
27 99 1
27 104 1
27 106 1
27 110 1
27 122 1
27 126 1
27 139 1
27 149 1
27 150 1
27 158 1
27 179 1
27 180 1
27 194 1
27 199 1
27 208 1
27 209 1
27 211 1
27 213 1
27 221 1
27 224 1
27 225 1
27 226 1
27 241 1
27 253 1
27 263 1
27 265 1
27 276 1
27 284 1
27 286 1
27 295 1
27 296 1
27 306 1
27 308 1
27 309 1
27 312 1
27 315 1
27 319 1
27 329 1
27 330 1
27 343 1
27 349 1
27 351 1
27 354 1
27 363 1
27 367 1
27 376 1
27 379 1
27 387 1
27 400 1
27 406 1
27 407 1
27 408 1
27 411 1
27 412 1
27 415 1
27 420 1
27 425 1
27 431 1
27 434 1
27 438 1
27 444 1
27 445 1
27 446 1
27 455 1
27 458 1
27 461 1
27 469 1
27 471 1
27 479 1
27 489 1
27 498 1
27 506 1
27 507 1
27 508 1
27 510 1
27 513 1
27 522 1
27 523 1
27 524 1
27 525 1
27 531 1
27 532 1
27 536 1
27 537 1
27 540 1
27 542 1
27 549 1
27 553 1
27 562 1
27 566 1
27 567 1
27 570 1
27 579 1
27 580 1
27 582 1
27 588 1
27 589 1
27 597 1
27 598 1
27 603 1
27 621 1
27 622 1
27 626 1
27 629 1
27 633 1
27 645 1
27 653 1
27 665 1
27 672 1
27 673 1
27 688 1
27 693 1
27 700 1
28 2 1
28 7 1
28 8 1
28 11 1
28 15 1
28 18 1
28 20 1
28 29 1
28 36 1
28 39 1
28 46 1
28 51 1
28 57 1
28 58 1
28 75 1
28 81 1
28 90 1
28 91 1
28 98 1
28 100 1
28 104 1
28 113 1
28 117 1
28 118 1
28 123 1
28 125 1
28 126 1
28 128 1
28 134 1
28 147 1
28 150 1
28 152 1
28 153 1
28 157 1
28 160 1
28 169 1
28 175 1
28 176 1
28 178 1
28 185 1
28 191 1
28 197 1
28 198 1
28 208 1
28 209 1
28 222 1
28 225 1
28 230 1
28 231 1
28 235 1
28 240 1
28 256 1
28 258 1
28 275 1
28 279 1
28 282 1
28 283 1
28 286 1
28 288 1
28 294 1
28 301 1
28 306 1
28 311 1
28 319 1
28 321 1
28 334 1
28 337 1
28 341 1
28 348 1
28 350 1
28 356 1
28 358 1
28 360 1
28 364 1
28 369 1
28 372 1
28 389 1
28 404 1
28 406 1
28 418 1
28 419 1
28 425 1
28 427 1
28 430 1
28 431 1
28 434 1
28 442 1
28 450 1
28 453 1
28 458 1
28 464 1
28 470 1
28 473 1
28 474 1
28 480 1
28 484 1
28 487 1
28 488 1
28 494 1
28 496 1
28 497 1
28 498 1
28 503 1
28 505 1
28 507 1
28 514 1
28 516 1
28 542 1
28 556 1
28 560 1
28 564 1
28 565 1
28 577 1
28 578 1
28 590 1
28 601 1
28 603 1
28 607 1
28 619 1
28 623 1
28 626 1
28 627 1
28 642 1
28 646 1
28 648 1
28 660 1
28 662 1
28 666 1
28 671 1
28 675 1
28 679 1
28 690 1
28 693 1
28 694 1
28 696 1
28 697 1
29 4 1
29 9 1
29 12 1
29 18 1
29 22 1
29 27 1
29 28 1
29 43 1
29 44 1
29 47 1
29 57 1
29 63 1
29 71 1
29 81 1
29 96 1
29 97 1
29 98 1
29 105 1
29 110 1
29 119 1
29 120 1
29 121 1
29 122 1
29 126 1
29 130 1
29 133 1
29 135 1
29 136 1
29 139 1
29 141 1
29 142 1
29 144 1
29 152 1
29 156 1
29 157 1
29 160 1
29 167 1
29 183 1
29 187 1
29 190 1
29 192 1
29 195 1
29 198 1
29 211 1
29 218 1
29 222 1
29 224 1
29 232 1
29 241 1
29 243 1
29 244 1
29 246 1
29 250 1
29 253 1
29 256 1
29 271 1
29 273 1
29 279 1
29 286 1
29 306 1
29 311 1
29 315 1
29 327 1
29 328 1
29 332 1
29 339 1
29 355 1
29 370 1
29 371 1
29 378 1
29 382 1
29 388 1
29 391 1
29 393 1
29 396 1
29 399 1
29 409 1
29 413 1
29 434 1
29 435 1
29 436 1
29 442 1
29 443 1
29 448 1
29 451 1
29 452 1
29 455 1
29 457 1
29 465 1
29 467 1
29 468 1
29 474 1
29 477 1
29 479 1
29 481 1
29 487 1
29 490 1
29 493 1
29 502 1
29 505 1
29 506 1
29 517 1
29 519 1
29 526 1
29 530 1
29 533 1
29 538 1
29 542 1
29 543 1
29 544 1
29 551 1
29 560 1
29 565 1
29 566 1
29 568 1
29 569 1
29 579 1
29 580 1
29 590 1
29 592 1
29 593 1
29 595 1
29 600 1
29 602 1
29 606 1
29 611 1
29 615 1
29 620 1
29 624 1
29 626 1
29 627 1
29 634 1
29 640 1
29 649 1
29 650 1
29 657 1
29 658 1
29 659 1
29 662 1
29 664 1
29 666 1
29 670 1
29 673 1
29 674 1
29 676 1
29 678 1
29 680 1
29 686 1
29 687 1
29 700 1
30 8 1
30 10 1
30 21 1
30 22 1
30 23 1
30 24 1
30 35 1
30 39 1
30 41 1
30 42 1
30 49 1
30 104 1
30 105 1
30 108 1
30 118 1
30 121 1
30 126 1
30 127 1
30 139 1
30 142 1
30 147 1
30 148 1
30 153 1
30 159 1
30 169 1
30 170 1
30 171 1
30 172 1
30 174 1
30 176 1
30 179 1
30 187 1
30 189 1
30 199 1
30 206 1
30 219 1
30 220 1
30 222 1
30 224 1
30 225 1
30 226 1
30 233 1
30 252 1
30 256 1
30 261 1
30 265 1
30 268 1
30 275 1
30 279 1
30 287 1
30 294 1
30 298 1
30 303 1
30 304 1
30 306 1
30 317 1
30 319 1
30 321 1
30 322 1
30 325 1
30 326 1
30 330 1
30 338 1
30 339 1
30 341 1
30 349 1
30 352 1
30 355 1
30 364 1
30 373 1
30 376 1
30 381 1
30 383 1
30 388 1
30 397 1
30 412 1
30 414 1
30 415 1
30 419 1
30 420 1
30 422 1
30 430 1
30 446 1
30 449 1
30 450 1
30 465 1
30 466 1
30 479 1
30 480 1
30 489 1
30 492 1
30 494 1
30 499 1
30 506 1
30 512 1
30 519 1
30 521 1
30 527 1
30 528 1
30 536 1
30 538 1
30 539 1
30 542 1
30 544 1
30 547 1
30 553 1
30 564 1
30 565 1
30 573 1
30 574 1
30 581 1
30 582 1
30 584 1
30 585 1
30 587 1
30 588 1
30 589 1
30 590 1
30 592 1
30 593 1
30 594 1
30 599 1
30 601 1
30 602 1
30 604 1
30 605 1
30 608 1
30 620 1
30 625 1
30 626 1
30 641 1
30 643 1
30 647 1
30 649 1
30 653 1
30 654 1
30 659 1
30 661 1
30 662 1
30 670 1
30 682 1
30 683 1
30 686 1
30 691 1
30 694 1
30 697 1
30 698 1
31 3 1
31 4 1
31 7 1
31 12 1
31 21 1
31 25 1
31 26 1
31 27 1
31 34 1
31 37 1
31 41 1
31 48 1
31 51 1
31 52 1
31 53 1
31 57 1
31 60 1
31 61 1
31 65 1
31 68 1
31 69 1
31 74 1
31 75 1
31 77 1
31 82 1
31 84 1
31 85 1
31 88 1
31 93 1
31 102 1
31 103 1
31 109 1
31 113 1
31 118 1
31 122 1
31 123 1
31 140 1
31 142 1
31 160 1
31 173 1
31 175 1
31 182 1
31 184 1
31 185 1
31 195 1
31 197 1
31 199 1
31 200 1
31 201 1
31 202 1
31 216 1
31 223 1
31 226 1
31 227 1
31 229 1
31 232 1
31 233 1
31 238 1
31 245 1
31 249 1
31 252 1
31 261 1
31 281 1
31 284 1
31 298 1
31 300 1
31 303 1
31 305 1
31 313 1
31 315 1
31 321 1
31 325 1
31 332 1
31 333 1
31 336 1
31 337 1
31 346 1
31 351 1
31 357 1
31 368 1
31 370 1
31 374 1
31 376 1
31 381 1
31 389 1
31 397 1
31 398 1
31 401 1
31 407 1
31 410 1
31 418 1
31 419 1
31 429 1
31 430 1
31 433 1
31 438 1
31 441 1
31 442 1
31 443 1
31 444 1
31 457 1
31 458 1
31 459 1
31 461 1
31 463 1
31 465 1
31 471 1
31 472 1
31 481 1
31 484 1
31 486 1
31 495 1
31 496 1
31 505 1
31 508 1
31 515 1
31 516 1
31 518 1
31 543 1
31 551 1
31 555 1
31 562 1
31 567 1
31 569 1
31 582 1
31 583 1
31 602 1
31 603 1
31 604 1
31 621 1
31 624 1
31 627 1
31 630 1
31 654 1
31 667 1
31 675 1
31 679 1
31 681 1
31 687 1
31 688 1
31 690 1
31 691 1
31 693 1
31 696 1
32 8 1
32 9 1
32 20 1
32 22 1
32 26 1
32 34 1
32 40 1
32 46 1
32 59 1
32 60 1
32 62 1
32 64 1
32 69 1
32 71 1
32 81 1
32 86 1
32 95 1
32 97 1
32 102 1
32 108 1
32 111 1
32 114 1
32 122 1
32 129 1
32 130 1
32 139 1
32 141 1
32 144 1
32 146 1
32 151 1
32 158 1
32 161 1
32 164 1
32 166 1
32 169 1
32 171 1
32 178 1
32 191 1
32 195 1
32 197 1
32 210 1
32 211 1
32 212 1
32 214 1
32 219 1
32 224 1
32 225 1
32 226 1
32 229 1
32 230 1
32 231 1
32 237 1
32 240 1
32 244 1
32 248 1
32 249 1
32 250 1
32 251 1
32 263 1
32 271 1
32 274 1
32 281 1
32 283 1
32 288 1
32 298 1
32 299 1
32 304 1
32 305 1
32 307 1
32 321 1
32 326 1
32 327 1
32 334 1
32 336 1
32 338 1
32 341 1
32 345 1
32 347 1
32 348 1
32 349 1
32 353 1
32 357 1
32 358 1
32 359 1
32 374 1
32 375 1
32 386 1
32 389 1
32 391 1
32 397 1
32 400 1
32 402 1
32 410 1
32 413 1
32 415 1
32 417 1
32 422 1
32 423 1
32 424 1
32 428 1
32 435 1
32 442 1
32 454 1
32 457 1
32 463 1
32 464 1
32 467 1
32 473 1
32 478 1
32 490 1
32 492 1
32 495 1
32 499 1
32 503 1
32 506 1
32 507 1
32 509 1
32 526 1
32 531 1
32 546 1
32 554 1
32 555 1
32 556 1
32 558 1
32 560 1
32 562 1
32 566 1
32 573 1
32 574 1
32 584 1
32 588 1
32 591 1
32 598 1
32 603 1
32 608 1
32 613 1
32 615 1
32 616 1
32 618 1
32 621 1
32 622 1
32 632 1
32 634 1
32 638 1
32 651 1
32 655 1
32 657 1
32 658 1
32 661 1
32 665 1
32 674 1
32 675 1
32 676 1
32 687 1
32 696 1
33 1 1
33 9 1
33 13 1
33 14 1
33 15 1
33 18 1
33 26 1
33 42 1
33 50 1
33 54 1
33 57 1
33 59 1
33 60 1
33 61 1
33 75 1
33 78 1
33 86 1
33 101 1
33 102 1
33 109 1
33 116 1
33 120 1
33 127 1
33 128 1
33 131 1
33 132 1
33 133 1
33 137 1
33 142 1
33 143 1
33 152 1
33 154 1
33 158 1
33 159 1
33 164 1
33 166 1
33 168 1
33 172 1
33 192 1
33 201 1
33 203 1
33 207 1
33 214 1
33 225 1
33 226 1
33 229 1
33 236 1
33 239 1
33 244 1
33 247 1
33 253 1
33 254 1
33 263 1
33 265 1
33 273 1
33 274 1
33 277 1
33 278 1
33 280 1
33 283 1
33 285 1
33 287 1
33 293 1
33 295 1
33 307 1
33 310 1
33 311 1
33 312 1
33 332 1
33 339 1
33 340 1
33 344 1
33 358 1
33 361 1
33 366 1
33 387 1
33 389 1
33 395 1
33 420 1
33 421 1
33 424 1
33 426 1
33 434 1
33 436 1
33 440 1
33 446 1
33 449 1
33 455 1
33 470 1
33 476 1
33 482 1
33 491 1
33 495 1
33 502 1
33 512 1
33 517 1
33 521 1
33 522 1
33 527 1
33 532 1
33 536 1
33 542 1
33 545 1
33 549 1
33 566 1
33 568 1
33 575 1
33 576 1
33 578 1
33 580 1
33 581 1
33 583 1
33 584 1
33 585 1
33 594 1
33 599 1
33 603 1
33 605 1
33 606 1
33 607 1
33 608 1
33 625 1
33 629 1
33 632 1
33 633 1
33 635 1
33 640 1
33 651 1
33 658 1
33 661 1
33 669 1
33 675 1
33 689 1
33 690 1
33 699 1
34 13 1
34 14 1
34 15 1
34 20 1
34 24 1
34 31 1
34 32 1
34 35 1
34 43 1
34 44 1
34 46 1
34 49 1
34 50 1
34 54 1
34 56 1
34 66 1
34 70 1
34 97 1
34 104 1
34 118 1
34 122 1
34 127 1
34 135 1
34 140 1
34 144 1
34 145 1
34 160 1
34 175 1
34 177 1
34 195 1
34 198 1
34 202 1
34 206 1
34 208 1
34 212 1
34 214 1
34 215 1
34 223 1
34 225 1
34 232 1
34 235 1
34 237 1
34 243 1
34 261 1
34 270 1
34 274 1
34 285 1
34 289 1
34 290 1
34 305 1
34 315 1
34 320 1
34 321 1
34 322 1
34 334 1
34 335 1
34 339 1
34 340 1
34 343 1
34 348 1
34 350 1
34 353 1
34 355 1
34 358 1
34 360 1
34 367 1
34 372 1
34 373 1
34 374 1
34 381 1
34 385 1
34 388 1
34 400 1
34 411 1
34 417 1
34 420 1
34 423 1
34 424 1
34 438 1
34 439 1
34 441 1
34 442 1
34 445 1
34 446 1
34 450 1
34 451 1
34 452 1
34 460 1
34 463 1
34 466 1
34 474 1
34 479 1
34 482 1
34 498 1
34 502 1
34 504 1
34 507 1
34 512 1
34 520 1
34 521 1
34 523 1
34 535 1
34 538 1
34 541 1
34 550 1
34 553 1
34 557 1
34 574 1
34 575 1
34 589 1
34 594 1
34 605 1
34 615 1
34 629 1
34 630 1
34 637 1
34 641 1
34 642 1
34 651 1
34 652 1
34 654 1
34 656 1
34 658 1
34 660 1
34 666 1
34 673 1
34 677 1
34 678 1
34 679 1
34 684 1
34 688 1
34 695 1
35 1 1
35 8 1
35 11 1
35 12 1
35 14 1
35 18 1
35 20 1
35 24 1
35 30 1
35 34 1
35 40 1
35 45 1
35 47 1
35 50 1
35 51 1
35 72 1
35 80 1
35 83 1
35 85 1
35 94 1
35 97 1
35 98 1
35 117 1
35 123 1
35 135 1
35 139 1
35 143 1
35 144 1
35 159 1
35 163 1
35 168 1
35 175 1
35 176 1
35 179 1
35 183 1
35 186 1
35 188 1
35 191 1
35 195 1
35 199 1
35 200 1
35 204 1
35 208 1
35 209 1
35 211 1
35 224 1
35 248 1
35 251 1
35 255 1
35 260 1
35 265 1
35 266 1
35 274 1
35 283 1
35 290 1
35 304 1
35 305 1
35 307 1
35 308 1
35 309 1
35 311 1
35 321 1
35 326 1
35 344 1
35 348 1
35 356 1
35 371 1
35 375 1
35 381 1
35 390 1
35 396 1
35 402 1
35 403 1
35 407 1
35 412 1
35 413 1
35 416 1
35 418 1
35 433 1
35 438 1
35 439 1
35 448 1
35 453 1
35 455 1
35 466 1
35 475 1
35 476 1
35 484 1
35 492 1
35 495 1
35 506 1
35 510 1
35 512 1
35 532 1
35 536 1
35 542 1
35 550 1
35 556 1
35 558 1
35 573 1
35 583 1
35 584 1
35 589 1
35 593 1
35 594 1
35 601 1
35 604 1
35 619 1
35 620 1
35 621 1
35 622 1
35 625 1
35 626 1
35 631 1
35 637 1
35 638 1
35 648 1
35 650 1
35 652 1
35 659 1
35 663 1
35 668 1
35 672 1
35 675 1
35 681 1
35 685 1
35 690 1
35 696 1
35 700 1
36 2 1
36 5 1
36 6 1
36 7 1
36 8 1
36 12 1
36 13 1
36 14 1
36 28 1
36 49 1
36 59 1
36 63 1
36 72 1
36 73 1
36 75 1
36 82 1
36 98 1
36 102 1
36 110 1
36 112 1
36 115 1
36 127 1
36 145 1
36 152 1
36 153 1
36 158 1
36 164 1
36 167 1
36 169 1
36 175 1
36 180 1
36 181 1
36 185 1
36 187 1
36 195 1
36 197 1
36 203 1
36 211 1
36 213 1
36 222 1
36 224 1
36 226 1
36 231 1
36 235 1
36 238 1
36 246 1
36 247 1
36 249 1
36 255 1
36 260 1
36 261 1
36 279 1
36 297 1
36 303 1
36 304 1
36 307 1
36 311 1
36 314 1
36 316 1
36 319 1
36 320 1
36 323 1
36 327 1
36 328 1
36 346 1
36 349 1
36 353 1
36 360 1
36 361 1
36 373 1
36 379 1
36 385 1
36 388 1
36 404 1
36 408 1
36 412 1
36 414 1
36 418 1
36 420 1
36 428 1
36 432 1
36 438 1
36 441 1
36 442 1
36 464 1
36 476 1
36 477 1
36 480 1
36 482 1
36 487 1
36 493 1
36 501 1
36 502 1
36 522 1
36 526 1
36 532 1
36 535 1
36 537 1
36 546 1
36 550 1
36 552 1
36 554 1
36 555 1
36 559 1
36 561 1
36 573 1
36 574 1
36 576 1
36 577 1
36 582 1
36 585 1
36 586 1
36 589 1
36 594 1
36 597 1
36 603 1
36 608 1
36 617 1
36 618 1
36 624 1
36 625 1
36 626 1
36 627 1
36 631 1
36 635 1
36 637 1
36 643 1
36 645 1
36 649 1
36 656 1
36 662 1
36 665 1
36 669 1
36 674 1
36 681 1
36 682 1
36 685 1
36 691 1
36 699 1
37 1 1
37 4 1
37 6 1
37 7 1
37 23 1
37 25 1
37 31 1
37 38 1
37 53 1
37 60 1
37 61 1
37 62 1
37 66 1
37 70 1
37 80 1
37 85 1
37 86 1
37 88 1
37 92 1
37 96 1
37 99 1
37 101 1
37 105 1
37 106 1
37 107 1
37 114 1
37 120 1
37 142 1
37 143 1
37 148 1
37 161 1
37 162 1
37 164 1
37 171 1
37 185 1
37 193 1
37 197 1
37 198 1
37 204 1
37 208 1
37 210 1
37 216 1
37 219 1
37 233 1
37 243 1
37 244 1
37 255 1
37 264 1
37 265 1
37 268 1
37 270 1
37 272 1
37 275 1
37 280 1
37 286 1
37 288 1
37 296 1
37 299 1
37 300 1
37 302 1
37 304 1
37 317 1
37 319 1
37 321 1
37 323 1
37 331 1
37 338 1
37 350 1
37 351 1
37 352 1
37 365 1
37 373 1
37 375 1
37 389 1
37 390 1
37 392 1
37 393 1
37 404 1
37 405 1
37 413 1
37 420 1
37 421 1
37 427 1
37 433 1
37 434 1
37 443 1
37 458 1
37 465 1
37 466 1
37 471 1
37 475 1
37 480 1
37 481 1
37 485 1
37 489 1
37 499 1
37 505 1
37 514 1
37 520 1
37 521 1
37 525 1
37 534 1
37 539 1
37 540 1
37 542 1
37 544 1
37 546 1
37 554 1
37 562 1
37 571 1
37 573 1
37 575 1
37 579 1
37 584 1
37 592 1
37 604 1
37 612 1
37 614 1
37 616 1
37 621 1
37 623 1
37 624 1
37 633 1
37 638 1
37 673 1
37 677 1
37 678 1
37 681 1
37 685 1
37 687 1
37 688 1
38 15 1
38 23 1
38 37 1
38 40 1
38 48 1
38 51 1
38 57 1
38 60 1
38 66 1
38 70 1
38 75 1
38 78 1
38 85 1
38 87 1
38 89 1
38 91 1
38 103 1
38 105 1
38 106 1
38 108 1
38 110 1
38 112 1
38 116 1
38 128 1
38 140 1
38 142 1
38 144 1
38 145 1
38 146 1
38 150 1
38 153 1
38 155 1
38 165 1
38 178 1
38 183 1
38 193 1
38 203 1
38 210 1
38 213 1
38 224 1
38 230 1
38 247 1
38 248 1
38 250 1
38 258 1
38 263 1
38 266 1
38 267 1
38 268 1
38 275 1
38 279 1
38 293 1
38 296 1
38 298 1
38 299 1
38 301 1
38 318 1
38 326 1
38 340 1
38 352 1
38 356 1
38 357 1
38 358 1
38 359 1
38 372 1
38 373 1
38 399 1
38 400 1
38 403 1
38 405 1
38 409 1
38 416 1
38 418 1
38 423 1
38 433 1
38 440 1
38 443 1
38 445 1
38 454 1
38 461 1
38 462 1
38 467 1
38 469 1
38 471 1
38 480 1
38 487 1
38 490 1
38 493 1
38 506 1
38 508 1
38 512 1
38 516 1
38 520 1
38 530 1
38 532 1
38 534 1
38 535 1
38 537 1
38 551 1
38 552 1
38 555 1
38 556 1
38 558 1
38 565 1
38 571 1
38 575 1
38 584 1
38 585 1
38 587 1
38 591 1
38 600 1
38 606 1
38 607 1
38 617 1
38 626 1
38 634 1
38 635 1
38 637 1
38 638 1
38 645 1
38 655 1
38 660 1
38 667 1
38 668 1
38 669 1
38 679 1
38 681 1
38 685 1
38 693 1
38 699 1
39 1 1
39 5 1
39 7 1
39 14 1
39 22 1
39 27 1
39 28 1
39 30 1
39 41 1
39 43 1
39 44 1
39 47 1
39 52 1
39 56 1
39 57 1
39 60 1
39 69 1
39 74 1
39 83 1
39 96 1
39 98 1
39 103 1
39 107 1
39 111 1
39 115 1
39 117 1
39 118 1
39 125 1
39 126 1
39 139 1
39 144 1
39 146 1
39 151 1
39 161 1
39 162 1
39 165 1
39 169 1
39 171 1
39 176 1
39 186 1
39 190 1
39 203 1
39 208 1
39 210 1
39 217 1
39 220 1
39 221 1
39 224 1
39 226 1
39 230 1
39 236 1
39 241 1
39 250 1
39 254 1
39 262 1
39 274 1
39 277 1
39 278 1
39 279 1
39 289 1
39 291 1
39 292 1
39 293 1
39 303 1
39 309 1
39 314 1
39 315 1
39 318 1
39 320 1
39 322 1
39 323 1
39 330 1
39 331 1
39 335 1
39 339 1
39 340 1
39 342 1
39 347 1
39 349 1
39 354 1
39 359 1
39 363 1
39 365 1
39 370 1
39 371 1
39 372 1
39 374 1
39 394 1
39 395 1
39 400 1
39 416 1
39 417 1
39 418 1
39 421 1
39 425 1
39 431 1
39 434 1
39 437 1
39 439 1
39 443 1
39 445 1
39 454 1
39 457 1
39 462 1
39 467 1
39 473 1
39 474 1
39 481 1
39 491 1
39 495 1
39 508 1
39 512 1
39 519 1
39 520 1
39 526 1
39 535 1
39 537 1
39 538 1
39 542 1
39 543 1
39 546 1
39 548 1
39 549 1
39 550 1
39 553 1
39 555 1
39 558 1
39 559 1
39 561 1
39 566 1
39 570 1
39 571 1
39 579 1
39 581 1
39 584 1
39 586 1
39 587 1
39 589 1
39 591 1
39 599 1
39 602 1
39 615 1
39 616 1
39 622 1
39 630 1
39 632 1
39 635 1
39 653 1
39 655 1
39 658 1
39 668 1
39 669 1
39 675 1
39 680 1
39 685 1
39 688 1
39 695 1
39 697 1
39 700 1
40 2 1
40 3 1
40 15 1
40 17 1
40 23 1
40 32 1
40 35 1
40 38 1
40 44 1
40 45 1
40 46 1
40 53 1
40 56 1
40 58 1
40 66 1
40 73 1
40 77 1
40 79 1
40 82 1
40 86 1
40 88 1
40 90 1
40 98 1
40 99 1
40 102 1
40 104 1
40 106 1
40 110 1
40 111 1
40 112 1
40 113 1
40 118 1
40 122 1
40 124 1
40 126 1
40 154 1
40 155 1
40 162 1
40 172 1
40 177 1
40 178 1
40 181 1
40 185 1
40 189 1
40 196 1
40 199 1
40 205 1
40 207 1
40 208 1
40 210 1
40 224 1
40 227 1
40 230 1
40 231 1
40 235 1
40 241 1
40 247 1
40 255 1
40 259 1
40 263 1
40 266 1
40 269 1
40 271 1
40 272 1
40 273 1
40 276 1
40 280 1
40 284 1
40 285 1
40 286 1
40 293 1
40 296 1
40 297 1
40 304 1
40 307 1
40 313 1
40 322 1
40 327 1
40 329 1
40 338 1
40 342 1
40 344 1
40 350 1
40 359 1
40 379 1
40 386 1
40 387 1
40 388 1
40 389 1
40 390 1
40 391 1
40 393 1
40 400 1
40 402 1
40 403 1
40 404 1
40 410 1
40 415 1
40 424 1
40 429 1
40 430 1
40 436 1
40 443 1
40 444 1
40 458 1
40 463 1
40 466 1
40 470 1
40 472 1
40 484 1
40 486 1
40 493 1
40 494 1
40 497 1
40 500 1
40 503 1
40 518 1
40 527 1
40 528 1
40 530 1
40 532 1
40 538 1
40 541 1
40 543 1
40 549 1
40 551 1
40 555 1
40 556 1
40 557 1
40 558 1
40 561 1
40 565 1
40 574 1
40 580 1
40 593 1
40 596 1
40 616 1
40 619 1
40 627 1
40 635 1
40 636 1
40 638 1
40 641 1
40 642 1
40 658 1
40 661 1
40 668 1
40 672 1
40 678 1
40 684 1
40 691 1
40 695 1
40 698 1
40 699 1
41 8 1
41 19 1
41 21 1
41 22 1
41 23 1
41 30 1
41 31 1
41 39 1
41 44 1
41 47 1
41 51 1
41 52 1
41 55 1
41 65 1
41 70 1
41 74 1
41 76 1
41 78 1
41 83 1
41 92 1
41 95 1
41 103 1
41 109 1
41 112 1
41 122 1
41 130 1
41 139 1
41 143 1
41 144 1
41 153 1
41 161 1
41 164 1
41 171 1
41 177 1
41 184 1
41 186 1
41 191 1
41 206 1
41 215 1
41 219 1
41 221 1
41 235 1
41 240 1
41 242 1
41 251 1
41 257 1
41 262 1
41 265 1
41 272 1
41 280 1
41 285 1
41 286 1
41 294 1
41 296 1
41 298 1
41 299 1
41 303 1
41 309 1
41 312 1
41 319 1
41 329 1
41 340 1
41 346 1
41 352 1
41 353 1
41 354 1
41 359 1
41 361 1
41 363 1
41 364 1
41 368 1
41 372 1
41 373 1
41 375 1
41 381 1
41 386 1
41 397 1
41 404 1
41 409 1
41 413 1
41 414 1
41 422 1
41 426 1
41 432 1
41 434 1
41 441 1
41 443 1
41 448 1
41 452 1
41 460 1
41 465 1
41 466 1
41 467 1
41 468 1
41 469 1
41 471 1
41 474 1
41 476 1
41 477 1
41 479 1
41 488 1
41 489 1
41 497 1
41 498 1
41 500 1
41 505 1
41 507 1
41 528 1
41 529 1
41 531 1
41 533 1
41 539 1
41 546 1
41 548 1
41 554 1
41 560 1
41 573 1
41 578 1
41 580 1
41 583 1
41 584 1
41 591 1
41 596 1
41 597 1
41 613 1
41 623 1
41 624 1
41 626 1
41 628 1
41 633 1
41 634 1
41 635 1
41 636 1
41 639 1
41 640 1
41 642 1
41 644 1
41 648 1
41 662 1
41 665 1
41 667 1
41 670 1
41 674 1
41 679 1
41 685 1
41 686 1
41 687 1
41 688 1
41 691 1
41 696 1
42 7 1
42 9 1
42 13 1
42 14 1
42 17 1
42 19 1
42 25 1
42 30 1
42 33 1
42 59 1
42 63 1
42 73 1
42 75 1
42 80 1
42 86 1
42 87 1
42 88 1
42 99 1
42 107 1
42 108 1
42 113 1
42 129 1
42 138 1
42 141 1
42 144 1
42 147 1
42 148 1
42 164 1
42 167 1
42 170 1
42 172 1
42 191 1
42 203 1
42 204 1
42 214 1
42 215 1
42 217 1
42 222 1
42 224 1
42 238 1
42 244 1
42 255 1
42 257 1
42 271 1
42 273 1
42 275 1
42 278 1
42 279 1
42 281 1
42 286 1
42 287 1
42 289 1
42 293 1
42 295 1
42 321 1
42 328 1
42 334 1
42 340 1
42 342 1
42 346 1
42 350 1
42 361 1
42 362 1
42 367 1
42 368 1
42 375 1
42 384 1
42 388 1
42 390 1
42 397 1
42 404 1
42 405 1
42 406 1
42 414 1
42 416 1
42 417 1
42 425 1
42 426 1
42 429 1
42 436 1
42 440 1
42 445 1
42 449 1
42 452 1
42 461 1
42 465 1
42 472 1
42 481 1
42 484 1
42 487 1
42 489 1
42 490 1
42 495 1
42 496 1
42 498 1
42 503 1
42 508 1
42 509 1
42 517 1
42 519 1
42 527 1
42 533 1
42 542 1
42 549 1
42 557 1
42 580 1
42 583 1
42 586 1
42 593 1
42 600 1
42 601 1
42 609 1
42 610 1
42 617 1
42 623 1
42 627 1
42 629 1
42 632 1
42 641 1
42 651 1
42 652 1
42 665 1
42 667 1
42 671 1
42 680 1
42 686 1
42 692 1
42 695 1
43 11 1
43 14 1
43 22 1
43 24 1
43 29 1
43 34 1
43 39 1
43 46 1
43 54 1
43 55 1
43 60 1
43 62 1
43 77 1
43 84 1
43 86 1
43 87 1
43 89 1
43 92 1
43 93 1
43 95 1
43 105 1
43 110 1
43 128 1
43 129 1
43 130 1
43 147 1
43 153 1
43 158 1
43 162 1
43 168 1
43 175 1
43 180 1
43 181 1
43 184 1
43 187 1
43 191 1
43 199 1
43 202 1
43 214 1
43 224 1
43 242 1
43 246 1
43 256 1
43 257 1
43 263 1
43 264 1
43 275 1
43 277 1
43 278 1
43 285 1
43 293 1
43 299 1
43 309 1
43 324 1
43 327 1
43 339 1
43 343 1
43 346 1
43 348 1
43 349 1
43 351 1
43 354 1
43 357 1
43 360 1
43 365 1
43 368 1
43 369 1
43 378 1
43 380 1
43 382 1
43 385 1
43 386 1
43 387 1
43 391 1
43 401 1
43 405 1
43 406 1
43 410 1
43 411 1
43 418 1
43 420 1
43 421 1
43 433 1
43 444 1
43 446 1
43 448 1
43 451 1
43 452 1
43 455 1
43 458 1
43 464 1
43 465 1
43 468 1
43 471 1
43 472 1
43 473 1
43 479 1
43 480 1
43 492 1
43 506 1
43 507 1
43 508 1
43 513 1
43 516 1
43 517 1
43 520 1
43 521 1
43 537 1
43 538 1
43 547 1
43 563 1
43 569 1
43 575 1
43 591 1
43 592 1
43 626 1
43 627 1
43 632 1
43 635 1
43 638 1
43 641 1
43 648 1
43 657 1
43 664 1
43 670 1
43 677 1
43 679 1
43 680 1
43 683 1
43 691 1
43 692 1
43 693 1
43 694 1
43 697 1
43 699 1
44 10 1
44 13 1
44 14 1
44 19 1
44 21 1
44 22 1
44 23 1
44 26 1
44 29 1
44 34 1
44 39 1
44 40 1
44 41 1
44 51 1
44 61 1
44 65 1
44 71 1
44 78 1
44 81 1
44 88 1
44 90 1
44 104 1
44 106 1
44 118 1
44 126 1
44 139 1
44 141 1
44 146 1
44 153 1
44 155 1
44 157 1
44 173 1
44 174 1
44 175 1
44 181 1
44 186 1
44 191 1
44 193 1
44 195 1
44 216 1
44 219 1
44 228 1
44 231 1
44 237 1
44 242 1
44 246 1
44 247 1
44 253 1
44 258 1
44 265 1
44 267 1
44 269 1
44 271 1
44 273 1
44 282 1
44 288 1
44 296 1
44 301 1
44 305 1
44 319 1
44 320 1
44 322 1
44 326 1
44 327 1
44 333 1
44 337 1
44 353 1
44 363 1
44 365 1
44 366 1
44 370 1
44 374 1
44 391 1
44 395 1
44 397 1
44 406 1
44 416 1
44 417 1
44 425 1
44 431 1
44 432 1
44 433 1
44 434 1
44 442 1
44 443 1
44 445 1
44 447 1
44 449 1
44 450 1
44 452 1
44 454 1
44 458 1
44 461 1
44 462 1
44 463 1
44 464 1
44 472 1
44 474 1
44 479 1
44 483 1
44 485 1
44 491 1
44 492 1
44 493 1
44 494 1
44 507 1
44 508 1
44 509 1
44 514 1
44 523 1
44 524 1
44 526 1
44 544 1
44 545 1
44 548 1
44 549 1
44 551 1
44 554 1
44 565 1
44 571 1
44 573 1
44 585 1
44 590 1
44 592 1
44 594 1
44 597 1
44 598 1
44 605 1
44 610 1
44 616 1
44 617 1
44 622 1
44 625 1
44 627 1
44 644 1
44 665 1
44 669 1
44 673 1
44 675 1
44 677 1
44 680 1
44 682 1
44 684 1
44 685 1
44 688 1
44 695 1
44 696 1
44 699 1
45 7 1
45 13 1
45 35 1
45 40 1
45 51 1
45 53 1
45 54 1
45 59 1
45 64 1
45 65 1
45 67 1
45 76 1
45 95 1
45 101 1
45 107 1
45 111 1
45 112 1
45 116 1
45 121 1
45 123 1
45 124 1
45 125 1
45 130 1
45 136 1
45 148 1
45 153 1
45 155 1
45 162 1
45 164 1
45 167 1
45 168 1
45 169 1
45 172 1
45 176 1
45 180 1
45 181 1
45 193 1
45 203 1
45 205 1
45 208 1
45 212 1
45 217 1
45 226 1
45 237 1
45 240 1
45 241 1
45 246 1
45 252 1
45 261 1
45 265 1
45 266 1
45 285 1
45 292 1
45 302 1
45 312 1
45 318 1
45 322 1
45 323 1
45 326 1
45 334 1
45 339 1
45 342 1
45 344 1
45 347 1
45 350 1
45 355 1
45 360 1
45 361 1
45 362 1
45 365 1
45 371 1
45 387 1
45 389 1
45 391 1
45 396 1
45 400 1
45 402 1
45 403 1
45 421 1
45 426 1
45 437 1
45 447 1
45 452 1
45 455 1
45 463 1
45 464 1
45 465 1
45 466 1
45 467 1
45 473 1
45 483 1
45 485 1
45 487 1
45 488 1
45 489 1
45 494 1
45 496 1
45 498 1
45 500 1
45 506 1
45 512 1
45 531 1
45 533 1
45 539 1
45 540 1
45 549 1
45 551 1
45 557 1
45 563 1
45 565 1
45 566 1
45 567 1
45 568 1
45 577 1
45 578 1
45 580 1
45 585 1
45 590 1
45 592 1
45 594 1
45 600 1
45 601 1
45 607 1
45 608 1
45 614 1
45 619 1
45 630 1
45 634 1
45 636 1
45 640 1
45 642 1
45 643 1
45 651 1
45 666 1
45 674 1
45 678 1
45 680 1
45 682 1
45 687 1
45 688 1
45 695 1
46 7 1
46 11 1
46 19 1
46 20 1
46 27 1
46 28 1
46 32 1
46 34 1
46 40 1
46 43 1
46 52 1
46 63 1
46 68 1
46 70 1
46 75 1
46 81 1
46 90 1
46 97 1
46 107 1
46 109 1
46 123 1
46 127 1
46 129 1
46 143 1
46 156 1
46 157 1
46 160 1
46 169 1
46 170 1
46 171 1
46 173 1
46 176 1
46 177 1
46 184 1
46 185 1
46 188 1
46 203 1
46 205 1
46 209 1
46 210 1
46 211 1
46 219 1
46 223 1
46 230 1
46 245 1
46 246 1
46 249 1
46 257 1
46 259 1
46 262 1
46 266 1
46 268 1
46 279 1
46 287 1
46 297 1
46 298 1
46 304 1
46 310 1
46 315 1
46 323 1
46 327 1
46 329 1
46 334 1
46 335 1
46 343 1
46 347 1
46 370 1
46 385 1
46 386 1
46 387 1
46 388 1
46 391 1
46 394 1
46 397 1
46 407 1
46 411 1
46 413 1
46 422 1
46 434 1
46 437 1
46 446 1
46 452 1
46 465 1
46 469 1
46 471 1
46 479 1
46 487 1
46 492 1
46 495 1
46 510 1
46 513 1
46 517 1
46 520 1
46 521 1
46 533 1
46 539 1
46 543 1
46 550 1
46 559 1
46 560 1
46 563 1
46 565 1
46 571 1
46 577 1
46 583 1
46 598 1
46 604 1
46 605 1
46 612 1
46 613 1
46 614 1
46 615 1
46 617 1
46 620 1
46 625 1
46 626 1
46 631 1
46 636 1
46 639 1
46 642 1
46 643 1
46 644 1
46 646 1
46 654 1
46 658 1
46 660 1
46 680 1
46 686 1
46 693 1
46 697 1
46 698 1
46 700 1
47 3 1
47 7 1
47 21 1
47 26 1
47 29 1
47 35 1
47 39 1
47 41 1
47 49 1
47 68 1
47 71 1
47 72 1
47 74 1
47 76 1
47 91 1
47 100 1
47 107 1
47 110 1
47 113 1
47 118 1
47 120 1
47 128 1
47 132 1
47 134 1
47 137 1
47 146 1
47 149 1
47 156 1
47 160 1
47 162 1
47 166 1
47 167 1
47 168 1
47 169 1
47 173 1
47 176 1
47 184 1
47 186 1
47 187 1
47 191 1
47 193 1
47 197 1
47 199 1
47 200 1
47 208 1
47 210 1
47 211 1
47 216 1
47 222 1
47 228 1
47 229 1
47 232 1
47 244 1
47 247 1
47 254 1
47 262 1
47 276 1
47 279 1
47 284 1
47 286 1
47 291 1
47 292 1
47 294 1
47 304 1
47 318 1
47 326 1
47 330 1
47 331 1
47 333 1
47 335 1
47 339 1
47 342 1
47 348 1
47 353 1
47 358 1
47 366 1
47 368 1
47 370 1
47 374 1
47 378 1
47 381 1
47 382 1
47 383 1
47 385 1
47 396 1
47 402 1
47 403 1
47 409 1
47 411 1
47 413 1
47 415 1
47 417 1
47 420 1
47 423 1
47 424 1
47 431 1
47 433 1
47 446 1
47 453 1
47 464 1
47 467 1
47 469 1
47 471 1
47 472 1
47 475 1
47 478 1
47 481 1
47 492 1
47 504 1
47 508 1
47 514 1
47 515 1
47 519 1
47 525 1
47 527 1
47 530 1
47 534 1
47 536 1
47 542 1
47 545 1
47 546 1
47 551 1
47 554 1
47 556 1
47 565 1
47 572 1
47 577 1
47 580 1
47 581 1
47 584 1
47 586 1
47 588 1
47 592 1
47 593 1
47 599 1
47 600 1
47 616 1
47 618 1
47 620 1
47 622 1
47 635 1
47 639 1
47 643 1
47 645 1
47 648 1
47 689 1
47 692 1
47 697 1
47 700 1
48 8 1
48 13 1
48 18 1
48 24 1
48 31 1
48 38 1
48 56 1
48 58 1
48 60 1
48 61 1
48 62 1
48 64 1
48 65 1
48 69 1
48 70 1
48 73 1
48 79 1
48 88 1
48 94 1
48 100 1
48 104 1
48 108 1
48 109 1
48 119 1
48 126 1
48 137 1
48 144 1
48 145 1
48 149 1
48 175 1
48 180 1
48 184 1
48 192 1
48 196 1
48 201 1
48 204 1
48 205 1
48 206 1
48 213 1
48 214 1
48 221 1
48 222 1
48 224 1
48 225 1
48 228 1
48 232 1
48 245 1
48 255 1
48 261 1
48 267 1
48 268 1
48 274 1
48 275 1
48 282 1
48 286 1
48 289 1
48 300 1
48 305 1
48 321 1
48 323 1
48 325 1
48 328 1
48 335 1
48 339 1
48 342 1
48 344 1
48 347 1
48 354 1
48 363 1
48 368 1
48 369 1
48 373 1
48 375 1
48 378 1
48 379 1
48 381 1
48 383 1
48 384 1
48 388 1
48 390 1
48 403 1
48 404 1
48 407 1
48 408 1
48 412 1
48 426 1
48 434 1
48 441 1
48 449 1
48 455 1
48 456 1
48 460 1
48 464 1
48 467 1
48 468 1
48 483 1
48 485 1
48 491 1
48 495 1
48 496 1
48 499 1
48 513 1
48 515 1
48 534 1
48 538 1
48 539 1
48 542 1
48 544 1
48 554 1
48 558 1
48 560 1
48 562 1
48 573 1
48 577 1
48 597 1
48 603 1
48 606 1
48 610 1
48 616 1
48 631 1
48 633 1
48 634 1
48 640 1
48 643 1
48 649 1
48 655 1
48 661 1
48 668 1
48 671 1
48 675 1
48 676 1
48 691 1
48 695 1
48 697 1
49 3 1
49 4 1
49 13 1
49 14 1
49 15 1
49 18 1
49 22 1
49 30 1
49 34 1
49 36 1
49 47 1
49 54 1
49 69 1
49 77 1
49 80 1
49 81 1
49 82 1
49 89 1
49 97 1
49 105 1
49 110 1
49 117 1
49 121 1
49 129 1
49 132 1
49 144 1
49 151 1
49 153 1
49 156 1
49 182 1
49 186 1
49 191 1
49 198 1
49 205 1
49 213 1
49 219 1
49 228 1
49 230 1
49 233 1
49 235 1
49 237 1
49 238 1
49 243 1
49 244 1
49 245 1
49 249 1
49 253 1
49 264 1
49 281 1
49 283 1
49 289 1
49 291 1
49 292 1
49 299 1
49 301 1
49 302 1
49 304 1
49 305 1
49 307 1
49 309 1
49 310 1
49 314 1
49 315 1
49 319 1
49 322 1
49 324 1
49 332 1
49 334 1
49 339 1
49 342 1
49 343 1
49 345 1
49 346 1
49 347 1
49 349 1
49 351 1
49 354 1
49 358 1
49 361 1
49 365 1
49 366 1
49 368 1
49 388 1
49 389 1
49 391 1
49 394 1
49 399 1
49 403 1
49 405 1
49 406 1
49 411 1
49 417 1
49 422 1
49 424 1
49 436 1
49 440 1
49 446 1
49 449 1
49 461 1
49 463 1
49 488 1
49 496 1
49 500 1
49 511 1
49 514 1
49 519 1
49 525 1
49 527 1
49 532 1
49 534 1
49 544 1
49 547 1
49 548 1
49 556 1
49 557 1
49 560 1
49 561 1
49 568 1
49 573 1
49 581 1
49 586 1
49 592 1
49 605 1
49 609 1
49 613 1
49 614 1
49 617 1
49 618 1
49 624 1
49 635 1
49 636 1
49 640 1
49 643 1
49 649 1
49 652 1
49 653 1
49 656 1
49 669 1
49 673 1
49 675 1
49 683 1
49 686 1
49 692 1
49 695 1
49 698 1
50 3 1
50 7 1
50 13 1
50 17 1
50 20 1
50 24 1
50 33 1
50 34 1
50 35 1
50 54 1
50 56 1
50 63 1
50 67 1
50 69 1
50 71 1
50 72 1
50 76 1
50 81 1
50 84 1
50 89 1
50 91 1
50 95 1
50 99 1
50 103 1
50 106 1
50 110 1
50 111 1
50 119 1
50 121 1
50 125 1
50 140 1
50 143 1
50 146 1
50 159 1
50 165 1
50 167 1
50 174 1
50 176 1
50 178 1
50 181 1
50 192 1
50 203 1
50 220 1
50 222 1
50 239 1
50 244 1
50 246 1
50 247 1
50 251 1
50 256 1
50 267 1
50 268 1
50 270 1
50 272 1
50 276 1
50 305 1
50 307 1
50 310 1
50 319 1
50 320 1
50 326 1
50 333 1
50 336 1
50 339 1
50 342 1
50 343 1
50 355 1
50 359 1
50 369 1
50 371 1
50 372 1
50 381 1
50 399 1
50 410 1
50 429 1
50 435 1
50 437 1
50 439 1
50 444 1
50 448 1
50 458 1
50 463 1
50 467 1
50 473 1
50 475 1
50 480 1
50 482 1
50 486 1
50 489 1
50 490 1
50 495 1
50 496 1
50 497 1
50 500 1
50 502 1
50 508 1
50 509 1
50 511 1
50 521 1
50 524 1
50 525 1
50 527 1
50 532 1
50 536 1
50 540 1
50 543 1
50 547 1
50 552 1
50 555 1
50 557 1
50 558 1
50 561 1
50 565 1
50 572 1
50 586 1
50 592 1
50 607 1
50 609 1
50 614 1
50 619 1
50 626 1
50 630 1
50 641 1
50 647 1
50 650 1
50 658 1
50 667 1
50 671 1
50 672 1
50 678 1
50 685 1
50 699 1
51 1 1
51 2 1
51 4 1
51 6 1
51 9 1
51 11 1
51 15 1
51 18 1
51 24 1
51 28 1
51 31 1
51 35 1
51 38 1
51 41 1
51 44 1
51 45 1
51 56 1
51 57 1
51 58 1
51 60 1
51 61 1
51 63 1
51 77 1
51 81 1
51 84 1
51 94 1
51 99 1
51 106 1
51 115 1
51 118 1
51 119 1
51 126 1
51 128 1
51 129 1
51 145 1
51 146 1
51 150 1
51 159 1
51 162 1
51 169 1
51 171 1
51 174 1
51 177 1
51 192 1
51 199 1
51 206 1
51 209 1
51 210 1
51 211 1
51 212 1
51 216 1
51 217 1
51 227 1
51 242 1
51 245 1
51 250 1
51 251 1
51 254 1
51 256 1
51 266 1
51 268 1
51 277 1
51 278 1
51 282 1
51 296 1
51 298 1
51 310 1
51 326 1
51 329 1
51 330 1
51 359 1
51 361 1
51 369 1
51 379 1
51 380 1
51 381 1
51 382 1
51 384 1
51 390 1
51 410 1
51 417 1
51 420 1
51 421 1
51 422 1
51 427 1
51 428 1
51 429 1
51 433 1
51 436 1
51 448 1
51 451 1
51 453 1
51 458 1
51 465 1
51 479 1
51 481 1
51 482 1
51 488 1
51 501 1
51 506 1
51 511 1
51 512 1
51 514 1
51 519 1
51 523 1
51 536 1
51 539 1
51 542 1
51 543 1
51 545 1
51 546 1
51 551 1
51 561 1
51 564 1
51 571 1
51 572 1
51 580 1
51 583 1
51 584 1
51 586 1
51 590 1
51 596 1
51 602 1
51 609 1
51 615 1
51 622 1
51 626 1
51 630 1
51 631 1
51 633 1
51 636 1
51 642 1
51 646 1
51 648 1
51 656 1
51 662 1
51 664 1
51 665 1
51 666 1
51 674 1
51 681 1
51 686 1
51 688 1
51 693 1
51 696 1
51 697 1
51 699 1
52 1 1
52 2 1
52 4 1
52 12 1
52 31 1
52 39 1
52 41 1
52 46 1
52 54 1
52 55 1
52 58 1
52 61 1
52 62 1
52 66 1
52 70 1
52 72 1
52 74 1
52 76 1
52 80 1
52 91 1
52 94 1
52 96 1
52 98 1
52 106 1
52 108 1
52 110 1
52 127 1
52 134 1
52 143 1
52 149 1
52 153 1
52 154 1
52 159 1
52 164 1
52 165 1
52 171 1
52 172 1
52 176 1
52 178 1
52 182 1
52 183 1
52 187 1
52 202 1
52 204 1
52 207 1
52 219 1
52 222 1
52 224 1
52 230 1
52 239 1
52 244 1
52 246 1
52 259 1
52 262 1
52 266 1
52 267 1
52 271 1
52 277 1
52 278 1
52 283 1
52 285 1
52 310 1
52 313 1
52 314 1
52 319 1
52 320 1
52 327 1
52 332 1
52 339 1
52 340 1
52 345 1
52 360 1
52 362 1
52 369 1
52 371 1
52 380 1
52 388 1
52 389 1
52 392 1
52 402 1
52 404 1
52 407 1
52 409 1
52 410 1
52 412 1
52 420 1
52 427 1
52 430 1
52 433 1
52 435 1
52 438 1
52 445 1
52 446 1
52 449 1
52 455 1
52 459 1
52 460 1
52 462 1
52 467 1
52 468 1
52 472 1
52 476 1
52 488 1
52 496 1
52 502 1
52 505 1
52 510 1
52 515 1
52 518 1
52 522 1
52 527 1
52 534 1
52 535 1
52 536 1
52 538 1
52 547 1
52 555 1
52 559 1
52 561 1
52 563 1
52 586 1
52 588 1
52 591 1
52 598 1
52 606 1
52 607 1
52 610 1
52 611 1
52 613 1
52 617 1
52 619 1
52 629 1
52 631 1
52 644 1
52 646 1
52 649 1
52 664 1
52 665 1
52 678 1
52 679 1
52 685 1
52 686 1
52 688 1
52 689 1
52 690 1
52 697 1
53 1 1
53 13 1
53 16 1
53 20 1
53 31 1
53 37 1
53 40 1
53 45 1
53 56 1
53 58 1
53 59 1
53 64 1
53 66 1
53 67 1
53 70 1
53 86 1
53 104 1
53 112 1
53 114 1
53 120 1
53 134 1
53 141 1
53 145 1
53 159 1
53 165 1
53 179 1
53 185 1
53 193 1
53 200 1
53 202 1
53 203 1
53 207 1
53 221 1
53 225 1
53 236 1
53 240 1
53 250 1
53 254 1
53 256 1
53 260 1
53 262 1
53 268 1
53 282 1
53 287 1
53 288 1
53 290 1
53 296 1
53 306 1
53 310 1
53 325 1
53 338 1
53 342 1
53 350 1
53 358 1
53 370 1
53 375 1
53 381 1
53 389 1
53 410 1
53 411 1
53 424 1
53 425 1
53 431 1
53 434 1
53 436 1
53 439 1
53 441 1
53 457 1
53 460 1
53 471 1
53 474 1
53 483 1
53 486 1
53 488 1
53 489 1
53 491 1
53 495 1
53 497 1
53 500 1
53 502 1
53 506 1
53 507 1
53 510 1
53 511 1
53 516 1
53 518 1
53 521 1
53 525 1
53 530 1
53 538 1
53 541 1
53 542 1
53 545 1
53 550 1
53 559 1
53 560 1
53 564 1
53 570 1
53 571 1
53 574 1
53 575 1
53 579 1
53 581 1
53 585 1
53 589 1
53 595 1
53 596 1
53 604 1
53 610 1
53 615 1
53 616 1
53 620 1
53 623 1
53 624 1
53 631 1
53 632 1
53 641 1
53 645 1
53 660 1
53 661 1
53 668 1
53 680 1
53 687 1
53 688 1
53 689 1
53 697 1
53 698 1
53 699 1
54 1 1
54 2 1
54 6 1
54 12 1
54 15 1
54 16 1
54 17 1
54 21 1
54 25 1
54 33 1
54 34 1
54 43 1
54 45 1
54 49 1
54 50 1
54 52 1
54 59 1
54 67 1
54 68 1
54 69 1
54 76 1
54 79 1
54 81 1
54 121 1
54 126 1
54 140 1
54 142 1
54 161 1
54 166 1
54 169 1
54 182 1
54 185 1
54 191 1
54 199 1
54 201 1
54 212 1
54 213 1
54 214 1
54 229 1
54 232 1
54 234 1
54 237 1
54 248 1
54 252 1
54 258 1
54 277 1
54 288 1
54 292 1
54 296 1
54 299 1
54 302 1
54 304 1
54 307 1
54 318 1
54 320 1
54 323 1
54 327 1
54 331 1
54 341 1
54 342 1
54 344 1
54 348 1
54 351 1
54 355 1
54 356 1
54 357 1
54 360 1
54 363 1
54 367 1
54 373 1
54 376 1
54 380 1
54 381 1
54 385 1
54 388 1
54 389 1
54 392 1
54 393 1
54 408 1
54 410 1
54 417 1
54 418 1
54 421 1
54 447 1
54 448 1
54 450 1
54 454 1
54 458 1
54 462 1
54 463 1
54 469 1
54 473 1
54 475 1
54 481 1
54 491 1
54 495 1
54 498 1
54 500 1
54 503 1
54 504 1
54 505 1
54 507 1
54 518 1
54 527 1
54 528 1
54 529 1
54 530 1
54 532 1
54 539 1
54 540 1
54 541 1
54 542 1
54 544 1
54 546 1
54 550 1
54 558 1
54 565 1
54 571 1
54 574 1
54 577 1
54 580 1
54 583 1
54 590 1
54 591 1
54 596 1
54 597 1
54 598 1
54 600 1
54 611 1
54 618 1
54 620 1
54 626 1
54 629 1
54 630 1
54 638 1
54 639 1
54 644 1
54 645 1
54 646 1
54 649 1
54 651 1
54 652 1
54 656 1
54 660 1
54 662 1
54 692 1
54 696 1
55 2 1
55 4 1
55 11 1
55 23 1
55 27 1
55 41 1
55 43 1
55 52 1
55 56 1
55 59 1
55 67 1
55 71 1
55 74 1
55 79 1
55 81 1
55 82 1
55 86 1
55 87 1
55 89 1
55 93 1
55 101 1
55 103 1
55 110 1
55 115 1
55 127 1
55 135 1
55 136 1
55 138 1
55 141 1
55 149 1
55 152 1
55 163 1
55 167 1
55 171 1
55 175 1
55 177 1
55 193 1
55 194 1
55 198 1
55 201 1
55 202 1
55 204 1
55 214 1
55 215 1
55 216 1
55 221 1
55 222 1
55 224 1
55 232 1
55 237 1
55 242 1
55 244 1
55 248 1
55 252 1
55 253 1
55 263 1
55 267 1
55 268 1
55 271 1
55 283 1
55 285 1
55 288 1
55 289 1
55 293 1
55 310 1
55 312 1
55 326 1
55 327 1
55 328 1
55 331 1
55 336 1
55 338 1
55 347 1
55 367 1
55 373 1
55 374 1
55 379 1
55 380 1
55 382 1
55 386 1
55 388 1
55 389 1
55 394 1
55 397 1
55 399 1
55 401 1
55 403 1
55 408 1
55 413 1
55 415 1
55 418 1
55 420 1
55 427 1
55 432 1
55 438 1
55 447 1
55 453 1
55 455 1
55 458 1
55 463 1
55 464 1
55 466 1
55 470 1
55 474 1
55 480 1
55 482 1
55 484 1
55 488 1
55 491 1
55 492 1
55 500 1
55 503 1
55 508 1
55 511 1
55 516 1
55 517 1
55 523 1
55 525 1
55 526 1
55 527 1
55 536 1
55 537 1
55 543 1
55 549 1
55 551 1
55 554 1
55 563 1
55 565 1
55 568 1
55 569 1
55 580 1
55 585 1
55 589 1
55 592 1
55 596 1
55 602 1
55 603 1
55 605 1
55 621 1
55 624 1
55 625 1
55 628 1
55 633 1
55 650 1
55 652 1
55 657 1
55 664 1
55 666 1
55 681 1
55 688 1
55 700 1
56 19 1
56 20 1
56 24 1
56 25 1
56 26 1
56 34 1
56 39 1
56 40 1
56 48 1
56 50 1
56 51 1
56 53 1
56 55 1
56 70 1
56 72 1
56 77 1
56 85 1
56 96 1
56 107 1
56 109 1
56 112 1
56 113 1
56 118 1
56 120 1
56 135 1
56 137 1
56 144 1
56 158 1
56 160 1
56 163 1
56 172 1
56 178 1
56 189 1
56 190 1
56 208 1
56 225 1
56 226 1
56 240 1
56 246 1
56 257 1
56 258 1
56 264 1
56 269 1
56 275 1
56 283 1
56 288 1
56 293 1
56 304 1
56 317 1
56 318 1
56 323 1
56 324 1
56 332 1
56 336 1
56 339 1
56 347 1
56 349 1
56 353 1
56 359 1
56 377 1
56 384 1
56 385 1
56 392 1
56 394 1
56 396 1
56 399 1
56 400 1
56 407 1
56 410 1
56 412 1
56 413 1
56 424 1
56 428 1
56 432 1
56 435 1
56 442 1
56 445 1
56 452 1
56 453 1
56 463 1
56 464 1
56 481 1
56 483 1
56 484 1
56 486 1
56 490 1
56 501 1
56 503 1
56 507 1
56 517 1
56 519 1
56 525 1
56 528 1
56 531 1
56 538 1
56 547 1
56 549 1
56 554 1
56 557 1
56 564 1
56 570 1
56 572 1
56 573 1
56 575 1
56 580 1
56 586 1
56 590 1
56 591 1
56 592 1
56 594 1
56 595 1
56 596 1
56 600 1
56 609 1
56 613 1
56 618 1
56 622 1
56 624 1
56 632 1
56 638 1
56 644 1
56 649 1
56 656 1
56 661 1
56 663 1
56 670 1
56 671 1
56 672 1
56 673 1
56 675 1
56 699 1
57 6 1
57 7 1
57 8 1
57 13 1
57 15 1
57 20 1
57 21 1
57 22 1
57 23 1
57 28 1
57 29 1
57 31 1
57 33 1
57 38 1
57 39 1
57 51 1
57 63 1
57 68 1
57 69 1
57 73 1
57 75 1
57 95 1
57 96 1
57 99 1
57 116 1
57 117 1
57 118 1
57 124 1
57 125 1
57 128 1
57 129 1
57 137 1
57 143 1
57 144 1
57 148 1
57 149 1
57 151 1
57 154 1
57 169 1
57 170 1
57 179 1
57 180 1
57 204 1
57 208 1
57 210 1
57 214 1
57 220 1
57 228 1
57 237 1
57 241 1
57 246 1
57 247 1
57 253 1
57 260 1
57 276 1
57 281 1
57 285 1
57 286 1
57 287 1
57 288 1
57 290 1
57 292 1
57 304 1
57 307 1
57 312 1
57 313 1
57 333 1
57 342 1
57 344 1
57 345 1
57 348 1
57 357 1
57 359 1
57 365 1
57 366 1
57 379 1
57 388 1
57 389 1
57 393 1
57 397 1
57 399 1
57 402 1
57 410 1
57 411 1
57 413 1
57 419 1
57 421 1
57 424 1
57 429 1
57 430 1
57 431 1
57 435 1
57 436 1
57 437 1
57 438 1
57 440 1
57 441 1
57 443 1
57 452 1
57 463 1
57 474 1
57 476 1
57 477 1
57 480 1
57 495 1
57 501 1
57 509 1
57 519 1
57 522 1
57 527 1
57 531 1
57 536 1
57 544 1
57 546 1
57 562 1
57 566 1
57 567 1
57 569 1
57 571 1
57 582 1
57 592 1
57 596 1
57 599 1
57 601 1
57 602 1
57 609 1
57 615 1
57 616 1
57 617 1
57 623 1
57 631 1
57 633 1
57 636 1
57 637 1
57 638 1
57 645 1
57 653 1
57 655 1
57 656 1
57 658 1
57 659 1
57 660 1
57 663 1
57 665 1
57 667 1
57 670 1
57 675 1
57 682 1
57 687 1
57 689 1
57 691 1
57 692 1
57 699 1
58 3 1
58 19 1
58 20 1
58 22 1
58 28 1
58 40 1
58 48 1
58 51 1
58 52 1
58 53 1
58 59 1
58 68 1
58 69 1
58 74 1
58 85 1
58 86 1
58 94 1
58 103 1
58 107 1
58 112 1
58 114 1
58 115 1
58 118 1
58 126 1
58 127 1
58 133 1
58 136 1
58 141 1
58 151 1
58 154 1
58 155 1
58 176 1
58 177 1
58 192 1
58 223 1
58 227 1
58 228 1
58 231 1
58 235 1
58 236 1
58 242 1
58 248 1
58 254 1
58 255 1
58 265 1
58 267 1
58 268 1
58 270 1
58 280 1
58 282 1
58 285 1
58 290 1
58 308 1
58 310 1
58 314 1
58 323 1
58 326 1
58 327 1
58 332 1
58 336 1
58 345 1
58 351 1
58 352 1
58 365 1
58 373 1
58 376 1
58 383 1
58 384 1
58 391 1
58 394 1
58 400 1
58 404 1
58 409 1
58 413 1
58 415 1
58 416 1
58 432 1
58 434 1
58 435 1
58 438 1
58 443 1
58 446 1
58 451 1
58 452 1
58 461 1
58 465 1
58 466 1
58 474 1
58 483 1
58 484 1
58 490 1
58 495 1
58 499 1
58 500 1
58 502 1
58 504 1
58 505 1
58 506 1
58 509 1
58 514 1
58 517 1
58 518 1
58 528 1
58 532 1
58 539 1
58 540 1
58 550 1
58 552 1
58 555 1
58 564 1
58 567 1
58 571 1
58 574 1
58 577 1
58 581 1
58 584 1
58 585 1
58 590 1
58 593 1
58 594 1
58 595 1
58 604 1
58 608 1
58 610 1
58 619 1
58 622 1
58 623 1
58 635 1
58 640 1
58 642 1
58 672 1
58 680 1
58 681 1
58 682 1
58 700 1
59 1 1
59 9 1
59 13 1
59 23 1
59 32 1
59 33 1
59 36 1
59 42 1
59 45 1
59 53 1
59 54 1
59 55 1
59 58 1
59 61 1
59 64 1
59 65 1
59 67 1
59 74 1
59 76 1
59 81 1
59 85 1
59 88 1
59 100 1
59 103 1
59 110 1
59 117 1
59 130 1
59 132 1
59 133 1
59 135 1
59 137 1
59 152 1
59 158 1
59 168 1
59 173 1
59 175 1
59 183 1
59 184 1
59 189 1
59 191 1
59 205 1
59 210 1
59 213 1
59 214 1
59 221 1
59 225 1
59 229 1
59 230 1
59 232 1
59 235 1
59 251 1
59 256 1
59 259 1
59 262 1
59 264 1
59 265 1
59 268 1
59 273 1
59 275 1
59 276 1
59 277 1
59 279 1
59 286 1
59 293 1
59 296 1
59 300 1
59 303 1
59 310 1
59 317 1
59 318 1
59 319 1
59 331 1
59 333 1
59 337 1
59 338 1
59 352 1
59 359 1
59 370 1
59 381 1
59 387 1
59 388 1
59 411 1
59 417 1
59 421 1
59 428 1
59 431 1
59 434 1
59 435 1
59 438 1
59 439 1
59 445 1
59 453 1
59 456 1
59 458 1
59 462 1
59 478 1
59 495 1
59 499 1
59 501 1
59 508 1
59 521 1
59 522 1
59 524 1
59 526 1
59 537 1
59 549 1
59 568 1
59 594 1
59 597 1
59 600 1
59 601 1
59 602 1
59 611 1
59 612 1
59 616 1
59 624 1
59 626 1
59 631 1
59 632 1
59 638 1
59 646 1
59 653 1
59 656 1
59 658 1
59 661 1
59 664 1
59 665 1
59 669 1
59 680 1
59 688 1
59 693 1
59 695 1
60 6 1
60 8 1
60 12 1
60 14 1
60 16 1
60 17 1
60 19 1
60 24 1
60 31 1
60 32 1
60 33 1
60 37 1
60 38 1
60 39 1
60 43 1
60 48 1
60 51 1
60 68 1
60 75 1
60 79 1
60 81 1
60 85 1
60 88 1
60 89 1
60 94 1
60 99 1
60 110 1
60 112 1
60 114 1
60 115 1
60 116 1
60 118 1
60 121 1
60 122 1
60 130 1
60 140 1
60 147 1
60 151 1
60 152 1
60 153 1
60 160 1
60 165 1
60 166 1
60 170 1
60 177 1
60 183 1
60 184 1
60 198 1
60 200 1
60 202 1
60 205 1
60 206 1
60 209 1
60 215 1
60 216 1
60 221 1
60 233 1
60 244 1
60 245 1
60 246 1
60 268 1
60 269 1
60 271 1
60 272 1
60 280 1
60 284 1
60 285 1
60 286 1
60 301 1
60 305 1
60 315 1
60 319 1
60 327 1
60 330 1
60 335 1
60 336 1
60 337 1
60 343 1
60 345 1
60 346 1
60 347 1
60 352 1
60 356 1
60 358 1
60 361 1
60 364 1
60 367 1
60 369 1
60 376 1
60 377 1
60 378 1
60 382 1
60 391 1
60 395 1
60 397 1
60 401 1
60 408 1
60 412 1
60 414 1
60 430 1
60 435 1
60 438 1
60 446 1
60 455 1
60 457 1
60 465 1
60 469 1
60 475 1
60 481 1
60 494 1
60 500 1
60 501 1
60 503 1
60 504 1
60 507 1
60 510 1
60 512 1
60 515 1
60 518 1
60 520 1
60 523 1
60 525 1
60 529 1
60 530 1
60 531 1
60 542 1
60 559 1
60 560 1
60 584 1
60 591 1
60 607 1
60 608 1
60 615 1
60 622 1
60 623 1
60 636 1
60 646 1
60 659 1
60 662 1
60 664 1
60 670 1
60 675 1
60 681 1
60 692 1
60 694 1
61 2 1
61 3 1
61 14 1
61 22 1
61 31 1
61 33 1
61 37 1
61 44 1
61 48 1
61 51 1
61 52 1
61 59 1
61 63 1
61 65 1
61 78 1
61 80 1
61 81 1
61 89 1
61 122 1
61 126 1
61 133 1
61 135 1
61 136 1
61 143 1
61 145 1
61 156 1
61 158 1
61 163 1
61 166 1
61 171 1
61 173 1
61 179 1
61 190 1
61 196 1
61 201 1
61 205 1
61 210 1
61 214 1
61 215 1
61 219 1
61 220 1
61 230 1
61 238 1
61 239 1
61 245 1
61 247 1
61 250 1
61 256 1
61 258 1
61 260 1
61 270 1
61 279 1
61 284 1
61 289 1
61 302 1
61 303 1
61 307 1
61 309 1
61 310 1
61 312 1
61 313 1
61 314 1
61 315 1
61 316 1
61 322 1
61 327 1
61 328 1
61 329 1
61 338 1
61 350 1
61 352 1
61 354 1
61 355 1
61 357 1
61 360 1
61 361 1
61 368 1
61 382 1
61 387 1
61 394 1
61 404 1
61 412 1
61 426 1
61 427 1
61 430 1
61 438 1
61 440 1
61 441 1
61 450 1
61 452 1
61 454 1
61 455 1
61 464 1
61 472 1
61 475 1
61 480 1
61 481 1
61 484 1
61 485 1
61 490 1
61 491 1
61 492 1
61 497 1
61 498 1
61 510 1
61 512 1
61 515 1
61 519 1
61 523 1
61 524 1
61 528 1
61 529 1
61 545 1
61 548 1
61 561 1
61 562 1
61 564 1
61 570 1
61 571 1
61 573 1
61 580 1
61 589 1
61 594 1
61 600 1
61 604 1
61 623 1
61 632 1
61 640 1
61 643 1
61 644 1
61 645 1
61 651 1
61 660 1
61 663 1
61 664 1
61 665 1
61 667 1
61 671 1
61 678 1
61 680 1
61 682 1
61 686 1
61 687 1
61 691 1
62 8 1
62 15 1
62 20 1
62 23 1
62 27 1
62 32 1
62 37 1
62 43 1
62 48 1
62 52 1
62 65 1
62 70 1
62 71 1
62 89 1
62 93 1
62 102 1
62 103 1
62 115 1
62 123 1
62 126 1
62 128 1
62 131 1
62 142 1
62 147 1
62 155 1
62 160 1
62 161 1
62 167 1
62 171 1
62 172 1
62 175 1
62 176 1
62 192 1
62 198 1
62 204 1
62 210 1
62 212 1
62 215 1
62 222 1
62 228 1
62 239 1
62 256 1
62 258 1
62 259 1
62 261 1
62 262 1
62 273 1
62 275 1
62 286 1
62 290 1
62 294 1
62 297 1
62 301 1
62 303 1
62 304 1
62 308 1
62 310 1
62 311 1
62 313 1
62 316 1
62 319 1
62 320 1
62 321 1
62 330 1
62 331 1
62 334 1
62 343 1
62 349 1
62 351 1
62 361 1
62 368 1
62 392 1
62 397 1
62 400 1
62 421 1
62 427 1
62 432 1
62 439 1
62 441 1
62 452 1
62 479 1
62 484 1
62 485 1
62 490 1
62 491 1
62 498 1
62 510 1
62 516 1
62 518 1
62 524 1
62 525 1
62 529 1
62 539 1
62 547 1
62 550 1
62 558 1
62 566 1
62 567 1
62 584 1
62 600 1
62 604 1
62 605 1
62 621 1
62 625 1
62 628 1
62 630 1
62 639 1
62 644 1
62 645 1
62 646 1
62 647 1
62 661 1
62 663 1
62 665 1
62 672 1
62 680 1
62 685 1
62 687 1
62 688 1
62 693 1
62 699 1
63 2 1
63 5 1
63 6 1
63 17 1
63 19 1
63 29 1
63 36 1
63 42 1
63 46 1
63 50 1
63 51 1
63 57 1
63 61 1
63 68 1
63 69 1
63 74 1
63 78 1
63 83 1
63 87 1
63 89 1
63 93 1
63 96 1
63 104 1
63 105 1
63 106 1
63 107 1
63 115 1
63 122 1
63 125 1
63 136 1
63 138 1
63 142 1
63 148 1
63 150 1
63 157 1
63 167 1
63 168 1
63 171 1
63 177 1
63 180 1
63 182 1
63 186 1
63 196 1
63 199 1
63 200 1
63 212 1
63 222 1
63 238 1
63 248 1
63 253 1
63 258 1
63 264 1
63 272 1
63 273 1
63 277 1
63 281 1
63 284 1
63 286 1
63 287 1
63 293 1
63 296 1
63 308 1
63 311 1
63 321 1
63 322 1
63 333 1
63 338 1
63 342 1
63 351 1
63 360 1
63 361 1
63 368 1
63 380 1
63 384 1
63 391 1
63 393 1
63 399 1
63 401 1
63 402 1
63 405 1
63 408 1
63 409 1
63 412 1
63 416 1
63 417 1
63 421 1
63 432 1
63 438 1
63 439 1
63 441 1
63 450 1
63 458 1
63 460 1
63 466 1
63 467 1
63 469 1
63 474 1
63 491 1
63 496 1
63 497 1
63 498 1
63 502 1
63 506 1
63 513 1
63 538 1
63 540 1
63 543 1
63 545 1
63 548 1
63 555 1
63 565 1
63 566 1
63 569 1
63 583 1
63 594 1
63 596 1
63 599 1
63 603 1
63 608 1
63 615 1
63 625 1
63 627 1
63 632 1
63 641 1
63 642 1
63 652 1
63 658 1
63 663 1
63 666 1
63 669 1
63 671 1
63 673 1
63 682 1
64 1 1
64 3 1
64 5 1
64 9 1
64 15 1
64 17 1
64 19 1
64 24 1
64 32 1
64 45 1
64 48 1
64 53 1
64 59 1
64 77 1
64 85 1
64 95 1
64 98 1
64 107 1
64 108 1
64 118 1
64 127 1
64 129 1
64 131 1
64 137 1
64 150 1
64 151 1
64 160 1
64 162 1
64 179 1
64 181 1
64 185 1
64 186 1
64 193 1
64 200 1
64 207 1
64 208 1
64 210 1
64 211 1
64 215 1
64 224 1
64 230 1
64 234 1
64 235 1
64 237 1
64 238 1
64 243 1
64 248 1
64 249 1
64 250 1
64 257 1
64 259 1
64 265 1
64 274 1
64 276 1
64 280 1
64 282 1
64 297 1
64 300 1
64 305 1
64 307 1
64 310 1
64 320 1
64 329 1
64 332 1
64 336 1
64 337 1
64 346 1
64 348 1
64 350 1
64 357 1
64 358 1
64 363 1
64 364 1
64 365 1
64 370 1
64 371 1
64 382 1
64 388 1
64 393 1
64 394 1
64 399 1
64 405 1
64 406 1
64 408 1
64 409 1
64 414 1
64 415 1
64 423 1
64 426 1
64 427 1
64 436 1
64 437 1
64 444 1
64 447 1
64 452 1
64 468 1
64 473 1
64 476 1
64 480 1
64 490 1
64 495 1
64 496 1
64 506 1
64 510 1
64 520 1
64 523 1
64 525 1
64 535 1
64 545 1
64 548 1
64 549 1
64 550 1
64 557 1
64 568 1
64 569 1
64 570 1
64 571 1
64 575 1
64 589 1
64 596 1
64 598 1
64 599 1
64 600 1
64 601 1
64 604 1
64 607 1
64 611 1
64 613 1
64 618 1
64 622 1
64 629 1
64 632 1
64 633 1
64 636 1
64 637 1
64 640 1
64 653 1
64 660 1
64 664 1
64 671 1
64 675 1
64 677 1
64 688 1
64 693 1
64 695 1
64 697 1
64 699 1
65 1 1
65 2 1
65 5 1
65 8 1
65 14 1
65 15 1
65 16 1
65 25 1
65 31 1
65 41 1
65 44 1
65 45 1
65 48 1
65 59 1
65 61 1
65 62 1
65 74 1
65 76 1
65 77 1
65 85 1
65 90 1
65 95 1
65 99 1
65 103 1
65 104 1
65 111 1
65 115 1
65 119 1
65 129 1
65 130 1
65 134 1
65 137 1
65 145 1
65 149 1
65 155 1
65 157 1
65 160 1
65 161 1
65 180 1
65 185 1
65 194 1
65 198 1
65 206 1
65 209 1
65 211 1
65 214 1
65 215 1
65 216 1
65 220 1
65 221 1
65 223 1
65 227 1
65 230 1
65 235 1
65 249 1
65 250 1
65 256 1
65 281 1
65 297 1
65 307 1
65 318 1
65 335 1
65 337 1
65 338 1
65 344 1
65 348 1
65 351 1
65 352 1
65 356 1
65 368 1
65 371 1
65 372 1
65 385 1
65 388 1
65 393 1
65 397 1
65 401 1
65 405 1
65 408 1
65 415 1
65 428 1
65 429 1
65 431 1
65 432 1
65 433 1
65 438 1
65 443 1
65 450 1
65 456 1
65 462 1
65 463 1
65 470 1
65 478 1
65 483 1
65 485 1
65 486 1
65 492 1
65 498 1
65 499 1
65 505 1
65 507 1
65 510 1
65 514 1
65 524 1
65 525 1
65 527 1
65 531 1
65 532 1
65 533 1
65 539 1
65 545 1
65 546 1
65 552 1
65 554 1
65 559 1
65 570 1
65 571 1
65 576 1
65 578 1
65 586 1
65 589 1
65 590 1
65 592 1
65 606 1
65 612 1
65 620 1
65 623 1
65 624 1
65 629 1
65 636 1
65 638 1
65 642 1
65 651 1
65 652 1
65 653 1
65 654 1
65 665 1
65 666 1
65 671 1
65 673 1
65 674 1
65 675 1
65 697 1
65 698 1
65 700 1
66 4 1
66 7 1
66 8 1
66 9 1
66 16 1
66 23 1
66 24 1
66 34 1
66 37 1
66 38 1
66 40 1
66 52 1
66 53 1
66 71 1
66 79 1
66 80 1
66 81 1
66 85 1
66 93 1
66 99 1
66 102 1
66 103 1
66 104 1
66 106 1
66 113 1
66 116 1
66 126 1
66 138 1
66 148 1
66 151 1
66 152 1
66 153 1
66 161 1
66 162 1
66 165 1
66 171 1
66 172 1
66 175 1
66 177 1
66 179 1
66 187 1
66 192 1
66 193 1
66 200 1
66 202 1
66 203 1
66 213 1
66 214 1
66 216 1
66 217 1
66 224 1
66 225 1
66 230 1
66 249 1
66 250 1
66 255 1
66 256 1
66 257 1
66 258 1
66 259 1
66 266 1
66 273 1
66 274 1
66 280 1
66 311 1
66 314 1
66 319 1
66 320 1
66 324 1
66 326 1
66 327 1
66 329 1
66 335 1
66 336 1
66 342 1
66 350 1
66 351 1
66 360 1
66 366 1
66 368 1
66 370 1
66 377 1
66 379 1
66 385 1
66 391 1
66 396 1
66 409 1
66 416 1
66 418 1
66 428 1
66 432 1
66 436 1
66 442 1
66 444 1
66 453 1
66 459 1
66 460 1
66 464 1
66 466 1
66 467 1
66 471 1
66 475 1
66 480 1
66 485 1
66 487 1
66 490 1
66 491 1
66 494 1
66 496 1
66 499 1
66 501 1
66 507 1
66 510 1
66 511 1
66 512 1
66 515 1
66 526 1
66 530 1
66 535 1
66 543 1
66 544 1
66 546 1
66 552 1
66 553 1
66 555 1
66 560 1
66 568 1
66 574 1
66 575 1
66 581 1
66 588 1
66 593 1
66 596 1
66 604 1
66 607 1
66 608 1
66 610 1
66 613 1
66 618 1
66 621 1
66 626 1
66 638 1
66 642 1
66 662 1
66 666 1
66 677 1
66 684 1
66 693 1
66 697 1
66 698 1
67 3 1
67 6 1
67 11 1
67 12 1
67 16 1
67 24 1
67 26 1
67 45 1
67 50 1
67 53 1
67 54 1
67 55 1
67 59 1
67 71 1
67 76 1
67 83 1
67 87 1
67 94 1
67 96 1
67 103 1
67 106 1
67 107 1
67 110 1
67 117 1
67 119 1
67 125 1
67 132 1
67 135 1
67 143 1
67 146 1
67 150 1
67 166 1
67 171 1
67 173 1
67 175 1
67 178 1
67 181 1
67 185 1
67 190 1
67 191 1
67 192 1
67 203 1
67 219 1
67 221 1
67 222 1
67 229 1
67 232 1
67 235 1
67 237 1
67 241 1
67 244 1
67 248 1
67 249 1
67 255 1
67 260 1
67 268 1
67 271 1
67 272 1
67 283 1
67 291 1
67 292 1
67 293 1
67 294 1
67 295 1
67 301 1
67 306 1
67 307 1
67 310 1
67 314 1
67 316 1
67 318 1
67 333 1
67 334 1
67 339 1
67 341 1
67 344 1
67 368 1
67 369 1
67 371 1
67 375 1
67 376 1
67 383 1
67 384 1
67 385 1
67 386 1
67 388 1
67 396 1
67 397 1
67 402 1
67 404 1
67 405 1
67 419 1
67 424 1
67 425 1
67 433 1
67 435 1
67 441 1
67 449 1
67 450 1
67 452 1
67 464 1
67 465 1
67 467 1
67 469 1
67 474 1
67 478 1
67 480 1
67 482 1
67 490 1
67 491 1
67 496 1
67 497 1
67 499 1
67 501 1
67 503 1
67 505 1
67 511 1
67 512 1
67 523 1
67 539 1
67 540 1
67 545 1
67 547 1
67 554 1
67 557 1
67 566 1
67 568 1
67 581 1
67 582 1
67 585 1
67 587 1
67 591 1
67 601 1
67 612 1
67 614 1
67 615 1
67 619 1
67 629 1
67 636 1
67 639 1
67 646 1
67 648 1
67 670 1
67 672 1
67 673 1
67 674 1
67 678 1
67 679 1
67 683 1
67 684 1
67 698 1
68 12 1
68 15 1
68 31 1
68 46 1
68 47 1
68 54 1
68 57 1
68 58 1
68 60 1
68 63 1
68 70 1
68 71 1
68 72 1
68 74 1
68 77 1
68 82 1
68 85 1
68 90 1
68 94 1
68 96 1
68 100 1
68 109 1
68 112 1
68 114 1
68 115 1
68 126 1
68 130 1
68 133 1
68 139 1
68 141 1
68 146 1
68 148 1
68 150 1
68 162 1
68 163 1
68 171 1
68 175 1
68 180 1
68 181 1
68 183 1
68 193 1
68 198 1
68 208 1
68 213 1
68 214 1
68 217 1
68 218 1
68 225 1
68 226 1
68 230 1
68 240 1
68 249 1
68 252 1
68 257 1
68 261 1
68 268 1
68 276 1
68 277 1
68 286 1
68 287 1
68 290 1
68 294 1
68 300 1
68 301 1
68 314 1
68 334 1
68 336 1
68 338 1
68 339 1
68 347 1
68 359 1
68 362 1
68 363 1
68 364 1
68 381 1
68 382 1
68 389 1
68 391 1
68 393 1
68 396 1
68 404 1
68 410 1
68 423 1
68 426 1
68 441 1
68 455 1
68 457 1
68 466 1
68 471 1
68 484 1
68 486 1
68 488 1
68 489 1
68 505 1
68 506 1
68 511 1
68 515 1
68 524 1
68 527 1
68 534 1
68 540 1
68 541 1
68 546 1
68 547 1
68 554 1
68 561 1
68 563 1
68 566 1
68 568 1
68 571 1
68 581 1
68 588 1
68 592 1
68 600 1
68 604 1
68 606 1
68 621 1
68 625 1
68 637 1
68 640 1
68 642 1
68 644 1
68 645 1
68 651 1
68 652 1
68 655 1
68 657 1
68 659 1
68 661 1
68 662 1
68 680 1
68 685 1
68 687 1
68 692 1
68 693 1
68 699 1
69 16 1
69 27 1
69 31 1
69 32 1
69 39 1
69 48 1
69 49 1
69 50 1
69 54 1
69 57 1
69 58 1
69 63 1
69 73 1
69 75 1
69 80 1
69 83 1
69 89 1
69 91 1
69 92 1
69 99 1
69 102 1
69 104 1
69 109 1
69 112 1
69 114 1
69 117 1
69 122 1
69 124 1
69 128 1
69 146 1
69 151 1
69 163 1
69 167 1
69 170 1
69 171 1
69 178 1
69 192 1
69 202 1
69 204 1
69 211 1
69 219 1
69 237 1
69 253 1
69 254 1
69 256 1
69 261 1
69 265 1
69 271 1
69 272 1
69 275 1
69 276 1
69 283 1
69 284 1
69 290 1
69 293 1
69 318 1
69 319 1
69 323 1
69 325 1
69 328 1
69 332 1
69 335 1
69 338 1
69 342 1
69 344 1
69 350 1
69 351 1
69 353 1
69 364 1
69 366 1
69 381 1
69 391 1
69 397 1
69 411 1
69 414 1
69 416 1
69 418 1
69 425 1
69 426 1
69 428 1
69 445 1
69 450 1
69 455 1
69 457 1
69 458 1
69 466 1
69 467 1
69 468 1
69 484 1
69 487 1
69 489 1
69 495 1
69 497 1
69 507 1
69 510 1
69 511 1
69 513 1
69 517 1
69 535 1
69 540 1
69 542 1
69 543 1
69 545 1
69 546 1
69 552 1
69 557 1
69 560 1
69 569 1
69 570 1
69 583 1
69 585 1
69 597 1
69 611 1
69 614 1
69 617 1
69 623 1
69 624 1
69 627 1
69 629 1
69 634 1
69 635 1
69 637 1
69 638 1
69 639 1
69 645 1
69 646 1
69 661 1
69 662 1
69 672 1
69 679 1
69 681 1
69 683 1
69 687 1
69 695 1
69 700 1
70 1 1
70 4 1
70 7 1
70 9 1
70 10 1
70 14 1
70 17 1
70 20 1
70 34 1
70 37 1
70 38 1
70 41 1
70 46 1
70 48 1
70 52 1
70 53 1
70 56 1
70 62 1
70 68 1
70 73 1
70 74 1
70 84 1
70 86 1
70 88 1
70 91 1
70 95 1
70 100 1
70 103 1
70 111 1
70 121 1
70 126 1
70 134 1
70 140 1
70 141 1
70 143 1
70 160 1
70 163 1
70 164 1
70 165 1
70 167 1
70 174 1
70 175 1
70 183 1
70 184 1
70 185 1
70 190 1
70 195 1
70 202 1
70 220 1
70 222 1
70 236 1
70 237 1
70 238 1
70 243 1
70 251 1
70 256 1
70 257 1
70 263 1
70 268 1
70 274 1
70 279 1
70 280 1
70 282 1
70 291 1
70 296 1
70 299 1
70 305 1
70 308 1
70 309 1
70 312 1
70 320 1
70 327 1
70 330 1
70 333 1
70 336 1
70 340 1
70 341 1
70 348 1
70 356 1
70 357 1
70 363 1
70 364 1
70 376 1
70 385 1
70 388 1
70 396 1
70 404 1
70 405 1
70 412 1
70 423 1
70 434 1
70 437 1
70 443 1
70 444 1
70 446 1
70 452 1
70 460 1
70 461 1
70 480 1
70 492 1
70 496 1
70 497 1
70 499 1
70 502 1
70 504 1
70 513 1
70 517 1
70 523 1
70 528 1
70 531 1
70 532 1
70 533 1
70 534 1
70 540 1
70 545 1
70 546 1
70 548 1
70 549 1
70 552 1
70 553 1
70 558 1
70 568 1
70 569 1
70 572 1
70 578 1
70 580 1
70 589 1
70 590 1
70 593 1
70 606 1
70 609 1
70 612 1
70 614 1
70 616 1
70 620 1
70 625 1
70 627 1
70 630 1
70 638 1
70 645 1
70 649 1
70 650 1
70 651 1
70 652 1
70 654 1
70 664 1
70 672 1
70 676 1
70 678 1
70 679 1
70 680 1
70 682 1
70 687 1
70 688 1
70 689 1
70 692 1
70 694 1
71 11 1
71 15 1
71 21 1
71 24 1
71 29 1
71 32 1
71 44 1
71 47 1
71 50 1
71 55 1
71 62 1
71 66 1
71 67 1
71 68 1
71 77 1
71 79 1
71 81 1
71 82 1
71 85 1
71 94 1
71 101 1
71 128 1
71 132 1
71 134 1
71 140 1
71 144 1
71 146 1
71 150 1
71 155 1
71 157 1
71 159 1
71 164 1
71 168 1
71 183 1
71 185 1
71 189 1
71 194 1
71 197 1
71 201 1
71 202 1
71 204 1
71 208 1
71 220 1
71 222 1
71 225 1
71 226 1
71 233 1
71 235 1
71 244 1
71 245 1
71 252 1
71 263 1
71 265 1
71 276 1
71 277 1
71 287 1
71 291 1
71 297 1
71 299 1
71 316 1
71 325 1
71 334 1
71 339 1
71 340 1
71 344 1
71 348 1
71 361 1
71 363 1
71 366 1
71 369 1
71 375 1
71 377 1
71 380 1
71 383 1
71 388 1
71 403 1
71 405 1
71 406 1
71 410 1
71 414 1
71 434 1
71 454 1
71 464 1
71 468 1
71 469 1
71 471 1
71 473 1
71 482 1
71 485 1
71 488 1
71 489 1
71 490 1
71 504 1
71 511 1
71 512 1
71 513 1
71 514 1
71 518 1
71 520 1
71 522 1
71 529 1
71 542 1
71 558 1
71 559 1
71 561 1
71 566 1
71 568 1
71 571 1
71 575 1
71 579 1
71 583 1
71 585 1
71 586 1
71 587 1
71 595 1
71 596 1
71 599 1
71 601 1
71 610 1
71 614 1
71 620 1
71 621 1
71 622 1
71 639 1
71 643 1
71 648 1
71 649 1
71 658 1
71 665 1
71 666 1
71 668 1
71 686 1
71 687 1
71 692 1
71 700 1
72 1 1
72 4 1
72 12 1
72 26 1
72 35 1
72 36 1
72 47 1
72 50 1
72 52 1
72 56 1
72 68 1
72 79 1
72 81 1
72 87 1
72 89 1
72 93 1
72 97 1
72 101 1
72 104 1
72 107 1
72 116 1
72 117 1
72 118 1
72 124 1
72 129 1
72 133 1
72 134 1
72 137 1
72 144 1
72 145 1
72 146 1
72 154 1
72 161 1
72 173 1
72 176 1
72 177 1
72 178 1
72 179 1
72 182 1
72 193 1
72 194 1
72 195 1
72 197 1
72 200 1
72 203 1
72 208 1
72 212 1
72 214 1
72 222 1
72 226 1
72 240 1
72 242 1
72 254 1
72 256 1
72 259 1
72 265 1
72 266 1
72 271 1
72 272 1
72 273 1
72 275 1
72 279 1
72 280 1
72 282 1
72 283 1
72 290 1
72 295 1
72 299 1
72 300 1
72 308 1
72 310 1
72 317 1
72 324 1
72 325 1
72 329 1
72 333 1
72 336 1
72 342 1
72 343 1
72 344 1
72 348 1
72 354 1
72 355 1
72 357 1
72 359 1
72 364 1
72 365 1
72 367 1
72 370 1
72 371 1
72 375 1
72 393 1
72 395 1
72 401 1
72 407 1
72 415 1
72 422 1
72 432 1
72 436 1
72 444 1
72 457 1
72 463 1
72 467 1
72 468 1
72 473 1
72 482 1
72 486 1
72 487 1
72 489 1
72 494 1
72 503 1
72 506 1
72 508 1
72 509 1
72 516 1
72 517 1
72 520 1
72 533 1
72 540 1
72 548 1
72 552 1
72 555 1
72 556 1
72 570 1
72 578 1
72 582 1
72 591 1
72 592 1
72 608 1
72 612 1
72 622 1
72 625 1
72 628 1
72 633 1
72 640 1
72 643 1
72 644 1
72 645 1
72 657 1
72 660 1
72 665 1
72 670 1
72 672 1
72 678 1
72 681 1
72 692 1
72 693 1
72 695 1
72 697 1
72 700 1
73 3 1
73 20 1
73 22 1
73 36 1
73 40 1
73 42 1
73 48 1
73 57 1
73 69 1
73 70 1
73 76 1
73 81 1
73 86 1
73 96 1
73 107 1
73 110 1
73 111 1
73 112 1
73 114 1
73 116 1
73 124 1
73 127 1
73 133 1
73 136 1
73 138 1
73 143 1
73 146 1
73 155 1
73 160 1
73 167 1
73 170 1
73 174 1
73 176 1
73 177 1
73 179 1
73 180 1
73 181 1
73 187 1
73 188 1
73 192 1
73 193 1
73 198 1
73 199 1
73 201 1
73 215 1
73 216 1
73 233 1
73 235 1
73 236 1
73 237 1
73 240 1
73 241 1
73 242 1
73 244 1
73 248 1
73 263 1
73 273 1
73 278 1
73 279 1
73 284 1
73 287 1
73 290 1
73 291 1
73 292 1
73 294 1
73 299 1
73 301 1
73 303 1
73 312 1
73 315 1
73 324 1
73 346 1
73 348 1
73 349 1
73 357 1
73 362 1
73 364 1
73 368 1
73 369 1
73 373 1
73 374 1
73 377 1
73 384 1
73 386 1
73 387 1
73 393 1
73 404 1
73 412 1
73 413 1
73 416 1
73 420 1
73 428 1
73 433 1
73 434 1
73 436 1
73 442 1
73 446 1
73 448 1
73 453 1
73 455 1
73 467 1
73 484 1
73 485 1
73 492 1
73 494 1
73 499 1
73 506 1
73 507 1
73 509 1
73 511 1
73 521 1
73 522 1
73 525 1
73 526 1
73 529 1
73 530 1
73 535 1
73 540 1
73 543 1
73 550 1
73 555 1
73 559 1
73 561 1
73 562 1
73 566 1
73 567 1
73 568 1
73 571 1
73 574 1
73 579 1
73 582 1
73 583 1
73 584 1
73 587 1
73 593 1
73 603 1
73 605 1
73 606 1
73 609 1
73 617 1
73 623 1
73 626 1
73 631 1
73 649 1
73 651 1
73 653 1
73 669 1
73 670 1
73 673 1
73 679 1
73 682 1
73 689 1
73 692 1
73 699 1
73 700 1
74 1 1
74 3 1
74 18 1
74 20 1
74 21 1
74 26 1
74 31 1
74 39 1
74 41 1
74 47 1
74 52 1
74 55 1
74 58 1
74 59 1
74 63 1
74 65 1
74 68 1
74 70 1
74 75 1
74 79 1
74 82 1
74 87 1
74 88 1
74 92 1
74 99 1
74 109 1
74 116 1
74 117 1
74 118 1
74 120 1
74 122 1
74 124 1
74 127 1
74 129 1
74 133 1
74 136 1
74 137 1
74 141 1
74 143 1
74 154 1
74 161 1
74 162 1
74 171 1
74 181 1
74 182 1
74 186 1
74 197 1
74 198 1
74 200 1
74 206 1
74 215 1
74 223 1
74 224 1
74 240 1
74 242 1
74 244 1
74 248 1
74 251 1
74 252 1
74 257 1
74 258 1
74 259 1
74 260 1
74 261 1
74 264 1
74 267 1
74 268 1
74 271 1
74 277 1
74 278 1
74 289 1
74 314 1
74 322 1
74 330 1
74 340 1
74 351 1
74 369 1
74 372 1
74 381 1
74 383 1
74 384 1
74 387 1
74 396 1
74 398 1
74 399 1
74 401 1
74 405 1
74 414 1
74 417 1
74 426 1
74 429 1
74 435 1
74 453 1
74 458 1
74 464 1
74 469 1
74 470 1
74 471 1
74 474 1
74 483 1
74 487 1
74 496 1
74 497 1
74 519 1
74 528 1
74 536 1
74 539 1
74 544 1
74 562 1
74 563 1
74 567 1
74 575 1
74 580 1
74 582 1
74 588 1
74 596 1
74 599 1
74 600 1
74 601 1
74 605 1
74 608 1
74 613 1
74 615 1
74 625 1
74 630 1
74 631 1
74 632 1
74 635 1
74 636 1
74 637 1
74 638 1
74 641 1
74 643 1
74 647 1
74 652 1
74 660 1
74 666 1
74 670 1
74 683 1
74 688 1
74 690 1
74 693 1
74 698 1
75 3 1
75 8 1
75 24 1
75 28 1
75 31 1
75 33 1
75 36 1
75 38 1
75 42 1
75 46 1
75 57 1
75 60 1
75 69 1
75 74 1
75 76 1
75 84 1
75 92 1
75 122 1
75 125 1
75 127 1
75 129 1
75 136 1
75 137 1
75 138 1
75 143 1
75 144 1
75 146 1
75 149 1
75 150 1
75 151 1
75 154 1
75 160 1
75 161 1
75 162 1
75 163 1
75 166 1
75 168 1
75 170 1
75 175 1
75 180 1
75 181 1
75 189 1
75 191 1
75 194 1
75 199 1
75 208 1
75 210 1
75 225 1
75 229 1
75 237 1
75 239 1
75 242 1
75 249 1
75 250 1
75 258 1
75 259 1
75 260 1
75 276 1
75 278 1
75 288 1
75 295 1
75 296 1
75 299 1
75 305 1
75 306 1
75 308 1
75 312 1
75 313 1
75 320 1
75 325 1
75 330 1
75 333 1
75 335 1
75 339 1
75 350 1
75 351 1
75 352 1
75 359 1
75 363 1
75 375 1
75 377 1
75 381 1
75 390 1
75 393 1
75 401 1
75 406 1
75 410 1
75 414 1
75 421 1
75 423 1
75 424 1
75 428 1
75 435 1
75 437 1
75 438 1
75 439 1
75 443 1
75 451 1
75 452 1
75 462 1
75 464 1
75 465 1
75 468 1
75 471 1
75 473 1
75 478 1
75 479 1
75 480 1
75 482 1
75 483 1
75 490 1
75 492 1
75 495 1
75 496 1
75 499 1
75 500 1
75 503 1
75 508 1
75 511 1
75 513 1
75 516 1
75 522 1
75 531 1
75 534 1
75 543 1
75 544 1
75 546 1
75 550 1
75 551 1
75 553 1
75 554 1
75 560 1
75 566 1
75 567 1
75 581 1
75 586 1
75 587 1
75 591 1
75 597 1
75 602 1
75 603 1
75 613 1
75 616 1
75 617 1
75 619 1
75 620 1
75 622 1
75 623 1
75 636 1
75 637 1
75 638 1
75 640 1
75 641 1
75 652 1
75 662 1
75 669 1
75 671 1
75 679 1
75 681 1
75 683 1
75 689 1
75 692 1
75 695 1
75 700 1
76 1 1
76 3 1
76 7 1
76 12 1
76 14 1
76 20 1
76 23 1
76 26 1
76 41 1
76 45 1
76 47 1
76 50 1
76 52 1
76 54 1
76 59 1
76 65 1
76 67 1
76 73 1
76 75 1
76 88 1
76 89 1
76 90 1
76 94 1
76 98 1
76 104 1
76 105 1
76 113 1
76 124 1
76 128 1
76 137 1
76 140 1
76 147 1
76 162 1
76 163 1
76 167 1
76 177 1
76 183 1
76 187 1
76 189 1
76 196 1
76 197 1
76 198 1
76 200 1
76 210 1
76 212 1
76 215 1
76 228 1
76 230 1
76 231 1
76 233 1
76 243 1
76 270 1
76 275 1
76 276 1
76 283 1
76 286 1
76 293 1
76 294 1
76 297 1
76 299 1
76 300 1
76 305 1
76 308 1
76 311 1
76 318 1
76 334 1
76 336 1
76 346 1
76 350 1
76 359 1
76 376 1
76 385 1
76 386 1
76 393 1
76 394 1
76 401 1
76 404 1
76 405 1
76 406 1
76 408 1
76 419 1
76 422 1
76 429 1
76 440 1
76 443 1
76 447 1
76 461 1
76 464 1
76 472 1
76 473 1
76 477 1
76 479 1
76 485 1
76 488 1
76 489 1
76 497 1
76 501 1
76 507 1
76 508 1
76 510 1
76 515 1
76 518 1
76 530 1
76 532 1
76 535 1
76 538 1
76 544 1
76 547 1
76 553 1
76 555 1
76 557 1
76 570 1
76 576 1
76 578 1
76 579 1
76 581 1
76 588 1
76 595 1
76 596 1
76 603 1
76 604 1
76 607 1
76 611 1
76 616 1
76 628 1
76 632 1
76 634 1
76 635 1
76 638 1
76 644 1
76 645 1
76 651 1
76 652 1
76 667 1
76 676 1
76 678 1
76 689 1
76 694 1
76 695 1
77 5 1
77 9 1
77 31 1
77 40 1
77 43 1
77 49 1
77 51 1
77 56 1
77 64 1
77 65 1
77 68 1
77 71 1
77 90 1
77 92 1
77 108 1
77 125 1
77 127 1
77 130 1
77 133 1
77 134 1
77 139 1
77 140 1
77 142 1
77 143 1
77 145 1
77 151 1
77 154 1
77 156 1
77 157 1
77 164 1
77 168 1
77 169 1
77 171 1
77 182 1
77 187 1
77 194 1
77 195 1
77 200 1
77 211 1
77 225 1
77 228 1
77 229 1
77 231 1
77 236 1
77 248 1
77 251 1
77 255 1
77 266 1
77 268 1
77 275 1
77 284 1
77 300 1
77 301 1
77 304 1
77 313 1
77 316 1
77 322 1
77 328 1
77 329 1
77 333 1
77 349 1
77 353 1
77 357 1
77 374 1
77 378 1
77 384 1
77 385 1
77 387 1
77 390 1
77 395 1
77 405 1
77 408 1
77 412 1
77 414 1
77 418 1
77 421 1
77 425 1
77 431 1
77 433 1
77 434 1
77 438 1
77 448 1
77 452 1
77 456 1
77 463 1
77 466 1
77 477 1
77 478 1
77 480 1
77 481 1
77 488 1
77 497 1
77 500 1
77 504 1
77 507 1
77 512 1
77 522 1
77 528 1
77 534 1
77 538 1
77 544 1
77 545 1
77 563 1
77 570 1
77 573 1
77 579 1
77 582 1
77 584 1
77 589 1
77 598 1
77 599 1
77 604 1
77 605 1
77 606 1
77 608 1
77 615 1
77 618 1
77 630 1
77 647 1
77 650 1
77 657 1
77 671 1
77 673 1
77 681 1
77 688 1
78 3 1
78 7 1
78 9 1
78 10 1
78 13 1
78 15 1
78 17 1
78 18 1
78 21 1
78 25 1
78 33 1
78 38 1
78 41 1
78 44 1
78 61 1
78 63 1
78 86 1
78 87 1
78 91 1
78 101 1
78 111 1
78 115 1
78 117 1
78 119 1
78 124 1
78 126 1
78 127 1
78 136 1
78 149 1
78 151 1
78 158 1
78 159 1
78 166 1
78 175 1
78 182 1
78 183 1
78 184 1
78 186 1
78 188 1
78 196 1
78 199 1
78 200 1
78 203 1
78 204 1
78 212 1
78 216 1
78 217 1
78 225 1
78 228 1
78 230 1
78 235 1
78 248 1
78 250 1
78 251 1
78 260 1
78 262 1
78 265 1
78 270 1
78 274 1
78 275 1
78 281 1
78 285 1
78 286 1
78 288 1
78 296 1
78 298 1
78 300 1
78 301 1
78 305 1
78 308 1
78 311 1
78 315 1
78 316 1
78 325 1
78 329 1
78 339 1
78 340 1
78 341 1
78 351 1
78 353 1
78 359 1
78 368 1
78 380 1
78 381 1
78 385 1
78 401 1
78 402 1
78 407 1
78 419 1
78 420 1
78 423 1
78 436 1
78 438 1
78 440 1
78 443 1
78 446 1
78 451 1
78 456 1
78 458 1
78 463 1
78 464 1
78 470 1
78 472 1
78 474 1
78 476 1
78 484 1
78 485 1
78 490 1
78 496 1
78 498 1
78 499 1
78 502 1
78 511 1
78 515 1
78 516 1
78 521 1
78 523 1
78 532 1
78 543 1
78 544 1
78 553 1
78 557 1
78 561 1
78 562 1
78 576 1
78 577 1
78 583 1
78 585 1
78 587 1
78 589 1
78 590 1
78 591 1
78 594 1
78 597 1
78 603 1
78 604 1
78 605 1
78 609 1
78 612 1
78 617 1
78 618 1
78 620 1
78 624 1
78 625 1
78 639 1
78 643 1
78 644 1
78 646 1
78 657 1
78 675 1
78 679 1
78 690 1
78 691 1
78 700 1
79 2 1
79 18 1
79 21 1
79 24 1
79 27 1
79 40 1
79 48 1
79 54 1
79 55 1
79 60 1
79 66 1
79 71 1
79 72 1
79 74 1
79 80 1
79 82 1
79 92 1
79 93 1
79 106 1
79 109 1
79 133 1
79 137 1
79 143 1
79 144 1
79 145 1
79 146 1
79 148 1
79 149 1
79 158 1
79 169 1
79 172 1
79 175 1
79 191 1
79 197 1
79 203 1
79 207 1
79 208 1
79 213 1
79 214 1
79 223 1
79 232 1
79 233 1
79 235 1
79 237 1
79 242 1
79 253 1
79 257 1
79 258 1
79 264 1
79 269 1
79 271 1
79 279 1
79 283 1
79 287 1
79 295 1
79 296 1
79 298 1
79 300 1
79 302 1
79 303 1
79 305 1
79 310 1
79 315 1
79 330 1
79 332 1
79 334 1
79 349 1
79 350 1
79 353 1
79 355 1
79 356 1
79 358 1
79 368 1
79 371 1
79 378 1
79 388 1
79 408 1
79 422 1
79 425 1
79 429 1
79 440 1
79 461 1
79 470 1
79 477 1
79 490 1
79 496 1
79 501 1
79 514 1
79 515 1
79 516 1
79 525 1
79 526 1
79 530 1
79 532 1
79 545 1
79 550 1
79 552 1
79 565 1
79 571 1
79 573 1
79 579 1
79 582 1
79 587 1
79 588 1
79 601 1
79 602 1
79 603 1
79 605 1
79 608 1
79 619 1
79 622 1
79 623 1
79 627 1
79 628 1
79 631 1
79 632 1
79 633 1
79 634 1
79 637 1
79 640 1
79 642 1
79 643 1
79 644 1
79 646 1
79 647 1
79 650 1
79 662 1
79 669 1
79 670 1
79 677 1
79 678 1
79 682 1
79 684 1
79 692 1
80 6 1
80 11 1
80 17 1
80 20 1
80 21 1
80 25 1
80 27 1
80 35 1
80 37 1
80 42 1
80 49 1
80 52 1
80 61 1
80 66 1
80 69 1
80 79 1
80 82 1
80 91 1
80 101 1
80 116 1
80 121 1
80 129 1
80 133 1
80 145 1
80 146 1
80 153 1
80 156 1
80 162 1
80 164 1
80 166 1
80 167 1
80 169 1
80 171 1
80 173 1
80 182 1
80 185 1
80 188 1
80 191 1
80 196 1
80 207 1
80 208 1
80 211 1
80 213 1
80 219 1
80 223 1
80 226 1
80 230 1
80 231 1
80 232 1
80 238 1
80 242 1
80 243 1
80 249 1
80 263 1
80 269 1
80 271 1
80 277 1
80 278 1
80 284 1
80 291 1
80 313 1
80 315 1
80 333 1
80 337 1
80 345 1
80 348 1
80 357 1
80 359 1
80 365 1
80 370 1
80 374 1
80 384 1
80 390 1
80 392 1
80 394 1
80 418 1
80 419 1
80 437 1
80 438 1
80 448 1
80 449 1
80 464 1
80 465 1
80 468 1
80 471 1
80 474 1
80 480 1
80 484 1
80 493 1
80 500 1
80 509 1
80 519 1
80 523 1
80 526 1
80 533 1
80 538 1
80 552 1
80 557 1
80 573 1
80 578 1
80 580 1
80 583 1
80 587 1
80 588 1
80 589 1
80 591 1
80 599 1
80 600 1
80 607 1
80 608 1
80 615 1
80 619 1
80 620 1
80 622 1
80 624 1
80 625 1
80 634 1
80 636 1
80 640 1
80 646 1
80 647 1
80 648 1
80 650 1
80 656 1
80 657 1
80 665 1
80 668 1
80 687 1
81 1 1
81 5 1
81 6 1
81 8 1
81 12 1
81 28 1
81 29 1
81 32 1
81 44 1
81 46 1
81 49 1
81 50 1
81 51 1
81 54 1
81 55 1
81 59 1
81 60 1
81 61 1
81 66 1
81 71 1
81 72 1
81 73 1
81 96 1
81 100 1
81 101 1
81 105 1
81 107 1
81 114 1
81 116 1
81 128 1
81 130 1
81 139 1
81 141 1
81 144 1
81 147 1
81 157 1
81 160 1
81 176 1
81 199 1
81 203 1
81 206 1
81 210 1
81 215 1
81 218 1
81 221 1
81 227 1
81 230 1
81 231 1
81 238 1
81 245 1
81 247 1
81 249 1
81 252 1
81 255 1
81 259 1
81 275 1
81 277 1
81 280 1
81 281 1
81 283 1
81 284 1
81 286 1
81 289 1
81 291 1
81 297 1
81 300 1
81 314 1
81 318 1
81 324 1
81 334 1
81 337 1
81 339 1
81 340 1
81 346 1
81 350 1
81 355 1
81 358 1
81 361 1
81 365 1
81 372 1
81 381 1
81 382 1
81 389 1
81 396 1
81 398 1
81 402 1
81 413 1
81 420 1
81 421 1
81 432 1
81 438 1
81 440 1
81 442 1
81 443 1
81 444 1
81 445 1
81 448 1
81 450 1
81 461 1
81 465 1
81 466 1
81 478 1
81 480 1
81 496 1
81 498 1
81 500 1
81 501 1
81 510 1
81 513 1
81 518 1
81 527 1
81 528 1
81 532 1
81 533 1
81 534 1
81 535 1
81 539 1
81 540 1
81 541 1
81 544 1
81 546 1
81 552 1
81 554 1
81 558 1
81 562 1
81 567 1
81 569 1
81 570 1
81 585 1
81 604 1
81 607 1
81 615 1
81 618 1
81 629 1
81 636 1
81 638 1
81 639 1
81 640 1
81 642 1
81 645 1
81 656 1
81 660 1
81 662 1
81 664 1
81 668 1
81 676 1
81 678 1
81 687 1
81 693 1
81 694 1
81 695 1
81 697 1
82 14 1
82 16 1
82 31 1
82 36 1
82 40 1
82 49 1
82 55 1
82 68 1
82 71 1
82 74 1
82 79 1
82 80 1
82 89 1
82 118 1
82 132 1
82 133 1
82 139 1
82 142 1
82 149 1
82 151 1
82 153 1
82 157 1
82 162 1
82 163 1
82 174 1
82 175 1
82 176 1
82 180 1
82 182 1
82 194 1
82 203 1
82 205 1
82 214 1
82 216 1
82 237 1
82 245 1
82 246 1
82 252 1
82 255 1
82 261 1
82 270 1
82 284 1
82 286 1
82 289 1
82 295 1
82 299 1
82 301 1
82 309 1
82 314 1
82 316 1
82 322 1
82 332 1
82 334 1
82 337 1
82 351 1
82 359 1
82 360 1
82 363 1
82 365 1
82 375 1
82 376 1
82 380 1
82 390 1
82 393 1
82 394 1
82 395 1
82 396 1
82 397 1
82 401 1
82 406 1
82 418 1
82 423 1
82 424 1
82 428 1
82 443 1
82 454 1
82 456 1
82 458 1
82 484 1
82 494 1
82 495 1
82 497 1
82 500 1
82 505 1
82 510 1
82 516 1
82 517 1
82 523 1
82 531 1
82 537 1
82 538 1
82 539 1
82 551 1
82 556 1
82 559 1
82 586 1
82 590 1
82 596 1
82 598 1
82 603 1
82 606 1
82 609 1
82 625 1
82 627 1
82 633 1
82 634 1
82 639 1
82 640 1
82 654 1
82 656 1
82 657 1
82 670 1
82 671 1
82 672 1
82 676 1
82 682 1
82 685 1
82 695 1
82 698 1
82 699 1
82 700 1
83 6 1
83 9 1
83 13 1
83 22 1
83 35 1
83 39 1
83 41 1
83 63 1
83 67 1
83 69 1
83 84 1
83 87 1
83 89 1
83 90 1
83 93 1
83 94 1
83 96 1
83 98 1
83 101 1
83 105 1
83 107 1
83 114 1
83 117 1
83 130 1
83 132 1
83 133 1
83 136 1
83 140 1
83 143 1
83 153 1
83 157 1
83 158 1
83 160 1
83 165 1
83 168 1
83 175 1
83 186 1
83 187 1
83 197 1
83 199 1
83 210 1
83 213 1
83 219 1
83 224 1
83 229 1
83 234 1
83 236 1
83 237 1
83 251 1
83 256 1
83 260 1
83 267 1
83 269 1
83 286 1
83 297 1
83 301 1
83 309 1
83 332 1
83 341 1
83 344 1
83 349 1
83 352 1
83 355 1
83 356 1
83 357 1
83 359 1
83 363 1
83 376 1
83 380 1
83 381 1
83 382 1
83 383 1
83 390 1
83 391 1
83 401 1
83 409 1
83 427 1
83 428 1
83 430 1
83 431 1
83 432 1
83 433 1
83 437 1
83 446 1
83 447 1
83 448 1
83 453 1
83 460 1
83 462 1
83 465 1
83 466 1
83 480 1
83 483 1
83 486 1
83 489 1
83 492 1
83 506 1
83 510 1
83 511 1
83 513 1
83 524 1
83 527 1
83 530 1
83 533 1
83 536 1
83 539 1
83 541 1
83 544 1
83 555 1
83 556 1
83 560 1
83 589 1
83 595 1
83 596 1
83 599 1
83 600 1
83 610 1
83 613 1
83 614 1
83 616 1
83 618 1
83 621 1
83 624 1
83 627 1
83 628 1
83 630 1
83 631 1
83 642 1
83 652 1
83 665 1
83 668 1
83 671 1
83 675 1
83 678 1
83 682 1
83 686 1
83 691 1
83 694 1
84 11 1
84 16 1
84 18 1
84 19 1
84 26 1
84 31 1
84 43 1
84 50 1
84 51 1
84 70 1
84 75 1
84 83 1
84 89 1
84 99 1
84 104 1
84 110 1
84 112 1
84 116 1
84 122 1
84 134 1
84 139 1
84 145 1
84 157 1
84 167 1
84 171 1
84 173 1
84 176 1
84 177 1
84 181 1
84 183 1
84 184 1
84 186 1
84 207 1
84 210 1
84 217 1
84 219 1
84 220 1
84 223 1
84 225 1
84 229 1
84 230 1
84 235 1
84 239 1
84 242 1
84 243 1
84 245 1
84 253 1
84 254 1
84 255 1
84 258 1
84 262 1
84 268 1
84 269 1
84 271 1
84 276 1
84 281 1
84 295 1
84 297 1
84 299 1
84 307 1
84 308 1
84 315 1
84 318 1
84 333 1
84 349 1
84 353 1
84 358 1
84 372 1
84 378 1
84 385 1
84 390 1
84 391 1
84 394 1
84 400 1
84 415 1
84 424 1
84 427 1
84 428 1
84 431 1
84 433 1
84 434 1
84 438 1
84 440 1
84 444 1
84 447 1
84 453 1
84 461 1
84 464 1
84 470 1
84 474 1
84 478 1
84 483 1
84 487 1
84 505 1
84 507 1
84 511 1
84 520 1
84 528 1
84 531 1
84 539 1
84 543 1
84 547 1
84 549 1
84 556 1
84 557 1
84 567 1
84 568 1
84 570 1
84 577 1
84 583 1
84 586 1
84 601 1
84 605 1
84 608 1
84 610 1
84 619 1
84 629 1
84 637 1
84 643 1
84 648 1
84 657 1
84 660 1
84 669 1
84 673 1
84 683 1
84 687 1
84 690 1
85 3 1
85 4 1
85 7 1
85 11 1
85 12 1
85 15 1
85 17 1
85 18 1
85 22 1
85 23 1
85 24 1
85 31 1
85 35 1
85 37 1
85 38 1
85 56 1
85 58 1
85 59 1
85 60 1
85 64 1
85 65 1
85 66 1
85 68 1
85 71 1
85 86 1
85 88 1
85 90 1
85 91 1
85 94 1
85 98 1
85 99 1
85 101 1
85 109 1
85 115 1
85 127 1
85 129 1
85 134 1
85 143 1
85 144 1
85 151 1
85 152 1
85 153 1
85 154 1
85 165 1
85 166 1
85 171 1
85 175 1
85 189 1
85 193 1
85 195 1
85 197 1
85 202 1
85 204 1
85 205 1
85 210 1
85 212 1
85 216 1
85 229 1
85 238 1
85 241 1
85 245 1
85 252 1
85 261 1
85 268 1
85 272 1
85 274 1
85 276 1
85 279 1
85 286 1
85 290 1
85 312 1
85 313 1
85 322 1
85 323 1
85 324 1
85 330 1
85 337 1
85 340 1
85 344 1
85 349 1
85 351 1
85 353 1
85 365 1
85 367 1
85 371 1
85 374 1
85 377 1
85 379 1
85 381 1
85 383 1
85 385 1
85 388 1
85 398 1
85 407 1
85 408 1
85 409 1
85 410 1
85 424 1
85 427 1
85 435 1
85 436 1
85 437 1
85 440 1
85 443 1
85 454 1
85 455 1
85 478 1
85 479 1
85 487 1
85 488 1
85 493 1
85 495 1
85 501 1
85 507 1
85 508 1
85 511 1
85 512 1
85 515 1
85 519 1
85 520 1
85 526 1
85 530 1
85 534 1
85 535 1
85 541 1
85 543 1
85 545 1
85 550 1
85 555 1
85 562 1
85 571 1
85 573 1
85 576 1
85 581 1
85 583 1
85 587 1
85 588 1
85 593 1
85 595 1
85 597 1
85 604 1
85 610 1
85 611 1
85 614 1
85 617 1
85 621 1
85 633 1
85 638 1
85 640 1
85 641 1
85 642 1
85 647 1
85 648 1
85 651 1
85 653 1
85 658 1
85 666 1
85 667 1
85 668 1
85 672 1
85 687 1
85 689 1
85 693 1
85 698 1
86 3 1
86 5 1
86 11 1
86 16 1
86 27 1
86 32 1
86 33 1
86 37 1
86 40 1
86 42 1
86 43 1
86 53 1
86 55 1
86 58 1
86 70 1
86 73 1
86 78 1
86 85 1
86 87 1
86 102 1
86 103 1
86 105 1
86 109 1
86 111 1
86 112 1
86 118 1
86 119 1
86 124 1
86 135 1
86 137 1
86 145 1
86 147 1
86 150 1
86 160 1
86 167 1
86 169 1
86 172 1
86 173 1
86 174 1
86 183 1
86 192 1
86 195 1
86 202 1
86 204 1
86 210 1
86 221 1
86 223 1
86 229 1
86 231 1
86 239 1
86 246 1
86 247 1
86 250 1
86 267 1
86 274 1
86 276 1
86 290 1
86 296 1
86 300 1
86 303 1
86 305 1
86 307 1
86 316 1
86 321 1
86 322 1
86 324 1
86 326 1
86 331 1
86 339 1
86 349 1
86 353 1
86 356 1
86 358 1
86 360 1
86 366 1
86 367 1
86 368 1
86 369 1
86 370 1
86 382 1
86 386 1
86 387 1
86 388 1
86 390 1
86 397 1
86 401 1
86 403 1
86 407 1
86 408 1
86 409 1
86 424 1
86 425 1
86 427 1
86 440 1
86 445 1
86 446 1
86 447 1
86 449 1
86 460 1
86 462 1
86 466 1
86 467 1
86 473 1
86 476 1
86 485 1
86 486 1
86 513 1
86 519 1
86 531 1
86 532 1
86 534 1
86 539 1
86 543 1
86 554 1
86 565 1
86 568 1
86 569 1
86 570 1
86 576 1
86 581 1
86 584 1
86 597 1
86 600 1
86 612 1
86 615 1
86 618 1
86 620 1
86 631 1
86 633 1
86 646 1
86 653 1
86 654 1
86 660 1
86 666 1
86 669 1
86 677 1
86 683 1
86 685 1
86 695 1
87 3 1
87 7 1
87 15 1
87 20 1
87 38 1
87 42 1
87 43 1
87 55 1
87 63 1
87 67 1
87 72 1
87 74 1
87 78 1
87 83 1
87 86 1
87 91 1
87 105 1
87 108 1
87 110 1
87 114 1
87 123 1
87 130 1
87 143 1
87 151 1
87 156 1
87 161 1
87 165 1
87 169 1
87 173 1
87 175 1
87 180 1
87 181 1
87 183 1
87 204 1
87 208 1
87 209 1
87 210 1
87 219 1
87 231 1
87 238 1
87 243 1
87 244 1
87 247 1
87 254 1
87 255 1
87 261 1
87 263 1
87 264 1
87 266 1
87 268 1
87 270 1
87 276 1
87 278 1
87 305 1
87 310 1
87 323 1
87 330 1
87 332 1
87 346 1
87 354 1
87 356 1
87 357 1
87 360 1
87 370 1
87 376 1
87 381 1
87 393 1
87 406 1
87 415 1
87 416 1
87 417 1
87 425 1
87 427 1
87 429 1
87 431 1
87 447 1
87 450 1
87 459 1
87 468 1
87 469 1
87 470 1
87 472 1
87 473 1
87 479 1
87 480 1
87 483 1
87 490 1
87 494 1
87 495 1
87 497 1
87 503 1
87 505 1
87 509 1
87 513 1
87 519 1
87 523 1
87 529 1
87 533 1
87 538 1
87 542 1
87 546 1
87 553 1
87 554 1
87 562 1
87 563 1
87 571 1
87 575 1
87 578 1
87 582 1
87 586 1
87 587 1
87 591 1
87 593 1
87 595 1
87 609 1
87 610 1
87 612 1
87 613 1
87 615 1
87 616 1
87 621 1
87 622 1
87 627 1
87 630 1
87 631 1
87 633 1
87 638 1
87 647 1
87 648 1
87 649 1
87 651 1
87 653 1
87 667 1
87 672 1
87 679 1
87 681 1
87 689 1
87 691 1
87 693 1
87 697 1
87 698 1
88 5 1
88 6 1
88 10 1
88 19 1
88 24 1
88 25 1
88 31 1
88 37 1
88 40 1
88 42 1
88 44 1
88 48 1
88 59 1
88 60 1
88 70 1
88 74 1
88 76 1
88 85 1
88 92 1
88 93 1
88 98 1
88 102 1
88 106 1
88 110 1
88 112 1
88 114 1
88 116 1
88 128 1
88 129 1
88 138 1
88 142 1
88 150 1
88 151 1
88 154 1
88 164 1
88 170 1
88 182 1
88 187 1
88 194 1
88 197 1
88 198 1
88 200 1
88 202 1
88 203 1
88 208 1
88 218 1
88 221 1
88 227 1
88 230 1
88 237 1
88 241 1
88 242 1
88 244 1
88 245 1
88 260 1
88 271 1
88 272 1
88 274 1
88 275 1
88 276 1
88 284 1
88 286 1
88 290 1
88 291 1
88 296 1
88 297 1
88 298 1
88 300 1
88 301 1
88 306 1
88 312 1
88 314 1
88 337 1
88 340 1
88 358 1
88 360 1
88 364 1
88 369 1
88 378 1
88 381 1
88 386 1
88 391 1
88 393 1
88 396 1
88 401 1
88 402 1
88 407 1
88 409 1
88 412 1
88 420 1
88 422 1
88 440 1
88 447 1
88 451 1
88 452 1
88 453 1
88 457 1
88 458 1
88 459 1
88 466 1
88 471 1
88 481 1
88 483 1
88 488 1
88 500 1
88 506 1
88 507 1
88 517 1
88 524 1
88 525 1
88 536 1
88 541 1
88 543 1
88 544 1
88 549 1
88 553 1
88 561 1
88 562 1
88 564 1
88 567 1
88 571 1
88 580 1
88 589 1
88 595 1
88 616 1
88 617 1
88 620 1
88 636 1
88 641 1
88 643 1
88 645 1
88 654 1
88 674 1
88 679 1
88 680 1
88 681 1
88 685 1
88 690 1
88 694 1
88 695 1
88 696 1
89 1 1
89 2 1
89 12 1
89 16 1
89 19 1
89 22 1
89 26 1
89 38 1
89 43 1
89 49 1
89 50 1
89 55 1
89 60 1
89 61 1
89 62 1
89 63 1
89 69 1
89 72 1
89 76 1
89 82 1
89 83 1
89 84 1
89 90 1
89 92 1
89 93 1
89 101 1
89 102 1
89 107 1
89 108 1
89 109 1
89 110 1
89 111 1
89 113 1
89 118 1
89 131 1
89 133 1
89 137 1
89 140 1
89 145 1
89 147 1
89 155 1
89 161 1
89 162 1
89 163 1
89 169 1
89 173 1
89 175 1
89 179 1
89 190 1
89 198 1
89 200 1
89 205 1
89 211 1
89 213 1
89 215 1
89 229 1
89 233 1
89 236 1
89 249 1
89 252 1
89 255 1
89 258 1
89 262 1
89 264 1
89 279 1
89 287 1
89 288 1
89 295 1
89 300 1
89 306 1
89 309 1
89 321 1
89 324 1
89 325 1
89 330 1
89 331 1
89 332 1
89 346 1
89 351 1
89 354 1
89 356 1
89 358 1
89 362 1
89 364 1
89 370 1
89 372 1
89 375 1
89 392 1
89 393 1
89 402 1
89 405 1
89 411 1
89 414 1
89 415 1
89 416 1
89 419 1
89 424 1
89 426 1
89 431 1
89 432 1
89 437 1
89 441 1
89 456 1
89 458 1
89 459 1
89 463 1
89 465 1
89 466 1
89 467 1
89 475 1
89 480 1
89 482 1
89 483 1
89 497 1
89 504 1
89 505 1
89 520 1
89 522 1
89 523 1
89 524 1
89 525 1
89 531 1
89 533 1
89 535 1
89 542 1
89 544 1
89 548 1
89 556 1
89 564 1
89 567 1
89 576 1
89 587 1
89 588 1
89 595 1
89 600 1
89 614 1
89 641 1
89 650 1
89 657 1
89 664 1
89 673 1
89 682 1
89 683 1
89 687 1
89 689 1
89 692 1
89 695 1
89 699 1
90 7 1
90 9 1
90 14 1
90 16 1
90 17 1
90 21 1
90 25 1
90 28 1
90 40 1
90 44 1
90 46 1
90 65 1
90 68 1
90 76 1
90 77 1
90 83 1
90 85 1
90 89 1
90 98 1
90 109 1
90 111 1
90 112 1
90 124 1
90 138 1
90 159 1
90 170 1
90 184 1
90 187 1
90 192 1
90 193 1
90 203 1
90 205 1
90 215 1
90 220 1
90 221 1
90 225 1
90 240 1
90 242 1
90 251 1
90 254 1
90 265 1
90 279 1
90 285 1
90 286 1
90 289 1
90 290 1
90 293 1
90 298 1
90 303 1
90 315 1
90 338 1
90 347 1
90 369 1
90 372 1
90 373 1
90 376 1
90 378 1
90 386 1
90 389 1
90 399 1
90 404 1
90 407 1
90 409 1
90 410 1
90 412 1
90 414 1
90 418 1
90 421 1
90 422 1
90 426 1
90 434 1
90 436 1
90 444 1
90 452 1
90 459 1
90 467 1
90 469 1
90 471 1
90 477 1
90 481 1
90 489 1
90 498 1
90 500 1
90 511 1
90 512 1
90 517 1
90 518 1
90 522 1
90 535 1
90 547 1
90 550 1
90 553 1
90 561 1
90 566 1
90 571 1
90 575 1
90 579 1
90 583 1
90 587 1
90 590 1
90 593 1
90 610 1
90 612 1
90 613 1
90 617 1
90 622 1
90 626 1
90 631 1
90 636 1
90 647 1
90 656 1
90 657 1
90 660 1
90 662 1
90 670 1
90 671 1
90 674 1
90 675 1
90 679 1
90 680 1
90 684 1
90 689 1
90 693 1
91 1 1
91 6 1
91 9 1
91 15 1
91 27 1
91 28 1
91 38 1
91 47 1
91 50 1
91 52 1
91 69 1
91 70 1
91 78 1
91 80 1
91 85 1
91 87 1
91 101 1
91 106 1
91 108 1
91 130 1
91 131 1
91 143 1
91 148 1
91 170 1
91 172 1
91 174 1
91 177 1
91 181 1
91 182 1
91 187 1
91 189 1
91 199 1
91 201 1
91 208 1
91 218 1
91 223 1
91 237 1
91 246 1
91 250 1
91 255 1
91 256 1
91 258 1
91 260 1
91 263 1
91 272 1
91 284 1
91 285 1
91 287 1
91 292 1
91 299 1
91 303 1
91 308 1
91 312 1
91 313 1
91 320 1
91 335 1
91 337 1
91 347 1
91 355 1
91 358 1
91 361 1
91 367 1
91 368 1
91 372 1
91 373 1
91 376 1
91 380 1
91 382 1
91 384 1
91 387 1
91 388 1
91 389 1
91 400 1
91 414 1
91 415 1
91 430 1
91 432 1
91 437 1
91 438 1
91 445 1
91 446 1
91 450 1
91 451 1
91 452 1
91 454 1
91 455 1
91 462 1
91 463 1
91 466 1
91 468 1
91 471 1
91 474 1
91 475 1
91 478 1
91 490 1
91 491 1
91 493 1
91 520 1
91 522 1
91 528 1
91 530 1
91 535 1
91 536 1
91 538 1
91 540 1
91 541 1
91 548 1
91 550 1
91 555 1
91 563 1
91 564 1
91 565 1
91 566 1
91 570 1
91 572 1
91 573 1
91 576 1
91 588 1
91 591 1
91 592 1
91 598 1
91 605 1
91 606 1
91 611 1
91 612 1
91 616 1
91 617 1
91 620 1
91 624 1
91 631 1
91 639 1
91 645 1
91 649 1
91 654 1
91 658 1
91 659 1
91 662 1
91 677 1
91 679 1
91 693 1
91 696 1
91 699 1
91 700 1
92 1 1
92 6 1
92 8 1
92 19 1
92 37 1
92 41 1
92 43 1
92 69 1
92 74 1
92 75 1
92 77 1
92 79 1
92 88 1
92 89 1
92 94 1
92 100 1
92 103 1
92 110 1
92 111 1
92 112 1
92 115 1
92 119 1
92 124 1
92 136 1
92 147 1
92 156 1
92 162 1
92 163 1
92 174 1
92 178 1
92 179 1
92 181 1
92 183 1
92 187 1
92 200 1
92 205 1
92 208 1
92 215 1
92 216 1
92 217 1
92 220 1
92 223 1
92 234 1
92 237 1
92 239 1
92 240 1
92 245 1
92 248 1
92 249 1
92 277 1
92 280 1
92 285 1
92 299 1
92 302 1
92 305 1
92 310 1
92 311 1
92 315 1
92 333 1
92 336 1
92 337 1
92 338 1
92 351 1
92 354 1
92 359 1
92 361 1
92 362 1
92 366 1
92 372 1
92 379 1
92 380 1
92 386 1
92 390 1
92 392 1
92 401 1
92 402 1
92 409 1
92 414 1
92 415 1
92 418 1
92 431 1
92 433 1
92 435 1
92 437 1
92 439 1
92 440 1
92 445 1
92 449 1
92 452 1
92 453 1
92 455 1
92 456 1
92 466 1
92 474 1
92 478 1
92 501 1
92 508 1
92 512 1
92 517 1
92 518 1
92 522 1
92 536 1
92 544 1
92 551 1
92 562 1
92 571 1
92 574 1
92 578 1
92 586 1
92 589 1
92 600 1
92 603 1
92 608 1
92 612 1
92 614 1
92 617 1
92 620 1
92 623 1
92 625 1
92 642 1
92 647 1
92 653 1
92 656 1
92 660 1
92 665 1
92 666 1
92 680 1
92 681 1
92 682 1
92 685 1
92 692 1
92 695 1
92 699 1
92 700 1
93 22 1
93 23 1
93 31 1
93 43 1
93 55 1
93 62 1
93 63 1
93 66 1
93 72 1
93 79 1
93 83 1
93 88 1
93 89 1
93 94 1
93 102 1
93 103 1
93 107 1
93 108 1
93 109 1
93 110 1
93 111 1
93 112 1
93 113 1
93 121 1
93 123 1
93 129 1
93 130 1
93 132 1
93 133 1
93 139 1
93 142 1
93 143 1
93 153 1
93 158 1
93 163 1
93 165 1
93 171 1
93 173 1
93 179 1
93 191 1
93 194 1
93 198 1
93 201 1
93 203 1
93 204 1
93 215 1
93 217 1
93 219 1
93 220 1
93 221 1
93 223 1
93 229 1
93 230 1
93 232 1
93 234 1
93 238 1
93 244 1
93 251 1
93 252 1
93 254 1
93 255 1
93 259 1
93 260 1
93 262 1
93 265 1
93 271 1
93 273 1
93 282 1
93 288 1
93 300 1
93 303 1
93 306 1
93 307 1
93 310 1
93 316 1
93 324 1
93 343 1
93 344 1
93 345 1
93 354 1
93 355 1
93 356 1
93 366 1
93 375 1
93 381 1
93 388 1
93 389 1
93 392 1
93 394 1
93 395 1
93 409 1
93 415 1
93 422 1
93 430 1
93 431 1
93 436 1
93 440 1
93 442 1
93 446 1
93 471 1
93 476 1
93 478 1
93 483 1
93 484 1
93 489 1
93 495 1
93 505 1
93 506 1
93 509 1
93 513 1
93 518 1
93 524 1
93 526 1
93 528 1
93 532 1
93 545 1
93 550 1
93 563 1
93 570 1
93 575 1
93 588 1
93 597 1
93 602 1
93 620 1
93 624 1
93 626 1
93 632 1
93 644 1
93 645 1
93 646 1
93 648 1
93 651 1
93 659 1
93 662 1
93 665 1
93 670 1
93 672 1
93 677 1
93 682 1
93 683 1
93 684 1
93 688 1
93 691 1
93 694 1
94 8 1
94 11 1
94 13 1
94 19 1
94 22 1
94 35 1
94 48 1
94 51 1
94 52 1
94 58 1
94 60 1
94 67 1
94 68 1
94 71 1
94 76 1
94 83 1
94 85 1
94 92 1
94 93 1
94 95 1
94 98 1
94 107 1
94 108 1
94 113 1
94 114 1
94 116 1
94 118 1
94 119 1
94 123 1
94 127 1
94 132 1
94 146 1
94 160 1
94 161 1
94 163 1
94 165 1
94 167 1
94 168 1
94 170 1
94 174 1
94 178 1
94 179 1
94 180 1
94 188 1
94 197 1
94 206 1
94 209 1
94 215 1
94 217 1
94 218 1
94 221 1
94 226 1
94 230 1
94 235 1
94 239 1
94 246 1
94 247 1
94 254 1
94 267 1
94 272 1
94 274 1
94 277 1
94 293 1
94 303 1
94 309 1
94 314 1
94 318 1
94 328 1
94 340 1
94 345 1
94 354 1
94 356 1
94 359 1
94 360 1
94 371 1
94 390 1
94 391 1
94 398 1
94 404 1
94 405 1
94 406 1
94 430 1
94 436 1
94 439 1
94 441 1
94 442 1
94 453 1
94 454 1
94 461 1
94 462 1
94 466 1
94 470 1
94 478 1
94 482 1
94 484 1
94 488 1
94 490 1
94 493 1
94 513 1
94 515 1
94 519 1
94 521 1
94 523 1
94 527 1
94 528 1
94 533 1
94 547 1
94 548 1
94 549 1
94 557 1
94 561 1
94 569 1
94 577 1
94 578 1
94 594 1
94 598 1
94 601 1
94 604 1
94 609 1
94 613 1
94 616 1
94 617 1
94 622 1
94 626 1
94 633 1
94 638 1
94 641 1
94 659 1
94 661 1
94 672 1
94 676 1
94 685 1
94 687 1
95 1 1
95 9 1
95 10 1
95 32 1
95 41 1
95 43 1
95 45 1
95 50 1
95 57 1
95 64 1
95 65 1
95 70 1
95 94 1
95 100 1
95 101 1
95 104 1
95 105 1
95 112 1
95 115 1
95 124 1
95 137 1
95 139 1
95 141 1
95 143 1
95 152 1
95 162 1
95 168 1
95 178 1
95 179 1
95 187 1
95 191 1
95 196 1
95 206 1
95 216 1
95 217 1
95 227 1
95 230 1
95 231 1
95 232 1
95 235 1
95 241 1
95 256 1
95 259 1
95 262 1
95 271 1
95 273 1
95 285 1
95 288 1
95 289 1
95 300 1
95 307 1
95 309 1
95 313 1
95 315 1
95 318 1
95 320 1
95 321 1
95 322 1
95 325 1
95 326 1
95 327 1
95 330 1
95 334 1
95 336 1
95 346 1
95 351 1
95 364 1
95 366 1
95 369 1
95 370 1
95 384 1
95 386 1
95 388 1
95 389 1
95 395 1
95 400 1
95 404 1
95 405 1
95 406 1
95 407 1
95 410 1
95 411 1
95 413 1
95 417 1
95 420 1
95 424 1
95 425 1
95 439 1
95 462 1
95 466 1
95 467 1
95 471 1
95 475 1
95 476 1
95 483 1
95 489 1
95 491 1
95 496 1
95 507 1
95 508 1
95 518 1
95 519 1
95 522 1
95 526 1
95 530 1
95 531 1
95 538 1
95 542 1
95 550 1
95 557 1
95 564 1
95 571 1
95 574 1
95 577 1
95 593 1
95 594 1
95 598 1
95 600 1
95 601 1
95 612 1
95 616 1
95 617 1
95 622 1
95 636 1
95 637 1
95 640 1
95 646 1
95 648 1
95 661 1
95 663 1
95 664 1
95 666 1
95 668 1
95 670 1
95 675 1
95 682 1
95 691 1
95 697 1
96 8 1
96 11 1
96 14 1
96 20 1
96 24 1
96 26 1
96 27 1
96 29 1
96 37 1
96 39 1
96 52 1
96 56 1
96 57 1
96 63 1
96 67 1
96 68 1
96 73 1
96 81 1
96 83 1
96 99 1
96 102 1
96 112 1
96 123 1
96 124 1
96 128 1
96 147 1
96 156 1
96 161 1
96 170 1
96 172 1
96 176 1
96 179 1
96 187 1
96 194 1
96 196 1
96 204 1
96 206 1
96 207 1
96 209 1
96 211 1
96 212 1
96 223 1
96 225 1
96 230 1
96 243 1
96 245 1
96 246 1
96 249 1
96 255 1
96 256 1
96 258 1
96 259 1
96 262 1
96 263 1
96 267 1
96 277 1
96 278 1
96 287 1
96 294 1
96 296 1
96 300 1
96 303 1
96 314 1
96 318 1
96 323 1
96 325 1
96 350 1
96 357 1
96 358 1
96 362 1
96 385 1
96 386 1
96 389 1
96 392 1
96 394 1
96 403 1
96 421 1
96 427 1
96 435 1
96 464 1
96 479 1
96 481 1
96 490 1
96 497 1
96 500 1
96 502 1
96 506 1
96 510 1
96 512 1
96 513 1
96 522 1
96 532 1
96 533 1
96 543 1
96 544 1
96 553 1
96 557 1
96 559 1
96 562 1
96 563 1
96 568 1
96 569 1
96 572 1
96 576 1
96 579 1
96 580 1
96 582 1
96 585 1
96 606 1
96 608 1
96 615 1
96 619 1
96 621 1
96 626 1
96 628 1
96 636 1
96 639 1
96 641 1
96 643 1
96 645 1
96 650 1
96 657 1
96 660 1
96 661 1
96 663 1
96 664 1
96 667 1
96 685 1
96 690 1
96 692 1
96 698 1
97 6 1
97 7 1
97 8 1
97 24 1
97 25 1
97 29 1
97 32 1
97 34 1
97 35 1
97 46 1
97 49 1
97 72 1
97 108 1
97 109 1
97 110 1
97 116 1
97 120 1
97 121 1
97 123 1
97 126 1
97 127 1
97 131 1
97 133 1
97 139 1
97 142 1
97 143 1
97 146 1
97 164 1
97 166 1
97 167 1
97 168 1
97 177 1
97 181 1
97 182 1
97 184 1
97 185 1
97 187 1
97 197 1
97 203 1
97 217 1
97 218 1
97 220 1
97 224 1
97 234 1
97 236 1
97 240 1
97 243 1
97 246 1
97 247 1
97 248 1
97 251 1
97 258 1
97 267 1
97 270 1
97 272 1
97 274 1
97 275 1
97 276 1
97 281 1
97 284 1
97 288 1
97 300 1
97 301 1
97 302 1
97 313 1
97 326 1
97 329 1
97 341 1
97 346 1
97 357 1
97 372 1
97 373 1
97 379 1
97 388 1
97 389 1
97 398 1
97 400 1
97 404 1
97 405 1
97 409 1
97 413 1
97 415 1
97 424 1
97 434 1
97 439 1
97 451 1
97 464 1
97 468 1
97 475 1
97 482 1
97 486 1
97 487 1
97 489 1
97 490 1
97 492 1
97 506 1
97 513 1
97 515 1
97 524 1
97 525 1
97 527 1
97 536 1
97 540 1
97 541 1
97 552 1
97 556 1
97 558 1
97 565 1
97 566 1
97 568 1
97 570 1
97 574 1
97 586 1
97 594 1
97 597 1
97 598 1
97 604 1
97 606 1
97 617 1
97 620 1
97 623 1
97 631 1
97 632 1
97 633 1
97 637 1
97 653 1
97 655 1
97 656 1
97 666 1
97 672 1
97 677 1
97 684 1
97 693 1
97 697 1
97 699 1
98 8 1
98 24 1
98 28 1
98 29 1
98 35 1
98 36 1
98 39 1
98 40 1
98 52 1
98 64 1
98 76 1
98 83 1
98 85 1
98 88 1
98 90 1
98 94 1
98 102 1
98 105 1
98 106 1
98 109 1
98 116 1
98 117 1
98 122 1
98 132 1
98 133 1
98 134 1
98 137 1
98 138 1
98 140 1
98 142 1
98 146 1
98 149 1
98 154 1
98 161 1
98 167 1
98 172 1
98 173 1
98 176 1
98 184 1
98 187 1
98 197 1
98 200 1
98 220 1
98 221 1
98 224 1
98 226 1
98 234 1
98 238 1
98 247 1
98 263 1
98 268 1
98 275 1
98 280 1
98 281 1
98 283 1
98 294 1
98 300 1
98 301 1
98 304 1
98 306 1
98 309 1
98 315 1
98 319 1
98 321 1
98 322 1
98 323 1
98 324 1
98 329 1
98 336 1
98 339 1
98 340 1
98 341 1
98 343 1
98 347 1
98 348 1
98 353 1
98 354 1
98 358 1
98 370 1
98 377 1
98 388 1
98 408 1
98 414 1
98 415 1
98 416 1
98 417 1
98 433 1
98 434 1
98 443 1
98 445 1
98 450 1
98 455 1
98 458 1
98 465 1
98 475 1
98 477 1
98 483 1
98 484 1
98 499 1
98 504 1
98 507 1
98 514 1
98 523 1
98 524 1
98 532 1
98 542 1
98 545 1
98 561 1
98 563 1
98 564 1
98 566 1
98 574 1
98 576 1
98 577 1
98 580 1
98 585 1
98 587 1
98 590 1
98 591 1
98 605 1
98 607 1
98 609 1
98 613 1
98 615 1
98 616 1
98 618 1
98 621 1
98 624 1
98 627 1
98 638 1
98 639 1
98 644 1
98 646 1
98 648 1
98 652 1
98 655 1
98 663 1
98 672 1
98 678 1
98 679 1
98 681 1
98 682 1
98 683 1
98 692 1
98 694 1
98 695 1
98 698 1
99 2 1
99 7 1
99 12 1
99 15 1
99 22 1
99 25 1
99 27 1
99 37 1
99 40 1
99 42 1
99 50 1
99 51 1
99 57 1
99 60 1
99 65 1
99 66 1
99 69 1
99 74 1
99 84 1
99 85 1
99 96 1
99 110 1
99 116 1
99 123 1
99 127 1
99 139 1
99 142 1
99 147 1
99 149 1
99 153 1
99 163 1
99 168 1
99 173 1
99 183 1
99 189 1
99 192 1
99 199 1
99 200 1
99 211 1
99 214 1
99 220 1
99 221 1
99 227 1
99 230 1
99 237 1
99 251 1
99 254 1
99 255 1
99 256 1
99 269 1
99 274 1
99 280 1
99 285 1
99 291 1
99 292 1
99 299 1
99 307 1
99 318 1
99 319 1
99 326 1
99 336 1
99 340 1
99 341 1
99 342 1
99 349 1
99 351 1
99 355 1
99 362 1
99 363 1
99 370 1
99 371 1
99 377 1
99 379 1
99 385 1
99 389 1
99 391 1
99 395 1
99 397 1
99 398 1
99 400 1
99 413 1
99 422 1
99 425 1
99 431 1
99 432 1
99 434 1
99 440 1
99 442 1
99 443 1
99 445 1
99 446 1
99 452 1
99 454 1
99 462 1
99 463 1
99 466 1
99 475 1
99 482 1
99 489 1
99 496 1
99 511 1
99 527 1
99 528 1
99 532 1
99 539 1
99 558 1
99 560 1
99 562 1
99 565 1
99 566 1
99 572 1
99 577 1
99 578 1
99 582 1
99 590 1
99 592 1
99 598 1
99 599 1
99 602 1
99 604 1
99 608 1
99 609 1
99 610 1
99 618 1
99 627 1
99 633 1
99 635 1
99 637 1
99 642 1
99 646 1
99 652 1
99 664 1
99 670 1
99 675 1
99 677 1
99 690 1
99 693 1
99 694 1
99 697 1
100 1 1
100 2 1
100 15 1
100 28 1
100 47 1
100 48 1
100 59 1
100 68 1
100 70 1
100 81 1
100 92 1
100 95 1
100 104 1
100 108 1
100 123 1
100 128 1
100 140 1
100 162 1
100 176 1
100 189 1
100 194 1
100 195 1
100 205 1
100 209 1
100 215 1
100 224 1
100 227 1
100 232 1
100 234 1
100 251 1
100 261 1
100 262 1
100 265 1
100 266 1
100 273 1
100 278 1
100 283 1
100 288 1
100 304 1
100 314 1
100 316 1
100 318 1
100 321 1
100 324 1
100 325 1
100 331 1
100 333 1
100 336 1
100 354 1
100 363 1
100 381 1
100 382 1
100 384 1
100 387 1
100 388 1
100 393 1
100 397 1
100 398 1
100 399 1
100 403 1
100 430 1
100 435 1
100 438 1
100 441 1
100 443 1
100 446 1
100 447 1
100 448 1
100 451 1
100 452 1
100 455 1
100 456 1
100 457 1
100 463 1
100 464 1
100 466 1
100 468 1
100 470 1
100 473 1
100 476 1
100 485 1
100 498 1
100 502 1
100 503 1
100 509 1
100 510 1
100 517 1
100 521 1
100 522 1
100 523 1
100 532 1
100 539 1
100 555 1
100 560 1
100 566 1
100 573 1
100 590 1
100 600 1
100 603 1
100 604 1
100 616 1
100 622 1
100 623 1
100 627 1
100 636 1
100 647 1
100 650 1
100 656 1
100 672 1
100 675 1
100 689 1
100 694 1
100 695 1
100 697 1
101 2 1
101 7 1
101 9 1
101 24 1
101 33 1
101 37 1
101 45 1
101 55 1
101 71 1
101 72 1
101 78 1
101 80 1
101 81 1
101 83 1
101 85 1
101 89 1
101 91 1
101 95 1
101 107 1
101 108 1
101 115 1
101 116 1
101 117 1
101 121 1
101 125 1
101 128 1
101 135 1
101 138 1
101 153 1
101 157 1
101 163 1
101 179 1
101 182 1
101 185 1
101 189 1
101 203 1
101 205 1
101 207 1
101 208 1
101 209 1
101 210 1
101 212 1
101 214 1
101 215 1
101 216 1
101 217 1
101 230 1
101 239 1
101 241 1
101 245 1
101 246 1
101 250 1
101 256 1
101 266 1
101 273 1
101 274 1
101 275 1
101 278 1
101 280 1
101 288 1
101 296 1
101 299 1
101 304 1
101 306 1
101 307 1
101 308 1
101 311 1
101 313 1
101 321 1
101 323 1
101 326 1
101 332 1
101 333 1
101 340 1
101 343 1
101 352 1
101 354 1
101 357 1
101 366 1
101 367 1
101 376 1
101 405 1
101 407 1
101 430 1
101 431 1
101 433 1
101 434 1
101 438 1
101 440 1
101 444 1
101 451 1
101 452 1
101 454 1
101 455 1
101 458 1
101 462 1
101 467 1
101 468 1
101 472 1
101 482 1
101 485 1
101 487 1
101 489 1
101 491 1
101 493 1
101 494 1
101 495 1
101 497 1
101 510 1
101 515 1
101 519 1
101 524 1
101 527 1
101 530 1
101 534 1
101 536 1
101 539 1
101 541 1
101 544 1
101 545 1
101 549 1
101 551 1
101 555 1
101 560 1
101 564 1
101 567 1
101 571 1
101 577 1
101 580 1
101 584 1
101 591 1
101 598 1
101 602 1
101 605 1
101 606 1
101 610 1
101 613 1
101 616 1
101 621 1
101 624 1
101 629 1
101 630 1
101 634 1
101 637 1
101 643 1
101 647 1
101 649 1
101 651 1
101 652 1
101 662 1
101 678 1
101 679 1
101 681 1
101 693 1
101 695 1
101 696 1
102 1 1
102 4 1
102 5 1
102 6 1
102 10 1
102 20 1
102 23 1
102 31 1
102 32 1
102 33 1
102 36 1
102 40 1
102 62 1
102 66 1
102 69 1
102 86 1
102 88 1
102 89 1
102 93 1
102 96 1
102 98 1
102 110 1
102 113 1
102 115 1
102 122 1
102 125 1
102 127 1
102 128 1
102 132 1
102 133 1
102 136 1
102 150 1
102 153 1
102 157 1
102 175 1
102 176 1
102 179 1
102 197 1
102 201 1
102 211 1
102 212 1
102 219 1
102 230 1
102 234 1
102 236 1
102 237 1
102 239 1
102 241 1
102 242 1
102 243 1
102 244 1
102 256 1
102 261 1
102 262 1
102 265 1
102 266 1
102 269 1
102 272 1
102 280 1
102 284 1
102 287 1
102 295 1
102 297 1
102 300 1
102 309 1
102 326 1
102 341 1
102 342 1
102 356 1
102 368 1
102 383 1
102 385 1
102 386 1
102 392 1
102 396 1
102 400 1
102 402 1
102 405 1
102 408 1
102 410 1
102 419 1
102 425 1
102 428 1
102 429 1
102 431 1
102 442 1
102 446 1
102 449 1
102 452 1
102 453 1
102 455 1
102 463 1
102 471 1
102 473 1
102 481 1
102 483 1
102 489 1
102 490 1
102 491 1
102 497 1
102 498 1
102 502 1
102 511 1
102 524 1
102 533 1
102 536 1
102 537 1
102 549 1
102 552 1
102 555 1
102 556 1
102 562 1
102 571 1
102 575 1
102 577 1
102 578 1
102 584 1
102 587 1
102 602 1
102 608 1
102 610 1
102 618 1
102 619 1
102 620 1
102 632 1
102 636 1
102 641 1
102 642 1
102 644 1
102 648 1
102 650 1
102 657 1
102 661 1
102 666 1
102 670 1
102 686 1
102 695 1
102 697 1
103 3 1
103 4 1
103 19 1
103 23 1
103 26 1
103 31 1
103 38 1
103 39 1
103 41 1
103 50 1
103 55 1
103 58 1
103 59 1
103 62 1
103 65 1
103 66 1
103 67 1
103 70 1
103 86 1
103 92 1
103 93 1
103 111 1
103 112 1
103 114 1
103 117 1
103 129 1
103 165 1
103 171 1
103 172 1
103 173 1
103 178 1
103 180 1
103 184 1
103 185 1
103 189 1
103 191 1
103 199 1
103 205 1
103 215 1
103 219 1
103 225 1
103 227 1
103 230 1
103 236 1
103 242 1
103 243 1
103 244 1
103 251 1
103 256 1
103 260 1
103 261 1
103 265 1
103 276 1
103 277 1
103 284 1
103 286 1
103 294 1
103 302 1
103 303 1
103 306 1
103 311 1
103 319 1
103 322 1
103 323 1
103 326 1
103 335 1
103 336 1
103 354 1
103 362 1
103 364 1
103 366 1
103 379 1
103 382 1
103 384 1
103 388 1
103 399 1
103 404 1
103 410 1
103 415 1
103 416 1
103 420 1
103 423 1
103 427 1
103 435 1
103 438 1
103 442 1
103 443 1
103 453 1
103 456 1
103 457 1
103 458 1
103 474 1
103 479 1
103 480 1
103 482 1
103 483 1
103 490 1
103 493 1
103 494 1
103 503 1
103 512 1
103 516 1
103 518 1
103 522 1
103 534 1
103 544 1
103 545 1
103 546 1
103 549 1
103 556 1
103 560 1
103 582 1
103 586 1
103 612 1
103 615 1
103 632 1
103 635 1
103 636 1
103 639 1
103 640 1
103 641 1
103 642 1
103 651 1
103 654 1
103 655 1
103 670 1
103 671 1
103 672 1
103 679 1
104 6 1
104 8 1
104 20 1
104 21 1
104 25 1
104 26 1
104 27 1
104 28 1
104 30 1
104 34 1
104 40 1
104 44 1
104 48 1
104 53 1
104 63 1
104 65 1
104 66 1
104 69 1
104 72 1
104 76 1
104 84 1
104 95 1
104 100 1
104 110 1
104 114 1
104 116 1
104 119 1
104 120 1
104 121 1
104 134 1
104 135 1
104 137 1
104 139 1
104 146 1
104 152 1
104 158 1
104 176 1
104 186 1
104 187 1
104 195 1
104 209 1
104 215 1
104 219 1
104 221 1
104 227 1
104 228 1
104 239 1
104 241 1
104 242 1
104 246 1
104 250 1
104 251 1
104 258 1
104 259 1
104 264 1
104 267 1
104 271 1
104 283 1
104 285 1
104 288 1
104 297 1
104 299 1
104 305 1
104 307 1
104 310 1
104 312 1
104 313 1
104 320 1
104 321 1
104 334 1
104 338 1
104 341 1
104 350 1
104 354 1
104 361 1
104 375 1
104 378 1
104 379 1
104 383 1
104 399 1
104 401 1
104 408 1
104 412 1
104 417 1
104 420 1
104 424 1
104 425 1
104 427 1
104 428 1
104 430 1
104 443 1
104 444 1
104 459 1
104 461 1
104 473 1
104 477 1
104 479 1
104 480 1
104 481 1
104 487 1
104 516 1
104 519 1
104 527 1
104 537 1
104 539 1
104 548 1
104 550 1
104 551 1
104 552 1
104 556 1
104 561 1
104 567 1
104 578 1
104 589 1
104 590 1
104 591 1
104 596 1
104 597 1
104 600 1
104 602 1
104 605 1
104 610 1
104 615 1
104 616 1
104 622 1
104 624 1
104 625 1
104 628 1
104 635 1
104 639 1
104 648 1
104 649 1
104 655 1
104 664 1
104 668 1
104 688 1
104 690 1
104 696 1
104 700 1
105 3 1
105 5 1
105 10 1
105 19 1
105 23 1
105 29 1
105 30 1
105 37 1
105 38 1
105 43 1
105 49 1
105 63 1
105 76 1
105 81 1
105 83 1
105 86 1
105 87 1
105 95 1
105 98 1
105 107 1
105 115 1
105 122 1
105 123 1
105 133 1
105 140 1
105 155 1
105 160 1
105 165 1
105 167 1
105 169 1
105 173 1
105 179 1
105 182 1
105 187 1
105 188 1
105 194 1
105 209 1
105 223 1
105 224 1
105 228 1
105 244 1
105 248 1
105 250 1
105 260 1
105 264 1
105 265 1
105 269 1
105 270 1
105 273 1
105 282 1
105 284 1
105 286 1
105 291 1
105 292 1
105 305 1
105 307 1
105 311 1
105 314 1
105 316 1
105 317 1
105 319 1
105 322 1
105 326 1
105 330 1
105 331 1
105 332 1
105 339 1
105 343 1
105 344 1
105 347 1
105 350 1
105 352 1
105 353 1
105 354 1
105 356 1
105 361 1
105 363 1
105 365 1
105 371 1
105 373 1
105 381 1
105 385 1
105 400 1
105 402 1
105 404 1
105 418 1
105 426 1
105 427 1
105 428 1
105 432 1
105 435 1
105 436 1
105 442 1
105 444 1
105 445 1
105 447 1
105 452 1
105 454 1
105 456 1
105 459 1
105 461 1
105 464 1
105 481 1
105 487 1
105 489 1
105 493 1
105 496 1
105 501 1
105 507 1
105 510 1
105 514 1
105 522 1
105 527 1
105 539 1
105 540 1
105 541 1
105 543 1
105 546 1
105 549 1
105 564 1
105 565 1
105 574 1
105 577 1
105 578 1
105 579 1
105 580 1
105 589 1
105 596 1
105 598 1
105 600 1
105 605 1
105 618 1
105 620 1
105 634 1
105 635 1
105 639 1
105 641 1
105 654 1
105 656 1
105 659 1
105 663 1
105 664 1
105 670 1
105 672 1
105 684 1
105 695 1
105 697 1
106 1 1
106 6 1
106 9 1
106 14 1
106 20 1
106 25 1
106 27 1
106 37 1
106 38 1
106 40 1
106 44 1
106 50 1
106 51 1
106 52 1
106 63 1
106 66 1
106 67 1
106 79 1
106 88 1
106 91 1
106 98 1
106 111 1
106 117 1
106 120 1
106 121 1
106 122 1
106 123 1
106 126 1
106 134 1
106 135 1
106 137 1
106 139 1
106 143 1
106 155 1
106 163 1
106 166 1
106 176 1
106 177 1
106 182 1
106 183 1
106 188 1
106 191 1
106 193 1
106 195 1
106 200 1
106 221 1
106 222 1
106 224 1
106 226 1
106 234 1
106 241 1
106 247 1
106 249 1
106 250 1
106 254 1
106 255 1
106 258 1
106 263 1
106 277 1
106 282 1
106 286 1
106 310 1
106 313 1
106 320 1
106 332 1
106 335 1
106 339 1
106 345 1
106 347 1
106 350 1
106 351 1
106 352 1
106 354 1
106 355 1
106 357 1
106 374 1
106 378 1
106 384 1
106 385 1
106 387 1
106 393 1
106 394 1
106 410 1
106 411 1
106 415 1
106 416 1
106 417 1
106 421 1
106 433 1
106 442 1
106 443 1
106 457 1
106 467 1
106 470 1
106 473 1
106 475 1
106 484 1
106 486 1
106 489 1
106 493 1
106 498 1
106 499 1
106 504 1
106 515 1
106 519 1
106 521 1
106 532 1
106 553 1
106 556 1
106 567 1
106 569 1
106 570 1
106 577 1
106 580 1
106 591 1
106 601 1
106 602 1
106 618 1
106 624 1
106 636 1
106 649 1
106 653 1
106 655 1
106 665 1
106 673 1
106 688 1
106 694 1
107 1 1
107 4 1
107 8 1
107 14 1
107 16 1
107 20 1
107 24 1
107 37 1
107 39 1
107 42 1
107 45 1
107 46 1
107 47 1
107 56 1
107 58 1
107 63 1
107 64 1
107 67 1
107 72 1
107 73 1
107 81 1
107 83 1
107 89 1
107 93 1
107 94 1
107 101 1
107 105 1
107 108 1
107 109 1
107 120 1
107 130 1
107 139 1
107 148 1
107 150 1
107 154 1
107 158 1
107 163 1
107 168 1
107 173 1
107 179 1
107 181 1
107 182 1
107 184 1
107 194 1
107 195 1
107 210 1
107 229 1
107 233 1
107 236 1
107 246 1
107 260 1
107 267 1
107 275 1
107 291 1
107 293 1
107 296 1
107 299 1
107 310 1
107 312 1
107 322 1
107 323 1
107 324 1
107 325 1
107 328 1
107 329 1
107 342 1
107 343 1
107 348 1
107 354 1
107 356 1
107 359 1
107 363 1
107 369 1
107 379 1
107 380 1
107 384 1
107 385 1
107 394 1
107 399 1
107 401 1
107 406 1
107 410 1
107 413 1
107 415 1
107 420 1
107 424 1
107 431 1
107 434 1
107 439 1
107 441 1
107 443 1
107 447 1
107 450 1
107 471 1
107 472 1
107 473 1
107 481 1
107 484 1
107 507 1
107 521 1
107 524 1
107 527 1
107 532 1
107 536 1
107 539 1
107 541 1
107 542 1
107 544 1
107 547 1
107 548 1
107 550 1
107 551 1
107 564 1
107 567 1
107 572 1
107 589 1
107 598 1
107 601 1
107 610 1
107 617 1
107 625 1
107 634 1
107 636 1
107 640 1
107 646 1
107 651 1
107 652 1
107 658 1
107 661 1
107 675 1
107 681 1
107 682 1
107 684 1
107 685 1
107 686 1
107 689 1
107 690 1
108 4 1
108 9 1
108 14 1
108 17 1
108 30 1
108 32 1
108 38 1
108 42 1
108 48 1
108 52 1
108 64 1
108 77 1
108 87 1
108 89 1
108 91 1
108 93 1
108 94 1
108 97 1
108 100 1
108 101 1
108 107 1
108 111 1
108 113 1
108 122 1
108 123 1
108 127 1
108 136 1
108 140 1
108 148 1
108 149 1
108 150 1
108 159 1
108 161 1
108 164 1
108 167 1
108 168 1
108 186 1
108 191 1
108 195 1
108 201 1
108 204 1
108 206 1
108 218 1
108 222 1
108 225 1
108 228 1
108 233 1
108 236 1
108 243 1
108 251 1
108 256 1
108 261 1
108 271 1
108 273 1
108 274 1
108 275 1
108 284 1
108 287 1
108 295 1
108 300 1
108 301 1
108 305 1
108 313 1
108 316 1
108 318 1
108 324 1
108 325 1
108 327 1
108 330 1
108 334 1
108 338 1
108 345 1
108 354 1
108 360 1
108 362 1
108 364 1
108 380 1
108 384 1
108 387 1
108 390 1
108 391 1
108 392 1
108 396 1
108 398 1
108 401 1
108 403 1
108 410 1
108 411 1
108 415 1
108 418 1
108 419 1
108 426 1
108 435 1
108 436 1
108 437 1
108 438 1
108 439 1
108 443 1
108 447 1
108 448 1
108 449 1
108 459 1
108 483 1
108 487 1
108 491 1
108 493 1
108 496 1
108 497 1
108 499 1
108 505 1
108 506 1
108 510 1
108 512 1
108 519 1
108 521 1
108 524 1
108 529 1
108 534 1
108 535 1
108 536 1
108 538 1
108 539 1
108 543 1
108 546 1
108 549 1
108 553 1
108 554 1
108 558 1
108 563 1
108 566 1
108 573 1
108 574 1
108 578 1
108 584 1
108 585 1
108 587 1
108 588 1
108 591 1
108 592 1
108 595 1
108 598 1
108 599 1
108 612 1
108 613 1
108 616 1
108 617 1
108 629 1
108 634 1
108 641 1
108 642 1
108 652 1
108 657 1
108 660 1
108 666 1
108 667 1
108 671 1
108 675 1
108 682 1
108 693 1
108 694 1
109 1 1
109 3 1
109 14 1
109 31 1
109 33 1
109 41 1
109 46 1
109 48 1
109 56 1
109 68 1
109 69 1
109 74 1
109 79 1
109 85 1
109 86 1
109 89 1
109 90 1
109 93 1
109 97 1
109 98 1
109 107 1
109 113 1
109 116 1
109 119 1
109 121 1
109 122 1
109 128 1
109 133 1
109 135 1
109 137 1
109 153 1
109 154 1
109 157 1
109 160 1
109 162 1
109 170 1
109 173 1
109 176 1
109 187 1
109 191 1
109 202 1
109 208 1
109 210 1
109 211 1
109 215 1
109 219 1
109 224 1
109 227 1
109 229 1
109 230 1
109 232 1
109 236 1
109 247 1
109 250 1
109 254 1
109 257 1
109 272 1
109 275 1
109 276 1
109 292 1
109 295 1
109 309 1
109 312 1
109 314 1
109 319 1
109 323 1
109 328 1
109 329 1
109 339 1
109 343 1
109 348 1
109 353 1
109 360 1
109 362 1
109 368 1
109 380 1
109 381 1
109 387 1
109 413 1
109 414 1
109 415 1
109 433 1
109 439 1
109 444 1
109 447 1
109 452 1
109 459 1
109 460 1
109 473 1
109 474 1
109 476 1
109 483 1
109 504 1
109 506 1
109 512 1
109 513 1
109 515 1
109 525 1
109 529 1
109 533 1
109 535 1
109 536 1
109 545 1
109 546 1
109 547 1
109 548 1
109 554 1
109 555 1
109 564 1
109 572 1
109 576 1
109 580 1
109 586 1
109 591 1
109 592 1
109 593 1
109 595 1
109 598 1
109 599 1
109 600 1
109 606 1
109 609 1
109 612 1
109 623 1
109 626 1
109 627 1
109 630 1
109 634 1
109 637 1
109 638 1
109 639 1
109 643 1
109 645 1
109 659 1
109 665 1
109 666 1
109 667 1
109 676 1
109 680 1
109 686 1
109 690 1
109 695 1
110 4 1
110 5 1
110 11 1
110 14 1
110 15 1
110 16 1
110 18 1
110 19 1
110 22 1
110 24 1
110 27 1
110 29 1
110 36 1
110 38 1
110 40 1
110 43 1
110 47 1
110 49 1
110 50 1
110 52 1
110 55 1
110 59 1
110 60 1
110 67 1
110 73 1
110 84 1
110 87 1
110 88 1
110 89 1
110 92 1
110 93 1
110 97 1
110 99 1
110 102 1
110 104 1
110 119 1
110 122 1
110 129 1
110 142 1
110 147 1
110 154 1
110 165 1
110 166 1
110 168 1
110 174 1
110 182 1
110 184 1
110 185 1
110 189 1
110 190 1
110 197 1
110 204 1
110 211 1
110 213 1
110 217 1
110 218 1
110 234 1
110 236 1
110 237 1
110 238 1
110 248 1
110 251 1
110 254 1
110 257 1
110 263 1
110 272 1
110 273 1
110 277 1
110 293 1
110 297 1
110 298 1
110 299 1
110 306 1
110 314 1
110 325 1
110 326 1
110 329 1
110 332 1
110 334 1
110 336 1
110 339 1
110 346 1
110 347 1
110 348 1
110 350 1
110 355 1
110 356 1
110 368 1
110 369 1
110 374 1
110 377 1
110 390 1
110 398 1
110 401 1
110 408 1
110 410 1
110 411 1
110 418 1
110 424 1
110 429 1
110 430 1
110 436 1
110 438 1
110 441 1
110 450 1
110 451 1
110 455 1
110 457 1
110 461 1
110 466 1
110 470 1
110 473 1
110 480 1
110 482 1
110 486 1
110 490 1
110 497 1
110 498 1
110 503 1
110 513 1
110 516 1
110 520 1
110 521 1
110 522 1
110 523 1
110 530 1
110 534 1
110 539 1
110 542 1
110 544 1
110 553 1
110 563 1
110 568 1
110 569 1
110 573 1
110 576 1
110 578 1
110 580 1
110 588 1
110 594 1
110 597 1
110 599 1
110 608 1
110 611 1
110 627 1
110 630 1
110 640 1
110 643 1
110 644 1
110 649 1
110 665 1
110 666 1
110 676 1
110 687 1
111 1 1
111 10 1
111 12 1
111 18 1
111 20 1
111 26 1
111 32 1
111 39 1
111 40 1
111 45 1
111 50 1
111 65 1
111 70 1
111 73 1
111 78 1
111 86 1
111 89 1
111 90 1
111 92 1
111 93 1
111 103 1
111 106 1
111 108 1
111 115 1
111 123 1
111 128 1
111 132 1
111 134 1
111 137 1
111 138 1
111 139 1
111 149 1
111 155 1
111 156 1
111 160 1
111 161 1
111 163 1
111 170 1
111 173 1
111 175 1
111 176 1
111 183 1
111 205 1
111 206 1
111 244 1
111 245 1
111 252 1
111 274 1
111 276 1
111 284 1
111 293 1
111 299 1
111 304 1
111 305 1
111 310 1
111 319 1
111 322 1
111 323 1
111 326 1
111 328 1
111 331 1
111 335 1
111 336 1
111 341 1
111 342 1
111 343 1
111 348 1
111 351 1
111 354 1
111 362 1
111 364 1
111 365 1
111 366 1
111 368 1
111 369 1
111 382 1
111 383 1
111 386 1
111 393 1
111 398 1
111 400 1
111 403 1
111 404 1
111 408 1
111 409 1
111 417 1
111 428 1
111 432 1
111 433 1
111 437 1
111 438 1
111 440 1
111 444 1
111 446 1
111 452 1
111 453 1
111 456 1
111 458 1
111 467 1
111 471 1
111 475 1
111 479 1
111 485 1
111 487 1
111 490 1
111 497 1
111 508 1
111 512 1
111 513 1
111 518 1
111 519 1
111 520 1
111 527 1
111 530 1
111 531 1
111 532 1
111 542 1
111 543 1
111 544 1
111 545 1
111 549 1
111 551 1
111 557 1
111 561 1
111 562 1
111 566 1
111 569 1
111 570 1
111 572 1
111 574 1
111 584 1
111 586 1
111 587 1
111 589 1
111 590 1
111 601 1
111 616 1
111 621 1
111 631 1
111 643 1
111 650 1
111 652 1
111 661 1
111 667 1
111 668 1
111 674 1
111 677 1
111 684 1
111 687 1
111 689 1
111 692 1
111 697 1
111 698 1
111 700 1
112 1 1
112 20 1
112 21 1
112 36 1
112 38 1
112 40 1
112 41 1
112 45 1
112 53 1
112 56 1
112 58 1
112 60 1
112 68 1
112 69 1
112 73 1
112 84 1
112 86 1
112 88 1
112 90 1
112 92 1
112 93 1
112 95 1
112 96 1
112 103 1
112 114 1
112 122 1
112 125 1
112 130 1
112 131 1
112 136 1
112 147 1
112 153 1
112 181 1
112 182 1
112 186 1
112 188 1
112 200 1
112 204 1
112 207 1
112 209 1
112 210 1
112 215 1
112 230 1
112 233 1
112 241 1
112 242 1
112 245 1
112 246 1
112 248 1
112 256 1
112 260 1
112 263 1
112 265 1
112 267 1
112 274 1
112 280 1
112 285 1
112 289 1
112 290 1
112 293 1
112 336 1
112 343 1
112 346 1
112 348 1
112 350 1
112 361 1
112 367 1
112 369 1
112 383 1
112 387 1
112 396 1
112 400 1
112 403 1
112 412 1
112 414 1
112 420 1
112 422 1
112 425 1
112 430 1
112 454 1
112 456 1
112 459 1
112 464 1
112 465 1
112 468 1
112 474 1
112 476 1
112 481 1
112 484 1
112 493 1
112 499 1
112 503 1
112 509 1
112 511 1
112 513 1
112 516 1
112 528 1
112 529 1
112 530 1
112 544 1
112 545 1
112 549 1
112 552 1
112 553 1
112 556 1
112 561 1
112 565 1
112 568 1
112 571 1
112 579 1
112 583 1
112 601 1
112 602 1
112 606 1
112 607 1
112 608 1
112 610 1
112 613 1
112 617 1
112 627 1
112 628 1
112 645 1
112 649 1
112 650 1
112 652 1
112 656 1
112 657 1
112 663 1
112 667 1
112 670 1
112 671 1
112 680 1
112 682 1
112 684 1
112 686 1
112 689 1
112 697 1
113 2 1
113 3 1
113 19 1
113 23 1
113 26 1
113 28 1
113 31 1
113 40 1
113 42 1
113 47 1
113 56 1
113 66 1
113 76 1
113 89 1
113 93 1
113 94 1
113 102 1
113 108 1
113 109 1
113 114 1
113 123 1
113 135 1
113 137 1
113 144 1
113 151 1
113 154 1
113 159 1
113 160 1
113 162 1
113 164 1
113 166 1
113 178 1
113 183 1
113 185 1
113 187 1
113 188 1
113 193 1
113 199 1
113 200 1
113 207 1
113 208 1
113 216 1
113 218 1
113 219 1
113 231 1
113 236 1
113 237 1
113 240 1
113 241 1
113 243 1
113 251 1
113 252 1
113 255 1
113 256 1
113 260 1
113 262 1
113 266 1
113 269 1
113 273 1
113 276 1
113 285 1
113 293 1
113 297 1
113 301 1
113 302 1
113 304 1
113 306 1
113 323 1
113 324 1
113 334 1
113 338 1
113 342 1
113 344 1
113 346 1
113 352 1
113 364 1
113 365 1
113 370 1
113 373 1
113 375 1
113 376 1
113 383 1
113 390 1
113 391 1
113 392 1
113 402 1
113 412 1
113 423 1
113 428 1
113 432 1
113 441 1
113 447 1
113 449 1
113 454 1
113 460 1
113 462 1
113 471 1
113 473 1
113 494 1
113 496 1
113 499 1
113 513 1
113 525 1
113 527 1
113 531 1
113 551 1
113 553 1
113 556 1
113 558 1
113 561 1
113 567 1
113 568 1
113 572 1
113 573 1
113 579 1
113 582 1
113 597 1
113 601 1
113 604 1
113 606 1
113 614 1
113 620 1
113 626 1
113 631 1
113 632 1
113 638 1
113 645 1
113 649 1
113 661 1
113 669 1
113 671 1
113 672 1
113 673 1
113 684 1
113 690 1
113 691 1
113 693 1
113 694 1
114 3 1
114 7 1
114 13 1
114 21 1
114 22 1
114 23 1
114 32 1
114 37 1
114 53 1
114 58 1
114 60 1
114 68 1
114 69 1
114 73 1
114 81 1
114 83 1
114 87 1
114 88 1
114 94 1
114 103 1
114 104 1
114 112 1
114 113 1
114 116 1
114 117 1
114 128 1
114 131 1
114 132 1
114 135 1
114 138 1
114 140 1
114 152 1
114 159 1
114 161 1
114 163 1
114 167 1
114 175 1
114 179 1
114 181 1
114 186 1
114 187 1
114 199 1
114 218 1
114 220 1
114 223 1
114 224 1
114 225 1
114 235 1
114 237 1
114 240 1
114 242 1
114 249 1
114 250 1
114 253 1
114 255 1
114 259 1
114 265 1
114 268 1
114 271 1
114 275 1
114 277 1
114 280 1
114 282 1
114 288 1
114 291 1
114 295 1
114 311 1
114 313 1
114 314 1
114 332 1
114 337 1
114 338 1
114 352 1
114 360 1
114 367 1
114 374 1
114 377 1
114 385 1
114 386 1
114 392 1
114 396 1
114 398 1
114 416 1
114 417 1
114 426 1
114 429 1
114 438 1
114 453 1
114 462 1
114 466 1
114 482 1
114 483 1
114 490 1
114 491 1
114 493 1
114 500 1
114 501 1
114 507 1
114 508 1
114 513 1
114 524 1
114 526 1
114 542 1
114 553 1
114 555 1
114 563 1
114 568 1
114 573 1
114 577 1
114 583 1
114 598 1
114 601 1
114 609 1
114 629 1
114 632 1
114 640 1
114 644 1
114 650 1
114 651 1
114 654 1
114 672 1
114 674 1
114 676 1
114 682 1
114 688 1
114 692 1
114 693 1
114 695 1
114 696 1
114 700 1
115 4 1
115 5 1
115 10 1
115 11 1
115 16 1
115 22 1
115 24 1
115 36 1
115 39 1
115 51 1
115 55 1
115 58 1
115 60 1
115 62 1
115 63 1
115 65 1
115 68 1
115 78 1
115 85 1
115 92 1
115 95 1
115 101 1
115 102 1
115 105 1
115 111 1
115 125 1
115 136 1
115 137 1
115 143 1
115 157 1
115 160 1
115 161 1
115 178 1
115 189 1
115 191 1
115 197 1
115 206 1
115 212 1
115 215 1
115 224 1
115 234 1
115 241 1
115 255 1
115 260 1
115 263 1
115 270 1
115 271 1
115 272 1
115 276 1
115 279 1
115 280 1
115 287 1
115 294 1
115 310 1
115 312 1
115 322 1
115 327 1
115 329 1
115 332 1
115 335 1
115 338 1
115 340 1
115 341 1
115 342 1
115 344 1
115 345 1
115 348 1
115 354 1
115 356 1
115 360 1
115 362 1
115 369 1
115 376 1
115 378 1
115 384 1
115 385 1
115 388 1
115 398 1
115 409 1
115 411 1
115 412 1
115 420 1
115 423 1
115 431 1
115 437 1
115 442 1
115 445 1
115 455 1
115 456 1
115 462 1
115 464 1
115 467 1
115 472 1
115 476 1
115 477 1
115 485 1
115 490 1
115 494 1
115 503 1
115 507 1
115 512 1
115 514 1
115 515 1
115 517 1
115 518 1
115 521 1
115 523 1
115 528 1
115 536 1
115 544 1
115 548 1
115 549 1
115 550 1
115 559 1
115 561 1
115 563 1
115 566 1
115 572 1
115 574 1
115 578 1
115 585 1
115 587 1
115 589 1
115 594 1
115 603 1
115 604 1
115 614 1
115 619 1
115 631 1
115 633 1
115 648 1
115 657 1
115 663 1
115 669 1
115 672 1
115 683 1
115 687 1
115 692 1
116 5 1
116 11 1
116 17 1
116 33 1
116 38 1
116 45 1
116 57 1
116 60 1
116 66 1
116 72 1
116 73 1
116 74 1
116 80 1
116 81 1
116 84 1
116 88 1
116 94 1
116 97 1
116 98 1
116 99 1
116 101 1
116 104 1
116 109 1
116 114 1
116 123 1
116 126 1
116 128 1
116 135 1
116 143 1
116 155 1
116 160 1
116 167 1
116 174 1
116 192 1
116 196 1
116 204 1
116 209 1
116 212 1
116 213 1
116 217 1
116 226 1
116 228 1
116 232 1
116 236 1
116 240 1
116 249 1
116 250 1
116 251 1
116 258 1
116 271 1
116 273 1
116 276 1
116 280 1
116 281 1
116 283 1
116 285 1
116 290 1
116 292 1
116 297 1
116 303 1
116 305 1
116 306 1
116 307 1
116 315 1
116 316 1
116 318 1
116 322 1
116 326 1
116 329 1
116 330 1
116 331 1
116 332 1
116 341 1
116 347 1
116 348 1
116 350 1
116 364 1
116 370 1
116 374 1
116 380 1
116 384 1
116 391 1
116 392 1
116 393 1
116 397 1
116 401 1
116 405 1
116 407 1
116 420 1
116 423 1
116 424 1
116 426 1
116 431 1
116 434 1
116 442 1
116 447 1
116 448 1
116 452 1
116 453 1
116 454 1
116 457 1
116 458 1
116 466 1
116 471 1
116 475 1
116 478 1
116 490 1
116 491 1
116 492 1
116 495 1
116 497 1
116 501 1
116 507 1
116 508 1
116 518 1
116 526 1
116 534 1
116 538 1
116 539 1
116 543 1
116 549 1
116 555 1
116 561 1
116 564 1
116 568 1
116 572 1
116 591 1
116 592 1
116 599 1
116 601 1
116 605 1
116 607 1
116 613 1
116 629 1
116 631 1
116 635 1
116 641 1
116 645 1
116 646 1
116 647 1
116 652 1
116 654 1
116 673 1
116 681 1
116 682 1
116 687 1
116 693 1
117 3 1
117 5 1
117 8 1
117 17 1
117 20 1
117 25 1
117 26 1
117 28 1
117 35 1
117 39 1
117 49 1
117 57 1
117 59 1
117 67 1
117 69 1
117 72 1
117 74 1
117 78 1
117 83 1
117 98 1
117 101 1
117 103 1
117 106 1
117 114 1
117 126 1
117 128 1
117 129 1
117 130 1
117 135 1
117 137 1
117 140 1
117 150 1
117 152 1
117 163 1
117 164 1
117 177 1
117 178 1
117 184 1
117 187 1
117 200 1
117 204 1
117 206 1
117 208 1
117 211 1
117 212 1
117 217 1
117 219 1
117 220 1
117 226 1
117 233 1
117 234 1
117 237 1
117 238 1
117 242 1
117 257 1
117 263 1
117 276 1
117 286 1
117 291 1
117 296 1
117 308 1
117 309 1
117 320 1
117 325 1
117 326 1
117 336 1
117 337 1
117 341 1
117 342 1
117 358 1
117 363 1
117 365 1
117 405 1
117 412 1
117 413 1
117 415 1
117 417 1
117 432 1
117 433 1
117 437 1
117 438 1
117 439 1
117 440 1
117 441 1
117 451 1
117 452 1
117 454 1
117 455 1
117 456 1
117 460 1
117 467 1
117 470 1
117 472 1
117 481 1
117 494 1
117 495 1
117 496 1
117 501 1
117 503 1
117 504 1
117 514 1
117 518 1
117 522 1
117 525 1
117 526 1
117 534 1
117 557 1
117 563 1
117 565 1
117 568 1
117 579 1
117 581 1
117 585 1
117 587 1
117 589 1
117 606 1
117 608 1
117 615 1
117 618 1
117 619 1
117 627 1
117 634 1
117 640 1
117 641 1
117 642 1
117 647 1
117 648 1
117 649 1
117 650 1
117 655 1
117 661 1
117 667 1
117 676 1
117 682 1
117 683 1
117 686 1
117 690 1
117 694 1
117 697 1
118 2 1
118 12 1
118 14 1
118 16 1
118 19 1
118 23 1
118 28 1
118 30 1
118 31 1
118 34 1
118 39 1
118 40 1
118 44 1
118 47 1
118 51 1
118 56 1
118 57 1
118 58 1
118 60 1
118 64 1
118 72 1
118 74 1
118 82 1
118 86 1
118 89 1
118 94 1
118 119 1
118 122 1
118 131 1
118 134 1
118 138 1
118 139 1
118 140 1
118 144 1
118 151 1
118 161 1
118 166 1
118 185 1
118 188 1
118 189 1
118 190 1
118 204 1
118 207 1
118 214 1
118 215 1
118 219 1
118 223 1
118 227 1
118 228 1
118 237 1
118 244 1
118 248 1
118 251 1
118 255 1
118 257 1
118 258 1
118 261 1
118 264 1
118 269 1
118 274 1
118 276 1
118 278 1
118 282 1
118 286 1
118 287 1
118 288 1
118 290 1
118 294 1
118 298 1
118 305 1
118 309 1
118 310 1
118 315 1
118 324 1
118 325 1
118 332 1
118 337 1
118 340 1
118 345 1
118 354 1
118 356 1
118 360 1
118 368 1
118 377 1
118 379 1
118 385 1
118 392 1
118 398 1
118 401 1
118 403 1
118 406 1
118 412 1
118 421 1
118 425 1
118 426 1
118 428 1
118 433 1
118 441 1
118 448 1
118 457 1
118 458 1
118 459 1
118 463 1
118 490 1
118 493 1
118 496 1
118 504 1
118 509 1
118 515 1
118 517 1
118 520 1
118 522 1
118 528 1
118 529 1
118 532 1
118 535 1
118 536 1
118 539 1
118 540 1
118 541 1
118 542 1
118 551 1
118 556 1
118 561 1
118 573 1
118 577 1
118 583 1
118 584 1
118 585 1
118 594 1
118 597 1
118 599 1
118 611 1
118 622 1
118 628 1
118 637 1
118 640 1
118 645 1
118 646 1
118 647 1
118 648 1
118 652 1
118 655 1
118 658 1
118 689 1
118 693 1
118 698 1
119 3 1
119 8 1
119 9 1
119 16 1
119 22 1
119 29 1
119 48 1
119 50 1
119 51 1
119 65 1
119 67 1
119 78 1
119 86 1
119 92 1
119 94 1
119 104 1
119 109 1
119 110 1
119 118 1
119 120 1
119 121 1
119 125 1
119 134 1
119 138 1
119 148 1
119 156 1
119 160 1
119 165 1
119 178 1
119 180 1
119 183 1
119 184 1
119 185 1
119 186 1
119 187 1
119 192 1
119 193 1
119 195 1
119 199 1
119 206 1
119 207 1
119 210 1
119 212 1
119 214 1
119 230 1
119 231 1
119 232 1
119 233 1
119 237 1
119 238 1
119 239 1
119 240 1
119 246 1
119 247 1
119 252 1
119 254 1
119 259 1
119 262 1
119 266 1
119 272 1
119 278 1
119 281 1
119 287 1
119 295 1
119 296 1
119 303 1
119 317 1
119 323 1
119 332 1
119 336 1
119 337 1
119 338 1
119 341 1
119 352 1
119 356 1
119 372 1
119 380 1
119 381 1
119 385 1
119 386 1
119 387 1
119 388 1
119 397 1
119 399 1
119 405 1
119 415 1
119 416 1
119 419 1
119 438 1
119 441 1
119 452 1
119 470 1
119 474 1
119 485 1
119 488 1
119 497 1
119 506 1
119 510 1
119 511 1
119 513 1
119 514 1
119 517 1
119 536 1
119 540 1
119 548 1
119 554 1
119 558 1
119 560 1
119 571 1
119 582 1
119 585 1
119 589 1
119 591 1
119 595 1
119 597 1
119 599 1
119 617 1
119 618 1
119 630 1
119 632 1
119 640 1
119 641 1
119 644 1
119 646 1
119 653 1
119 662 1
119 664 1
119 672 1
119 673 1
119 676 1
119 677 1
119 682 1
119 683 1
119 691 1
119 698 1
119 699 1
120 5 1
120 6 1
120 14 1
120 29 1
120 33 1
120 37 1
120 47 1
120 53 1
120 56 1
120 74 1
120 97 1
120 104 1
120 106 1
120 107 1
120 119 1
120 121 1
120 122 1
120 123 1
120 128 1
120 132 1
120 133 1
120 141 1
120 144 1
120 145 1
120 146 1
120 152 1
120 154 1
120 159 1
120 163 1
120 172 1
120 180 1
120 182 1
120 188 1
120 197 1
120 210 1
120 211 1
120 213 1
120 214 1
120 218 1
120 220 1
120 225 1
120 238 1
120 244 1
120 262 1
120 266 1
120 268 1
120 282 1
120 297 1
120 303 1
120 304 1
120 308 1
120 314 1
120 316 1
120 320 1
120 321 1
120 327 1
120 333 1
120 334 1
120 336 1
120 340 1
120 349 1
120 355 1
120 368 1
120 376 1
120 383 1
120 387 1
120 393 1
120 407 1
120 408 1
120 414 1
120 420 1
120 421 1
120 438 1
120 440 1
120 446 1
120 463 1
120 476 1
120 478 1
120 486 1
120 487 1
120 493 1
120 500 1
120 503 1
120 510 1
120 528 1
120 532 1
120 533 1
120 534 1
120 540 1
120 543 1
120 546 1
120 548 1
120 549 1
120 555 1
120 557 1
120 560 1
120 572 1
120 576 1
120 591 1
120 594 1
120 596 1
120 604 1
120 607 1
120 611 1
120 613 1
120 620 1
120 628 1
120 629 1
120 643 1
120 645 1
120 649 1
120 650 1
120 651 1
120 660 1
120 664 1
120 665 1
120 672 1
120 689 1
120 691 1
120 692 1
120 694 1
120 695 1
120 698 1
121 1 1
121 2 1
121 18 1
121 22 1
121 24 1
121 29 1
121 30 1
121 45 1
121 49 1
121 50 1
121 54 1
121 60 1
121 70 1
121 80 1
121 93 1
121 97 1
121 101 1
121 104 1
121 106 1
121 109 1
121 119 1
121 120 1
121 130 1
121 132 1
121 133 1
121 134 1
121 136 1
121 138 1
121 141 1
121 143 1
121 146 1
121 153 1
121 157 1
121 185 1
121 188 1
121 191 1
121 192 1
121 193 1
121 198 1
121 201 1
121 206 1
121 208 1
121 214 1
121 218 1
121 224 1
121 225 1
121 230 1
121 243 1
121 245 1
121 247 1
121 250 1
121 252 1
121 263 1
121 268 1
121 273 1
121 280 1
121 282 1
121 290 1
121 294 1
121 300 1
121 302 1
121 304 1
121 317 1
121 320 1
121 344 1
121 347 1
121 353 1
121 361 1
121 367 1
121 369 1
121 375 1
121 378 1
121 390 1
121 393 1
121 400 1
121 403 1
121 409 1
121 416 1
121 423 1
121 424 1
121 429 1
121 430 1
121 436 1
121 439 1
121 441 1
121 443 1
121 448 1
121 449 1
121 450 1
121 452 1
121 455 1
121 456 1
121 462 1
121 469 1
121 471 1
121 472 1
121 475 1
121 477 1
121 479 1
121 480 1
121 483 1
121 485 1
121 486 1
121 491 1
121 492 1
121 493 1
121 501 1
121 503 1
121 510 1
121 512 1
121 514 1
121 518 1
121 525 1
121 526 1
121 529 1
121 536 1
121 537 1
121 538 1
121 542 1
121 548 1
121 551 1
121 557 1
121 558 1
121 567 1
121 571 1
121 581 1
121 586 1
121 600 1
121 601 1
121 605 1
121 608 1
121 611 1
121 614 1
121 615 1
121 618 1
121 620 1
121 622 1
121 627 1
121 628 1
121 632 1
121 634 1
121 635 1
121 636 1
121 640 1
121 646 1
121 648 1
121 654 1
121 663 1
121 664 1
121 670 1
121 672 1
121 677 1
121 683 1
122 5 1
122 11 1
122 15 1
122 24 1
122 25 1
122 27 1
122 29 1
122 31 1
122 32 1
122 34 1
122 40 1
122 41 1
122 60 1
122 61 1
122 63 1
122 69 1
122 74 1
122 75 1
122 84 1
122 98 1
122 102 1
122 105 1
122 106 1
122 108 1
122 109 1
122 110 1
122 112 1
122 118 1
122 120 1
122 131 1
122 140 1
122 143 1
122 146 1
122 150 1
122 157 1
122 159 1
122 167 1
122 174 1
122 183 1
122 191 1
122 193 1
122 194 1
122 196 1
122 211 1
122 214 1
122 218 1
122 223 1
122 224 1
122 225 1
122 230 1
122 232 1
122 233 1
122 234 1
122 238 1
122 239 1
122 243 1
122 245 1
122 247 1
122 251 1
122 257 1
122 265 1
122 266 1
122 269 1
122 281 1
122 290 1
122 293 1
122 298 1
122 303 1
122 313 1
122 326 1
122 341 1
122 342 1
122 345 1
122 349 1
122 357 1
122 365 1
122 366 1
122 375 1
122 386 1
122 392 1
122 394 1
122 395 1
122 399 1
122 400 1
122 405 1
122 409 1
122 413 1
122 417 1
122 421 1
122 425 1
122 432 1
122 444 1
122 452 1
122 455 1
122 457 1
122 461 1
122 469 1
122 470 1
122 471 1
122 488 1
122 497 1
122 504 1
122 508 1
122 511 1
122 514 1
122 515 1
122 519 1
122 522 1
122 523 1
122 529 1
122 538 1
122 541 1
122 552 1
122 558 1
122 565 1
122 571 1
122 578 1
122 584 1
122 586 1
122 588 1
122 594 1
122 609 1
122 611 1
122 621 1
122 625 1
122 626 1
122 633 1
122 640 1
122 642 1
122 646 1
122 647 1
122 652 1
122 653 1
122 657 1
122 660 1
122 663 1
122 666 1
122 678 1
122 679 1
122 680 1
122 684 1
122 686 1
122 688 1
122 689 1
122 691 1
122 692 1
122 696 1
122 697 1
122 699 1
123 5 1
123 7 1
123 8 1
123 21 1
123 25 1
123 26 1
123 28 1
123 31 1
123 35 1
123 45 1
123 46 1
123 62 1
123 87 1
123 93 1
123 94 1
123 96 1
123 97 1
123 99 1
123 100 1
123 105 1
123 106 1
123 108 1
123 111 1
123 113 1
123 116 1
123 120 1
123 144 1
123 147 1
123 153 1
123 156 1
123 159 1
123 162 1
123 166 1
123 176 1
123 178 1
123 180 1
123 181 1
123 192 1
123 193 1
123 194 1
123 204 1
123 205 1
123 208 1
123 214 1
123 222 1
123 224 1
123 240 1
123 248 1
123 250 1
123 259 1
123 264 1
123 265 1
123 267 1
123 271 1
123 273 1
123 276 1
123 282 1
123 291 1
123 296 1
123 303 1
123 307 1
123 313 1
123 321 1
123 322 1
123 323 1
123 325 1
123 329 1
123 330 1
123 331 1
123 337 1
123 338 1
123 344 1
123 361 1
123 362 1
123 363 1
123 364 1
123 367 1
123 372 1
123 373 1
123 374 1
123 376 1
123 382 1
123 383 1
123 385 1
123 395 1
123 402 1
123 403 1
123 404 1
123 405 1
123 408 1
123 414 1
123 433 1
123 438 1
123 439 1
123 446 1
123 449 1
123 450 1
123 453 1
123 457 1
123 460 1
123 462 1
123 464 1
123 467 1
123 469 1
123 473 1
123 474 1
123 493 1
123 497 1
123 498 1
123 502 1
123 509 1
123 510 1
123 512 1
123 513 1
123 520 1
123 532 1
123 534 1
123 538 1
123 540 1
123 541 1
123 546 1
123 555 1
123 561 1
123 562 1
123 563 1
123 566 1
123 572 1
123 581 1
123 584 1
123 591 1
123 594 1
123 596 1
123 599 1
123 608 1
123 613 1
123 624 1
123 628 1
123 631 1
123 650 1
123 651 1
123 659 1
123 666 1
123 673 1
123 681 1
123 687 1
123 698 1
124 3 1
124 5 1
124 7 1
124 10 1
124 11 1
124 13 1
124 14 1
124 22 1
124 24 1
124 26 1
124 40 1
124 45 1
124 57 1
124 69 1
124 72 1
124 73 1
124 74 1
124 76 1
124 78 1
124 86 1
124 90 1
124 92 1
124 95 1
124 96 1
124 125 1
124 132 1
124 133 1
124 141 1
124 142 1
124 149 1
124 150 1
124 156 1
124 163 1
124 168 1
124 173 1
124 178 1
124 186 1
124 188 1
124 199 1
124 200 1
124 202 1
124 205 1
124 214 1
124 215 1
124 217 1
124 220 1
124 221 1
124 226 1
124 227 1
124 237 1
124 238 1
124 241 1
124 247 1
124 254 1
124 259 1
124 266 1
124 268 1
124 271 1
124 272 1
124 273 1
124 277 1
124 282 1
124 288 1
124 292 1
124 295 1
124 298 1
124 300 1
124 311 1
124 314 1
124 317 1
124 322 1
124 323 1
124 324 1
124 331 1
124 338 1
124 339 1
124 345 1
124 354 1
124 360 1
124 364 1
124 365 1
124 372 1
124 379 1
124 380 1
124 381 1
124 384 1
124 385 1
124 387 1
124 396 1
124 401 1
124 404 1
124 410 1
124 412 1
124 415 1
124 416 1
124 420 1
124 426 1
124 432 1
124 457 1
124 466 1
124 478 1
124 479 1
124 481 1
124 485 1
124 488 1
124 490 1
124 499 1
124 503 1
124 509 1
124 511 1
124 515 1
124 530 1
124 533 1
124 534 1
124 538 1
124 539 1
124 543 1
124 548 1
124 557 1
124 558 1
124 574 1
124 575 1
124 576 1
124 584 1
124 586 1
124 587 1
124 591 1
124 593 1
124 595 1
124 596 1
124 597 1
124 599 1
124 610 1
124 615 1
124 617 1
124 618 1
124 626 1
124 630 1
124 632 1
124 635 1
124 659 1
124 662 1
124 664 1
124 672 1
124 675 1
124 676 1
124 677 1
124 679 1
124 689 1
124 690 1
124 691 1
124 694 1
125 1 1
125 4 1
125 8 1
125 14 1
125 28 1
125 39 1
125 45 1
125 50 1
125 57 1
125 63 1
125 67 1
125 75 1
125 77 1
125 101 1
125 102 1
125 112 1
125 115 1
125 119 1
125 124 1
125 130 1
125 151 1
125 157 1
125 166 1
125 175 1
125 179 1
125 180 1
125 182 1
125 186 1
125 189 1
125 191 1
125 209 1
125 218 1
125 222 1
125 232 1
125 233 1
125 235 1
125 237 1
125 238 1
125 250 1
125 252 1
125 281 1
125 287 1
125 301 1
125 303 1
125 306 1
125 309 1
125 313 1
125 314 1
125 318 1
125 321 1
125 339 1
125 356 1
125 359 1
125 361 1
125 363 1
125 366 1
125 367 1
125 370 1
125 371 1
125 373 1
125 376 1
125 379 1
125 391 1
125 397 1
125 398 1
125 403 1
125 412 1
125 414 1
125 426 1
125 440 1
125 441 1
125 446 1
125 449 1
125 450 1
125 451 1
125 466 1
125 467 1
125 473 1
125 476 1
125 480 1
125 481 1
125 484 1
125 498 1
125 499 1
125 504 1
125 518 1
125 522 1
125 527 1
125 531 1
125 533 1
125 538 1
125 549 1
125 560 1
125 568 1
125 579 1
125 582 1
125 585 1
125 595 1
125 603 1
125 605 1
125 611 1
125 622 1
125 624 1
125 635 1
125 640 1
125 642 1
125 649 1
125 657 1
125 662 1
125 665 1
125 668 1
125 671 1
125 672 1
125 673 1
125 680 1
125 683 1
125 700 1
126 1 1
126 8 1
126 9 1
126 14 1
126 16 1
126 19 1
126 20 1
126 23 1
126 27 1
126 28 1
126 29 1
126 30 1
126 39 1
126 40 1
126 44 1
126 48 1
126 51 1
126 54 1
126 58 1
126 61 1
126 62 1
126 66 1
126 68 1
126 70 1
126 78 1
126 97 1
126 106 1
126 116 1
126 117 1
126 129 1
126 131 1
126 143 1
126 146 1
126 148 1
126 151 1
126 154 1
126 156 1
126 178 1
126 185 1
126 186 1
126 194 1
126 195 1
126 198 1
126 205 1
126 208 1
126 219 1
126 223 1
126 224 1
126 226 1
126 231 1
126 232 1
126 236 1
126 239 1
126 240 1
126 241 1
126 245 1
126 247 1
126 261 1
126 262 1
126 264 1
126 266 1
126 268 1
126 271 1
126 282 1
126 296 1
126 298 1
126 303 1
126 306 1
126 308 1
126 320 1
126 336 1
126 339 1
126 340 1
126 341 1
126 346 1
126 350 1
126 351 1
126 357 1
126 360 1
126 361 1
126 363 1
126 367 1
126 368 1
126 379 1
126 380 1
126 383 1
126 384 1
126 388 1
126 392 1
126 395 1
126 399 1
126 400 1
126 402 1
126 407 1
126 411 1
126 414 1
126 418 1
126 419 1
126 421 1
126 429 1
126 436 1
126 443 1
126 447 1
126 455 1
126 460 1
126 462 1
126 464 1
126 466 1
126 473 1
126 475 1
126 486 1
126 487 1
126 489 1
126 503 1
126 506 1
126 507 1
126 514 1
126 515 1
126 517 1
126 518 1
126 522 1
126 527 1
126 537 1
126 539 1
126 541 1
126 542 1
126 545 1
126 546 1
126 552 1
126 554 1
126 557 1
126 559 1
126 564 1
126 572 1
126 579 1
126 581 1
126 590 1
126 601 1
126 609 1
126 618 1
126 619 1
126 622 1
126 639 1
126 646 1
126 661 1
126 666 1
126 672 1
126 673 1
126 674 1
126 693 1
126 699 1
127 3 1
127 7 1
127 9 1
127 10 1
127 19 1
127 26 1
127 30 1
127 33 1
127 34 1
127 36 1
127 46 1
127 52 1
127 55 1
127 58 1
127 64 1
127 73 1
127 74 1
127 75 1
127 77 1
127 78 1
127 85 1
127 94 1
127 97 1
127 99 1
127 102 1
127 108 1
127 129 1
127 132 1
127 136 1
127 138 1
127 141 1
127 143 1
127 146 1
127 147 1
127 150 1
127 152 1
127 153 1
127 161 1
127 176 1
127 177 1
127 191 1
127 196 1
127 198 1
127 199 1
127 214 1
127 218 1
127 219 1
127 235 1
127 245 1
127 246 1
127 247 1
127 249 1
127 270 1
127 271 1
127 273 1
127 275 1
127 278 1
127 286 1
127 287 1
127 290 1
127 295 1
127 298 1
127 300 1
127 301 1
127 312 1
127 315 1
127 322 1
127 324 1
127 326 1
127 338 1
127 343 1
127 346 1
127 353 1
127 357 1
127 358 1
127 359 1
127 366 1
127 373 1
127 376 1
127 393 1
127 397 1
127 411 1
127 420 1
127 423 1
127 428 1
127 438 1
127 443 1
127 447 1
127 448 1
127 451 1
127 454 1
127 461 1
127 469 1
127 473 1
127 481 1
127 483 1
127 485 1
127 501 1
127 504 1
127 509 1
127 519 1
127 529 1
127 535 1
127 536 1
127 541 1
127 546 1
127 549 1
127 558 1
127 563 1
127 574 1
127 581 1
127 582 1
127 584 1
127 587 1
127 589 1
127 591 1
127 593 1
127 600 1
127 603 1
127 604 1
127 605 1
127 610 1
127 620 1
127 623 1
127 626 1
127 628 1
127 630 1
127 631 1
127 641 1
127 648 1
127 651 1
127 658 1
127 660 1
127 661 1
127 672 1
127 677 1
127 687 1
127 689 1
127 698 1
128 1 1
128 3 1
128 5 1
128 10 1
128 11 1
128 22 1
128 28 1
128 33 1
128 38 1
128 43 1
128 47 1
128 51 1
128 57 1
128 62 1
128 69 1
128 71 1
128 76 1
128 81 1
128 88 1
128 96 1
128 100 1
128 101 1
128 102 1
128 109 1
128 111 1
128 114 1
128 116 1
128 117 1
128 120 1
128 129 1
128 137 1
128 140 1
128 142 1
128 146 1
128 150 1
128 152 1
128 156 1
128 159 1
128 170 1
128 172 1
128 174 1
128 175 1
128 178 1
128 191 1
128 203 1
128 211 1
128 216 1
128 220 1
128 225 1
128 232 1
128 234 1
128 242 1
128 243 1
128 247 1
128 249 1
128 251 1
128 255 1
128 257 1
128 266 1
128 267 1
128 270 1
128 272 1
128 279 1
128 286 1
128 287 1
128 293 1
128 296 1
128 302 1
128 304 1
128 317 1
128 324 1
128 327 1
128 331 1
128 334 1
128 335 1
128 337 1
128 344 1
128 345 1
128 352 1
128 368 1
128 393 1
128 404 1
128 405 1
128 408 1
128 411 1
128 415 1
128 416 1
128 419 1
128 428 1
128 434 1
128 446 1
128 451 1
128 452 1
128 454 1
128 456 1
128 457 1
128 461 1
128 462 1
128 479 1
128 480 1
128 482 1
128 483 1
128 487 1
128 492 1
128 497 1
128 498 1
128 510 1
128 517 1
128 518 1
128 523 1
128 524 1
128 525 1
128 528 1
128 533 1
128 536 1
128 540 1
128 545 1
128 547 1
128 551 1
128 554 1
128 558 1
128 573 1
128 574 1
128 577 1
128 578 1
128 582 1
128 590 1
128 592 1
128 594 1
128 603 1
128 608 1
128 609 1
128 610 1
128 611 1
128 622 1
128 632 1
128 637 1
128 638 1
128 643 1
128 647 1
128 650 1
128 655 1
128 656 1
128 658 1
128 660 1
128 669 1
128 676 1
128 683 1
128 684 1
128 687 1
128 688 1
128 689 1
128 691 1
128 692 1
128 694 1
128 698 1
129 6 1
129 10 1
129 17 1
129 22 1
129 24 1
129 25 1
129 26 1
129 32 1
129 42 1
129 43 1
129 46 1
129 49 1
129 51 1
129 57 1
129 64 1
129 65 1
129 72 1
129 74 1
129 75 1
129 80 1
129 85 1
129 88 1
129 93 1
129 103 1
129 110 1
129 117 1
129 126 1
129 127 1
129 128 1
129 131 1
129 132 1
129 137 1
129 142 1
129 149 1
129 150 1
129 152 1
129 158 1
129 159 1
129 161 1
129 165 1
129 169 1
129 173 1
129 180 1
129 186 1
129 187 1
129 198 1
129 207 1
129 211 1
129 216 1
129 229 1
129 233 1
129 234 1
129 240 1
129 248 1
129 250 1
129 258 1
129 262 1
129 265 1
129 266 1
129 274 1
129 286 1
129 287 1
129 290 1
129 293 1
129 297 1
129 300 1
129 306 1
129 315 1
129 316 1
129 319 1
129 320 1
129 321 1
129 324 1
129 325 1
129 331 1
129 335 1
129 337 1
129 338 1
129 341 1
129 345 1
129 358 1
129 371 1
129 378 1
129 386 1
129 390 1
129 393 1
129 400 1
129 404 1
129 410 1
129 412 1
129 418 1
129 424 1
129 428 1
129 430 1
129 434 1
129 436 1
129 446 1
129 454 1
129 462 1
129 463 1
129 469 1
129 473 1
129 481 1
129 482 1
129 497 1
129 499 1
129 505 1
129 507 1
129 510 1
129 511 1
129 512 1
129 513 1
129 516 1
129 528 1
129 533 1
129 536 1
129 539 1
129 546 1
129 549 1
129 550 1
129 554 1
129 561 1
129 566 1
129 568 1
129 569 1
129 570 1
129 573 1
129 576 1
129 582 1
129 584 1
129 589 1
129 599 1
129 601 1
129 603 1
129 607 1
129 613 1
129 614 1
129 619 1
129 625 1
129 631 1
129 641 1
129 651 1
129 654 1
129 665 1
129 667 1
129 668 1
129 676 1
129 677 1
129 678 1
129 681 1
129 682 1
129 691 1
129 697 1
129 700 1
130 8 1
130 29 1
130 32 1
130 41 1
130 43 1
130 45 1
130 59 1
130 60 1
130 65 1
130 68 1
130 77 1
130 81 1
130 83 1
130 87 1
130 91 1
130 93 1
130 107 1
130 112 1
130 117 1
130 121 1
130 125 1
130 133 1
130 135 1
130 142 1
130 145 1
130 163 1
130 165 1
130 168 1
130 171 1
130 173 1
130 176 1
130 179 1
130 186 1
130 189 1
130 191 1
130 205 1
130 212 1
130 219 1
130 223 1
130 230 1
130 242 1
130 245 1
130 250 1
130 253 1
130 258 1
130 260 1
130 270 1
130 279 1
130 285 1
130 292 1
130 302 1
130 310 1
130 312 1
130 328 1
130 331 1
130 333 1
130 336 1
130 341 1
130 358 1
130 360 1
130 365 1
130 373 1
130 380 1
130 385 1
130 386 1
130 388 1
130 392 1
130 400 1
130 406 1
130 429 1
130 436 1
130 438 1
130 441 1
130 446 1
130 448 1
130 454 1
130 455 1
130 463 1
130 467 1
130 481 1
130 482 1
130 484 1
130 493 1
130 501 1
130 506 1
130 511 1
130 515 1
130 516 1
130 517 1
130 519 1
130 521 1
130 522 1
130 527 1
130 531 1
130 535 1
130 540 1
130 544 1
130 548 1
130 554 1
130 559 1
130 564 1
130 565 1
130 567 1
130 571 1
130 590 1
130 592 1
130 595 1
130 597 1
130 604 1
130 618 1
130 626 1
130 627 1
130 630 1
130 636 1
130 641 1
130 642 1
130 649 1
130 654 1
130 657 1
130 666 1
130 673 1
130 675 1
130 678 1
130 680 1
130 682 1
130 700 1
131 3 1
131 5 1
131 6 1
131 10 1
131 12 1
131 33 1
131 62 1
131 64 1
131 89 1
131 91 1
131 97 1
131 112 1
131 114 1
131 118 1
131 122 1
131 126 1
131 129 1
131 133 1
131 134 1
131 135 1
131 144 1
131 146 1
131 152 1
131 155 1
131 157 1
131 165 1
131 169 1
131 175 1
131 177 1
131 180 1
131 183 1
131 190 1
131 193 1
131 196 1
131 230 1
131 231 1
131 235 1
131 239 1
131 250 1
131 251 1
131 252 1
131 259 1
131 262 1
131 264 1
131 277 1
131 279 1
131 290 1
131 302 1
131 303 1
131 312 1
131 314 1
131 318 1
131 319 1
131 320 1
131 322 1
131 324 1
131 326 1
131 329 1
131 340 1
131 342 1
131 344 1
131 348 1
131 349 1
131 352 1
131 358 1
131 368 1
131 372 1
131 374 1
131 375 1
131 385 1
131 388 1
131 390 1
131 395 1
131 396 1
131 397 1
131 401 1
131 415 1
131 417 1
131 423 1
131 424 1
131 425 1
131 433 1
131 434 1
131 438 1
131 448 1
131 454 1
131 458 1
131 460 1
131 466 1
131 467 1
131 474 1
131 476 1
131 477 1
131 479 1
131 491 1
131 497 1
131 499 1
131 501 1
131 503 1
131 515 1
131 516 1
131 521 1
131 523 1
131 533 1
131 538 1
131 540 1
131 544 1
131 550 1
131 551 1
131 552 1
131 556 1
131 561 1
131 562 1
131 565 1
131 568 1
131 581 1
131 586 1
131 588 1
131 591 1
131 592 1
131 594 1
131 596 1
131 599 1
131 602 1
131 608 1
131 613 1
131 615 1
131 618 1
131 625 1
131 626 1
131 627 1
131 635 1
131 644 1
131 647 1
131 653 1
131 657 1
131 659 1
131 661 1
131 662 1
131 665 1
131 667 1
131 681 1
131 687 1
131 688 1
131 697 1
131 698 1
132 1 1
132 4 1
132 5 1
132 10 1
132 13 1
132 22 1
132 24 1
132 33 1
132 47 1
132 49 1
132 59 1
132 67 1
132 71 1
132 82 1
132 83 1
132 93 1
132 94 1
132 98 1
132 102 1
132 111 1
132 114 1
132 120 1
132 121 1
132 124 1
132 127 1
132 129 1
132 136 1
132 144 1
132 145 1
132 150 1
132 155 1
132 161 1
132 164 1
132 170 1
132 171 1
132 181 1
132 186 1
132 189 1
132 195 1
132 197 1
132 206 1
132 217 1
132 224 1
132 225 1
132 226 1
132 234 1
132 243 1
132 244 1
132 247 1
132 252 1
132 270 1
132 274 1
132 275 1
132 277 1
132 278 1
132 280 1
132 286 1
132 294 1
132 298 1
132 302 1
132 309 1
132 311 1
132 312 1
132 313 1
132 324 1
132 346 1
132 353 1
132 355 1
132 364 1
132 366 1
132 370 1
132 371 1
132 389 1
132 402 1
132 404 1
132 416 1
132 421 1
132 427 1
132 440 1
132 446 1
132 447 1
132 450 1
132 457 1
132 459 1
132 483 1
132 484 1
132 489 1
132 492 1
132 498 1
132 511 1
132 514 1
132 516 1
132 519 1
132 522 1
132 532 1
132 535 1
132 540 1
132 559 1
132 578 1
132 581 1
132 583 1
132 587 1
132 594 1
132 614 1
132 615 1
132 616 1
132 621 1
132 630 1
132 641 1
132 643 1
132 647 1
132 652 1
132 655 1
132 663 1
132 664 1
132 666 1
132 673 1
132 675 1
132 676 1
132 687 1
132 691 1
132 699 1
133 2 1
133 3 1
133 14 1
133 17 1
133 18 1
133 20 1
133 24 1
133 29 1
133 33 1
133 58 1
133 59 1
133 61 1
133 68 1
133 72 1
133 73 1
133 74 1
133 77 1
133 79 1
133 80 1
133 82 1
133 83 1
133 89 1
133 93 1
133 97 1
133 98 1
133 102 1
133 105 1
133 109 1
133 120 1
133 121 1
133 124 1
133 130 1
133 131 1
133 138 1
133 144 1
133 145 1
133 146 1
133 149 1
133 154 1
133 155 1
133 156 1
133 162 1
133 164 1
133 169 1
133 174 1
133 178 1
133 181 1
133 183 1
133 187 1
133 190 1
133 197 1
133 199 1
133 200 1
133 217 1
133 236 1
133 248 1
133 250 1
133 263 1
133 272 1
133 274 1
133 275 1
133 286 1
133 287 1
133 291 1
133 294 1
133 302 1
133 313 1
133 324 1
133 329 1
133 333 1
133 335 1
133 343 1
133 345 1
133 349 1
133 350 1
133 356 1
133 360 1
133 362 1
133 363 1
133 372 1
133 377 1
133 381 1
133 384 1
133 389 1
133 391 1
133 396 1
133 399 1
133 406 1
133 407 1
133 411 1
133 426 1
133 428 1
133 429 1
133 432 1
133 434 1
133 435 1
133 439 1
133 441 1
133 442 1
133 449 1
133 454 1
133 461 1
133 462 1
133 467 1
133 469 1
133 470 1
133 475 1
133 481 1
133 486 1
133 491 1
133 496 1
133 498 1
133 500 1
133 507 1
133 509 1
133 513 1
133 517 1
133 522 1
133 534 1
133 540 1
133 545 1
133 554 1
133 560 1
133 565 1
133 569 1
133 576 1
133 580 1
133 583 1
133 585 1
133 589 1
133 593 1
133 595 1
133 596 1
133 604 1
133 610 1
133 614 1
133 620 1
133 623 1
133 627 1
133 634 1
133 642 1
133 648 1
133 650 1
133 653 1
133 657 1
133 660 1
133 663 1
133 667 1
133 671 1
133 672 1
133 679 1
133 682 1
133 683 1
133 687 1
133 690 1
133 695 1
133 698 1
134 4 1
134 6 1
134 9 1
134 18 1
134 28 1
134 47 1
134 52 1
134 53 1
134 65 1
134 70 1
134 71 1
134 72 1
134 77 1
134 84 1
134 85 1
134 98 1
134 104 1
134 106 1
134 111 1
134 118 1
134 119 1
134 121 1
134 131 1
134 136 1
134 147 1
134 155 1
134 160 1
134 168 1
134 169 1
134 177 1
134 178 1
134 185 1
134 187 1
134 188 1
134 190 1
134 191 1
134 195 1
134 196 1
134 199 1
134 205 1
134 209 1
134 211 1
134 212 1
134 214 1
134 216 1
134 217 1
134 221 1
134 225 1
134 231 1
134 233 1
134 236 1
134 242 1
134 243 1
134 246 1
134 253 1
134 254 1
134 260 1
134 265 1
134 267 1
134 271 1
134 279 1
134 288 1
134 295 1
134 296 1
134 304 1
134 306 1
134 307 1
134 312 1
134 320 1
134 326 1
134 327 1
134 330 1
134 331 1
134 333 1
134 334 1
134 335 1
134 336 1
134 338 1
134 349 1
134 360 1
134 363 1
134 364 1
134 365 1
134 368 1
134 369 1
134 378 1
134 380 1
134 388 1
134 389 1
134 395 1
134 415 1
134 418 1
134 424 1
134 426 1
134 428 1
134 432 1
134 441 1
134 443 1
134 444 1
134 451 1
134 452 1
134 454 1
134 459 1
134 460 1
134 465 1
134 472 1
134 475 1
134 495 1
134 496 1
134 498 1
134 508 1
134 510 1
134 523 1
134 524 1
134 525 1
134 526 1
134 528 1
134 529 1
134 532 1
134 537 1
134 542 1
134 548 1
134 549 1
134 554 1
134 555 1
134 556 1
134 570 1
134 572 1
134 577 1
134 578 1
134 579 1
134 582 1
134 584 1
134 586 1
134 604 1
134 606 1
134 616 1
134 629 1
134 633 1
134 634 1
134 637 1
134 651 1
134 668 1
134 669 1
134 671 1
134 678 1
134 681 1
134 688 1
134 691 1
134 695 1
135 7 1
135 8 1
135 9 1
135 19 1
135 21 1
135 23 1
135 24 1
135 25 1
135 29 1
135 34 1
135 35 1
135 55 1
135 56 1
135 59 1
135 61 1
135 67 1
135 86 1
135 101 1
135 104 1
135 106 1
135 109 1
135 113 1
135 114 1
135 116 1
135 117 1
135 130 1
135 131 1
135 141 1
135 142 1
135 143 1
135 147 1
135 158 1
135 160 1
135 170 1
135 171 1
135 174 1
135 177 1
135 190 1
135 193 1
135 197 1
135 201 1
135 211 1
135 225 1
135 229 1
135 230 1
135 241 1
135 254 1
135 258 1
135 263 1
135 264 1
135 266 1
135 267 1
135 276 1
135 283 1
135 287 1
135 291 1
135 294 1
135 299 1
135 305 1
135 306 1
135 307 1
135 310 1
135 323 1
135 325 1
135 330 1
135 344 1
135 356 1
135 361 1
135 363 1
135 366 1
135 370 1
135 374 1
135 375 1
135 376 1
135 383 1
135 391 1
135 392 1
135 401 1
135 407 1
135 420 1
135 431 1
135 435 1
135 440 1
135 446 1
135 453 1
135 462 1
135 466 1
135 476 1
135 477 1
135 485 1
135 492 1
135 503 1
135 507 1
135 509 1
135 511 1
135 512 1
135 513 1
135 526 1
135 529 1
135 533 1
135 535 1
135 536 1
135 542 1
135 551 1
135 561 1
135 566 1
135 570 1
135 585 1
135 587 1
135 590 1
135 592 1
135 599 1
135 606 1
135 609 1
135 613 1
135 618 1
135 621 1
135 628 1
135 631 1
135 640 1
135 645 1
135 646 1
135 647 1
135 654 1
135 656 1
135 657 1
135 663 1
135 666 1
135 675 1
135 686 1
135 690 1
135 691 1
135 694 1
135 695 1
136 3 1
136 4 1
136 12 1
136 14 1
136 16 1
136 19 1
136 25 1
136 29 1
136 45 1
136 55 1
136 58 1
136 61 1
136 63 1
136 73 1
136 74 1
136 75 1
136 78 1
136 83 1
136 92 1
136 102 1
136 108 1
136 112 1
136 115 1
136 121 1
136 127 1
136 132 1
136 134 1
136 141 1
136 149 1
136 154 1
136 161 1
136 167 1
136 174 1
136 180 1
136 181 1
136 184 1
136 187 1
136 190 1
136 191 1
136 198 1
136 204 1
136 205 1
136 206 1
136 232 1
136 236 1
136 265 1
136 266 1
136 271 1
136 275 1
136 280 1
136 281 1
136 283 1
136 284 1
136 289 1
136 292 1
136 297 1
136 306 1
136 310 1
136 312 1
136 325 1
136 327 1
136 334 1
136 336 1
136 340 1
136 343 1
136 348 1
136 349 1
136 364 1
136 374 1
136 384 1
136 400 1
136 402 1
136 404 1
136 405 1
136 406 1
136 410 1
136 418 1
136 420 1
136 427 1
136 437 1
136 439 1
136 443 1
136 444 1
136 458 1
136 460 1
136 467 1
136 471 1
136 474 1
136 483 1
136 487 1
136 491 1
136 492 1
136 493 1
136 500 1
136 506 1
136 515 1
136 517 1
136 519 1
136 520 1
136 523 1
136 524 1
136 534 1
136 538 1
136 545 1
136 550 1
136 564 1
136 567 1
136 572 1
136 573 1
136 576 1
136 588 1
136 590 1
136 593 1
136 597 1
136 602 1
136 606 1
136 613 1
136 617 1
136 618 1
136 620 1
136 634 1
136 640 1
136 654 1
136 662 1
136 663 1
136 670 1
136 681 1
136 687 1
136 688 1
136 689 1
136 692 1
136 693 1
136 694 1
136 698 1
136 700 1
137 12 1
137 18 1
137 22 1
137 33 1
137 47 1
137 48 1
137 56 1
137 57 1
137 59 1
137 64 1
137 65 1
137 72 1
137 74 1
137 75 1
137 76 1
137 79 1
137 86 1
137 89 1
137 95 1
137 98 1
137 104 1
137 106 1
137 109 1
137 111 1
137 113 1
137 115 1
137 117 1
137 128 1
137 129 1
137 141 1
137 146 1
137 148 1
137 150 1
137 166 1
137 168 1
137 181 1
137 189 1
137 197 1
137 198 1
137 206 1
137 210 1
137 215 1
137 223 1
137 227 1
137 233 1
137 237 1
137 245 1
137 248 1
137 249 1
137 254 1
137 262 1
137 265 1
137 277 1
137 278 1
137 279 1
137 280 1
137 284 1
137 287 1
137 292 1
137 293 1
137 305 1
137 310 1
137 313 1
137 315 1
137 323 1
137 325 1
137 328 1
137 332 1
137 336 1
137 337 1
137 340 1
137 344 1
137 352 1
137 354 1
137 358 1
137 365 1
137 369 1
137 382 1
137 389 1
137 398 1
137 404 1
137 408 1
137 410 1
137 411 1
137 415 1
137 422 1
137 424 1
137 425 1
137 434 1
137 435 1
137 437 1
137 442 1
137 453 1
137 456 1
137 459 1
137 460 1
137 467 1
137 469 1
137 471 1
137 474 1
137 488 1
137 495 1
137 517 1
137 518 1
137 522 1
137 527 1
137 529 1
137 532 1
137 543 1
137 549 1
137 558 1
137 559 1
137 563 1
137 564 1
137 566 1
137 568 1
137 586 1
137 591 1
137 594 1
137 601 1
137 610 1
137 611 1
137 613 1
137 616 1
137 623 1
137 643 1
137 644 1
137 649 1
137 652 1
137 653 1
137 664 1
137 672 1
137 675 1
137 679 1
137 682 1
137 694 1
137 698 1
138 7 1
138 8 1
138 10 1
138 12 1
138 15 1
138 17 1
138 42 1
138 55 1
138 63 1
138 66 1
138 73 1
138 75 1
138 88 1
138 90 1
138 98 1
138 101 1
138 111 1
138 114 1
138 118 1
138 119 1
138 121 1
138 127 1
138 133 1
138 139 1
138 141 1
138 144 1
138 148 1
138 151 1
138 160 1
138 170 1
138 190 1
138 200 1
138 204 1
138 208 1
138 211 1
138 212 1
138 213 1
138 221 1
138 222 1
138 223 1
138 224 1
138 230 1
138 232 1
138 233 1
138 235 1
138 236 1
138 241 1
138 243 1
138 245 1
138 246 1
138 248 1
138 259 1
138 261 1
138 283 1
138 286 1
138 289 1
138 292 1
138 300 1
138 304 1
138 306 1
138 310 1
138 311 1
138 313 1
138 314 1
138 316 1
138 318 1
138 326 1
138 328 1
138 329 1
138 338 1
138 349 1
138 368 1
138 370 1
138 377 1
138 389 1
138 393 1
138 394 1
138 398 1
138 404 1
138 405 1
138 410 1
138 413 1
138 415 1
138 416 1
138 421 1
138 425 1
138 426 1
138 435 1
138 443 1
138 451 1
138 459 1
138 460 1
138 464 1
138 466 1
138 472 1
138 476 1
138 483 1
138 487 1
138 494 1
138 499 1
138 504 1
138 507 1
138 528 1
138 529 1
138 532 1
138 535 1
138 536 1
138 537 1
138 546 1
138 548 1
138 549 1
138 555 1
138 561 1
138 566 1
138 584 1
138 597 1
138 599 1
138 603 1
138 604 1
138 608 1
138 610 1
138 611 1
138 616 1
138 620 1
138 622 1
138 625 1
138 630 1
138 633 1
138 639 1
138 645 1
138 648 1
138 650 1
138 653 1
138 659 1
138 661 1
138 662 1
138 671 1
138 680 1
138 684 1
138 694 1
139 1 1
139 2 1
139 4 1
139 8 1
139 14 1
139 16 1
139 17 1
139 18 1
139 27 1
139 29 1
139 30 1
139 32 1
139 35 1
139 39 1
139 41 1
139 44 1
139 68 1
139 77 1
139 81 1
139 82 1
139 84 1
139 93 1
139 95 1
139 97 1
139 99 1
139 104 1
139 106 1
139 107 1
139 111 1
139 118 1
139 138 1
139 140 1
139 142 1
139 149 1
139 153 1
139 154 1
139 160 1
139 162 1
139 164 1
139 165 1
139 171 1
139 175 1
139 176 1
139 178 1
139 180 1
139 183 1
139 184 1
139 194 1
139 195 1
139 199 1
139 212 1
139 213 1
139 215 1
139 219 1
139 230 1
139 234 1
139 246 1
139 251 1
139 255 1
139 256 1
139 258 1
139 268 1
139 271 1
139 274 1
139 276 1
139 278 1
139 285 1
139 294 1
139 295 1
139 296 1
139 298 1
139 303 1
139 319 1
139 321 1
139 323 1
139 325 1
139 329 1
139 330 1
139 332 1
139 335 1
139 340 1
139 345 1
139 346 1
139 348 1
139 349 1
139 352 1
139 357 1
139 360 1
139 363 1
139 364 1
139 367 1
139 377 1
139 378 1
139 380 1
139 381 1
139 383 1
139 387 1
139 389 1
139 391 1
139 395 1
139 397 1
139 400 1
139 405 1
139 407 1
139 408 1
139 411 1
139 435 1
139 438 1
139 445 1
139 449 1
139 454 1
139 455 1
139 462 1
139 469 1
139 487 1
139 490 1
139 491 1
139 495 1
139 496 1
139 498 1
139 502 1
139 505 1
139 506 1
139 511 1
139 518 1
139 520 1
139 523 1
139 524 1
139 525 1
139 533 1
139 539 1
139 547 1
139 548 1
139 553 1
139 557 1
139 561 1
139 562 1
139 564 1
139 565 1
139 566 1
139 568 1
139 569 1
139 573 1
139 575 1
139 578 1
139 579 1
139 583 1
139 593 1
139 597 1
139 600 1
139 601 1
139 603 1
139 604 1
139 605 1
139 607 1
139 610 1
139 618 1
139 620 1
139 627 1
139 629 1
139 637 1
139 640 1
139 641 1
139 649 1
139 659 1
139 662 1
139 663 1
139 668 1
139 670 1
139 681 1
139 685 1
139 690 1
139 695 1
140 2 1
140 13 1
140 31 1
140 34 1
140 38 1
140 50 1
140 54 1
140 60 1
140 70 1
140 71 1
140 76 1
140 77 1
140 83 1
140 89 1
140 98 1
140 100 1
140 105 1
140 108 1
140 114 1
140 117 1
140 118 1
140 122 1
140 128 1
140 139 1
140 146 1
140 161 1
140 174 1
140 180 1
140 181 1
140 187 1
140 191 1
140 192 1
140 204 1
140 205 1
140 206 1
140 214 1
140 215 1
140 217 1
140 224 1
140 226 1
140 228 1
140 241 1
140 243 1
140 245 1
140 250 1
140 252 1
140 256 1
140 267 1
140 276 1
140 278 1
140 290 1
140 292 1
140 294 1
140 297 1
140 300 1
140 302 1
140 303 1
140 316 1
140 321 1
140 323 1
140 325 1
140 326 1
140 333 1
140 334 1
140 336 1
140 339 1
140 348 1
140 350 1
140 357 1
140 359 1
140 360 1
140 362 1
140 367 1
140 370 1
140 371 1
140 379 1
140 383 1
140 386 1
140 392 1
140 394 1
140 399 1
140 410 1
140 413 1
140 415 1
140 416 1
140 424 1
140 438 1
140 439 1
140 447 1
140 448 1
140 449 1
140 450 1
140 454 1
140 459 1
140 460 1
140 463 1
140 466 1
140 468 1
140 469 1
140 474 1
140 480 1
140 482 1
140 487 1
140 490 1
140 491 1
140 492 1
140 496 1
140 502 1
140 517 1
140 530 1
140 544 1
140 545 1
140 546 1
140 550 1
140 555 1
140 558 1
140 567 1
140 568 1
140 569 1
140 579 1
140 591 1
140 592 1
140 595 1
140 597 1
140 601 1
140 603 1
140 607 1
140 610 1
140 613 1
140 615 1
140 622 1
140 627 1
140 632 1
140 650 1
140 653 1
140 660 1
140 664 1
140 665 1
140 667 1
140 672 1
140 676 1
140 678 1
140 680 1
140 684 1
140 688 1
140 699 1
141 18 1
141 26 1
141 29 1
141 32 1
141 42 1
141 44 1
141 53 1
141 55 1
141 58 1
141 68 1
141 70 1
141 74 1
141 81 1
141 95 1
141 120 1
141 121 1
141 124 1
141 127 1
141 135 1
141 136 1
141 137 1
141 138 1
141 143 1
141 150 1
141 153 1
141 157 1
141 170 1
141 171 1
141 186 1
141 188 1
141 195 1
141 197 1
141 203 1
141 205 1
141 216 1
141 217 1
141 218 1
141 219 1
141 234 1
141 237 1
141 261 1
141 270 1
141 274 1
141 281 1
141 283 1
141 284 1
141 286 1
141 287 1
141 291 1
141 294 1
141 296 1
141 298 1
141 300 1
141 303 1
141 305 1
141 322 1
141 328 1
141 331 1
141 337 1
141 363 1
141 364 1
141 369 1
141 375 1
141 387 1
141 388 1
141 398 1
141 399 1
141 401 1
141 404 1
141 416 1
141 417 1
141 424 1
141 426 1
141 427 1
141 431 1
141 439 1
141 441 1
141 459 1
141 461 1
141 464 1
141 472 1
141 474 1
141 479 1
141 493 1
141 496 1
141 498 1
141 499 1
141 506 1
141 529 1
141 531 1
141 532 1
141 537 1
141 539 1
141 542 1
141 551 1
141 558 1
141 560 1
141 568 1
141 573 1
141 575 1
141 589 1
141 595 1
141 601 1
141 603 1
141 606 1
141 607 1
141 609 1
141 612 1
141 622 1
141 625 1
141 637 1
141 639 1
141 641 1
141 650 1
141 654 1
141 673 1
141 674 1
141 675 1
141 679 1
141 681 1
141 686 1
141 688 1
141 689 1
141 690 1
141 691 1
141 695 1
142 4 1
142 8 1
142 11 1
142 29 1
142 30 1
142 31 1
142 33 1
142 37 1
142 38 1
142 54 1
142 62 1
142 63 1
142 77 1
142 82 1
142 88 1
142 93 1
142 97 1
142 98 1
142 99 1
142 110 1
142 124 1
142 128 1
142 129 1
142 130 1
142 135 1
142 139 1
142 144 1
142 153 1
142 166 1
142 170 1
142 184 1
142 185 1
142 204 1
142 208 1
142 216 1
142 227 1
142 232 1
142 240 1
142 241 1
142 242 1
142 244 1
142 245 1
142 252 1
142 255 1
142 258 1
142 262 1
142 264 1
142 270 1
142 275 1
142 279 1
142 282 1
142 286 1
142 288 1
142 302 1
142 315 1
142 321 1
142 337 1
142 338 1
142 341 1
142 351 1
142 353 1
142 359 1
142 370 1
142 377 1
142 378 1
142 380 1
142 382 1
142 385 1
142 389 1
142 390 1
142 400 1
142 406 1
142 433 1
142 443 1
142 448 1
142 459 1
142 460 1
142 467 1
142 468 1
142 472 1
142 477 1
142 485 1
142 494 1
142 496 1
142 499 1
142 507 1
142 509 1
142 510 1
142 517 1
142 526 1
142 528 1
142 535 1
142 541 1
142 550 1
142 553 1
142 555 1
142 564 1
142 565 1
142 567 1
142 572 1
142 576 1
142 577 1
142 595 1
142 596 1
142 599 1
142 602 1
142 605 1
142 610 1
142 624 1
142 625 1
142 629 1
142 631 1
142 634 1
142 635 1
142 639 1
142 643 1
142 645 1
142 646 1
142 650 1
142 651 1
142 658 1
142 659 1
142 673 1
142 674 1
142 675 1
142 679 1
142 682 1
142 685 1
142 692 1
142 693 1
142 697 1
143 17 1
143 22 1
143 24 1
143 25 1
143 33 1
143 35 1
143 37 1
143 41 1
143 46 1
143 50 1
143 52 1
143 57 1
143 61 1
143 67 1
143 70 1
143 73 1
143 74 1
143 75 1
143 77 1
143 79 1
143 83 1
143 85 1
143 87 1
143 91 1
143 93 1
143 95 1
143 97 1
143 106 1
143 115 1
143 116 1
143 121 1
143 122 1
143 126 1
143 127 1
143 135 1
143 141 1
143 163 1
143 164 1
143 175 1
143 180 1
143 186 1
143 187 1
143 191 1
143 194 1
143 195 1
143 203 1
143 211 1
143 216 1
143 218 1
143 220 1
143 228 1
143 229 1
143 232 1
143 236 1
143 252 1
143 266 1
143 270 1
143 276 1
143 282 1
143 284 1
143 288 1
143 294 1
143 298 1
143 299 1
143 301 1
143 302 1
143 305 1
143 311 1
143 314 1
143 321 1
143 323 1
143 328 1
143 335 1
143 337 1
143 342 1
143 346 1
143 348 1
143 350 1
143 351 1
143 353 1
143 370 1
143 373 1
143 382 1
143 384 1
143 387 1
143 395 1
143 403 1
143 411 1
143 412 1
143 413 1
143 415 1
143 421 1
143 423 1
143 426 1
143 428 1
143 430 1
143 439 1
143 442 1
143 453 1
143 458 1
143 466 1
143 470 1
143 471 1
143 473 1
143 476 1
143 488 1
143 495 1
143 498 1
143 508 1
143 511 1
143 517 1
143 526 1
143 529 1
143 545 1
143 549 1
143 558 1
143 562 1
143 570 1
143 582 1
143 589 1
143 592 1
143 597 1
143 598 1
143 605 1
143 606 1
143 610 1
143 619 1
143 622 1
143 623 1
143 626 1
143 627 1
143 629 1
143 637 1
143 638 1
143 639 1
143 648 1
143 650 1
143 651 1
143 662 1
143 667 1
143 672 1
143 675 1
143 683 1
143 684 1
144 2 1
144 7 1
144 10 1
144 13 1
144 15 1
144 19 1
144 21 1
144 23 1
144 24 1
144 26 1
144 29 1
144 32 1
144 34 1
144 35 1
144 38 1
144 39 1
144 41 1
144 42 1
144 48 1
144 49 1
144 56 1
144 57 1
144 71 1
144 72 1
144 75 1
144 79 1
144 81 1
144 85 1
144 113 1
144 118 1
144 120 1
144 123 1
144 131 1
144 132 1
144 133 1
144 138 1
144 142 1
144 145 1
144 153 1
144 161 1
144 168 1
144 169 1
144 172 1
144 177 1
144 183 1
144 188 1
144 190 1
144 193 1
144 196 1
144 198 1
144 200 1
144 205 1
144 211 1
144 216 1
144 218 1
144 221 1
144 222 1
144 227 1
144 229 1
144 230 1
144 235 1
144 238 1
144 239 1
144 252 1
144 254 1
144 265 1
144 272 1
144 278 1
144 283 1
144 292 1
144 296 1
144 297 1
144 298 1
144 300 1
144 304 1
144 311 1
144 314 1
144 316 1
144 317 1
144 340 1
144 344 1
144 345 1
144 349 1
144 353 1
144 354 1
144 355 1
144 366 1
144 373 1
144 375 1
144 378 1
144 383 1
144 388 1
144 390 1
144 392 1
144 393 1
144 397 1
144 407 1
144 411 1
144 414 1
144 417 1
144 418 1
144 419 1
144 426 1
144 432 1
144 449 1
144 456 1
144 457 1
144 462 1
144 467 1
144 468 1
144 477 1
144 480 1
144 481 1
144 500 1
144 503 1
144 508 1
144 516 1
144 517 1
144 522 1
144 523 1
144 533 1
144 536 1
144 553 1
144 563 1
144 572 1
144 577 1
144 581 1
144 585 1
144 594 1
144 597 1
144 609 1
144 611 1
144 612 1
144 613 1
144 616 1
144 619 1
144 631 1
144 632 1
144 637 1
144 638 1
144 643 1
144 646 1
144 649 1
144 650 1
144 654 1
144 655 1
144 658 1
144 663 1
144 666 1
144 668 1
144 676 1
144 677 1
144 686 1
144 688 1
145 12 1
145 14 1
145 15 1
145 16 1
145 22 1
145 25 1
145 34 1
145 36 1
145 38 1
145 48 1
145 51 1
145 53 1
145 61 1
145 65 1
145 72 1
145 77 1
145 79 1
145 80 1
145 84 1
145 86 1
145 89 1
145 120 1
145 130 1
145 132 1
145 133 1
145 144 1
145 151 1
145 153 1
145 155 1
145 158 1
145 159 1
145 164 1
145 183 1
145 192 1
145 200 1
145 207 1
145 217 1
145 224 1
145 229 1
145 234 1
145 237 1
145 239 1
145 242 1
145 245 1
145 250 1
145 251 1
145 256 1
145 257 1
145 261 1
145 274 1
145 275 1
145 279 1
145 290 1
145 293 1
145 297 1
145 305 1
145 315 1
145 321 1
145 325 1
145 326 1
145 327 1
145 329 1
145 332 1
145 336 1
145 337 1
145 338 1
145 348 1
145 354 1
145 357 1
145 362 1
145 364 1
145 365 1
145 366 1
145 367 1
145 368 1
145 371 1
145 373 1
145 392 1
145 394 1
145 401 1
145 420 1
145 427 1
145 428 1
145 429 1
145 434 1
145 440 1
145 442 1
145 444 1
145 450 1
145 456 1
145 460 1
145 488 1
145 490 1
145 501 1
145 502 1
145 508 1
145 512 1
145 517 1
145 526 1
145 534 1
145 536 1
145 539 1
145 541 1
145 546 1
145 547 1
145 551 1
145 557 1
145 561 1
145 564 1
145 565 1
145 566 1
145 576 1
145 582 1
145 590 1
145 593 1
145 608 1
145 612 1
145 614 1
145 615 1
145 630 1
145 634 1
145 636 1
145 638 1
145 640 1
145 641 1
145 651 1
145 652 1
145 664 1
145 667 1
145 678 1
145 679 1
145 683 1
145 685 1
145 686 1
145 699 1
146 1 1
146 6 1
146 10 1
146 26 1
146 32 1
146 38 1
146 39 1
146 44 1
146 47 1
146 50 1
146 51 1
146 67 1
146 68 1
146 69 1
146 71 1
146 72 1
146 73 1
146 75 1
146 79 1
146 80 1
146 94 1
146 97 1
146 98 1
146 104 1
146 120 1
146 121 1
146 122 1
146 126 1
146 127 1
146 128 1
146 131 1
146 133 1
146 137 1
146 140 1
146 150 1
146 155 1
146 156 1
146 157 1
146 158 1
146 164 1
146 173 1
146 174 1
146 179 1
146 191 1
146 192 1
146 197 1
146 201 1
146 202 1
146 213 1
146 217 1
146 218 1
146 219 1
146 220 1
146 222 1
146 224 1
146 234 1
146 245 1
146 251 1
146 257 1
146 259 1
146 266 1
146 273 1
146 276 1
146 286 1
146 291 1
146 293 1
146 294 1
146 298 1
146 310 1
146 315 1
146 326 1
146 329 1
146 330 1
146 334 1
146 341 1
146 343 1
146 350 1
146 353 1
146 356 1
146 362 1
146 364 1
146 368 1
146 371 1
146 372 1
146 385 1
146 392 1
146 395 1
146 397 1
146 405 1
146 411 1
146 412 1
146 423 1
146 426 1
146 431 1
146 434 1
146 436 1
146 443 1
146 444 1
146 454 1
146 455 1
146 457 1
146 468 1
146 471 1
146 472 1
146 473 1
146 478 1
146 480 1
146 482 1
146 485 1
146 489 1
146 496 1
146 497 1
146 498 1
146 502 1
146 503 1
146 506 1
146 520 1
146 521 1
146 525 1
146 528 1
146 530 1
146 531 1
146 539 1
146 543 1
146 544 1
146 550 1
146 554 1
146 557 1
146 572 1
146 574 1
146 580 1
146 585 1
146 597 1
146 602 1
146 604 1
146 614 1
146 622 1
146 629 1
146 636 1
146 637 1
146 646 1
146 648 1
146 651 1
146 652 1
146 653 1
146 657 1
146 665 1
146 669 1
146 674 1
146 682 1
146 689 1
146 694 1
146 697 1
147 4 1
147 7 1
147 13 1
147 15 1
147 22 1
147 28 1
147 30 1
147 42 1
147 43 1
147 60 1
147 62 1
147 76 1
147 81 1
147 86 1
147 89 1
147 92 1
147 96 1
147 99 1
147 110 1
147 112 1
147 123 1
147 127 1
147 134 1
147 135 1
147 149 1
147 152 1
147 153 1
147 159 1
147 161 1
147 166 1
147 169 1
147 177 1
147 180 1
147 181 1
147 187 1
147 189 1
147 195 1
147 197 1
147 200 1
147 203 1
147 205 1
147 218 1
147 221 1
147 227 1
147 229 1
147 232 1
147 233 1
147 234 1
147 239 1
147 240 1
147 241 1
147 244 1
147 253 1
147 265 1
147 272 1
147 294 1
147 301 1
147 302 1
147 312 1
147 320 1
147 323 1
147 325 1
147 327 1
147 334 1
147 337 1
147 345 1
147 356 1
147 357 1
147 365 1
147 369 1
147 377 1
147 378 1
147 380 1
147 381 1
147 384 1
147 391 1
147 394 1
147 405 1
147 407 1
147 415 1
147 417 1
147 418 1
147 419 1
147 422 1
147 429 1
147 434 1
147 441 1
147 445 1
147 447 1
147 457 1
147 460 1
147 467 1
147 469 1
147 472 1
147 473 1
147 475 1
147 479 1
147 487 1
147 503 1
147 508 1
147 522 1
147 524 1
147 546 1
147 547 1
147 553 1
147 562 1
147 581 1
147 583 1
147 585 1
147 588 1
147 604 1
147 606 1
147 617 1
147 626 1
147 645 1
147 649 1
147 657 1
147 660 1
147 664 1
147 667 1
147 674 1
147 691 1
147 692 1
147 696 1
148 2 1
148 6 1
148 11 1
148 20 1
148 23 1
148 30 1
148 37 1
148 42 1
148 45 1
148 57 1
148 63 1
148 66 1
148 68 1
148 79 1
148 91 1
148 107 1
148 108 1
148 119 1
148 126 1
148 137 1
148 138 1
148 153 1
148 154 1
148 161 1
148 163 1
148 164 1
148 166 1
148 172 1
148 185 1
148 186 1
148 201 1
148 208 1
148 214 1
148 215 1
148 218 1
148 220 1
148 228 1
148 230 1
148 231 1
148 232 1
148 233 1
148 243 1
148 248 1
148 250 1
148 267 1
148 268 1
148 269 1
148 282 1
148 283 1
148 295 1
148 296 1
148 297 1
148 303 1
148 317 1
148 322 1
148 329 1
148 330 1
148 334 1
148 338 1
148 339 1
148 345 1
148 346 1
148 351 1
148 355 1
148 357 1
148 366 1
148 369 1
148 371 1
148 374 1
148 376 1
148 379 1
148 381 1
148 383 1
148 385 1
148 387 1
148 391 1
148 394 1
148 406 1
148 407 1
148 419 1
148 421 1
148 424 1
148 434 1
148 436 1
148 440 1
148 445 1
148 469 1
148 470 1
148 472 1
148 477 1
148 482 1
148 484 1
148 487 1
148 490 1
148 491 1
148 503 1
148 505 1
148 513 1
148 518 1
148 519 1
148 529 1
148 536 1
148 539 1
148 544 1
148 549 1
148 553 1
148 562 1
148 563 1
148 567 1
148 570 1
148 573 1
148 579 1
148 580 1
148 583 1
148 587 1
148 591 1
148 600 1
148 601 1
148 604 1
148 612 1
148 629 1
148 630 1
148 641 1
148 659 1
148 663 1
148 671 1
148 673 1
148 674 1
148 675 1
148 676 1
148 681 1
148 686 1
148 688 1
148 697 1
149 5 1
149 6 1
149 18 1
149 23 1
149 27 1
149 47 1
149 48 1
149 52 1
149 55 1
149 57 1
149 65 1
149 75 1
149 78 1
149 79 1
149 82 1
149 98 1
149 99 1
149 108 1
149 111 1
149 124 1
149 129 1
149 133 1
149 136 1
149 139 1
149 147 1
149 165 1
149 175 1
149 177 1
149 186 1
149 197 1
149 207 1
149 210 1
149 213 1
149 215 1
149 216 1
149 221 1
149 223 1
149 225 1
149 227 1
149 232 1
149 236 1
149 238 1
149 240 1
149 243 1
149 246 1
149 255 1
149 256 1
149 257 1
149 260 1
149 270 1
149 275 1
149 276 1
149 280 1
149 292 1
149 295 1
149 304 1
149 306 1
149 313 1
149 317 1
149 322 1
149 325 1
149 328 1
149 332 1
149 337 1
149 363 1
149 371 1
149 380 1
149 383 1
149 387 1
149 391 1
149 397 1
149 401 1
149 410 1
149 418 1
149 420 1
149 435 1
149 439 1
149 442 1
149 443 1
149 444 1
149 447 1
149 453 1
149 455 1
149 464 1
149 465 1
149 469 1
149 471 1
149 477 1
149 485 1
149 495 1
149 497 1
149 509 1
149 519 1
149 523 1
149 527 1
149 529 1
149 530 1
149 536 1
149 550 1
149 552 1
149 557 1
149 559 1
149 570 1
149 571 1
149 573 1
149 574 1
149 584 1
149 585 1
149 593 1
149 595 1
149 598 1
149 604 1
149 608 1
149 613 1
149 615 1
149 616 1
149 620 1
149 623 1
149 627 1
149 628 1
149 629 1
149 632 1
149 635 1
149 636 1
149 641 1
149 652 1
149 653 1
149 659 1
149 660 1
149 661 1
149 664 1
149 666 1
149 668 1
149 674 1
149 677 1
149 682 1
149 683 1
149 689 1
150 3 1
150 5 1
150 7 1
150 12 1
150 17 1
150 23 1
150 24 1
150 27 1
150 28 1
150 38 1
150 51 1
150 63 1
150 64 1
150 67 1
150 68 1
150 71 1
150 75 1
150 86 1
150 88 1
150 102 1
150 107 1
150 108 1
150 117 1
150 122 1
150 124 1
150 127 1
150 128 1
150 129 1
150 132 1
150 137 1
150 141 1
150 146 1
150 157 1
150 162 1
150 168 1
150 172 1
150 176 1
150 184 1
150 185 1
150 192 1
150 194 1
150 202 1
150 207 1
150 215 1
150 218 1
150 219 1
150 220 1
150 221 1
150 224 1
150 226 1
150 229 1
150 232 1
150 237 1
150 240 1
150 244 1
150 245 1
150 250 1
150 257 1
150 263 1
150 267 1
150 270 1
150 271 1
150 272 1
150 275 1
150 276 1
150 288 1
150 290 1
150 307 1
150 308 1
150 309 1
150 314 1
150 323 1
150 327 1
150 331 1
150 343 1
150 345 1
150 347 1
150 353 1
150 355 1
150 362 1
150 369 1
150 374 1
150 380 1
150 382 1
150 383 1
150 384 1
150 392 1
150 404 1
150 411 1
150 412 1
150 414 1
150 421 1
150 424 1
150 430 1
150 431 1
150 434 1
150 443 1
150 452 1
150 456 1
150 458 1
150 471 1
150 477 1
150 478 1
150 479 1
150 480 1
150 484 1
150 488 1
150 502 1
150 510 1
150 511 1
150 513 1
150 515 1
150 517 1
150 520 1
150 523 1
150 528 1
150 530 1
150 536 1
150 541 1
150 544 1
150 559 1
150 563 1
150 565 1
150 569 1
150 575 1
150 582 1
150 587 1
150 590 1
150 594 1
150 603 1
150 611 1
150 613 1
150 616 1
150 618 1
150 621 1
150 627 1
150 632 1
150 639 1
150 641 1
150 657 1
150 661 1
150 665 1
150 669 1
150 672 1
150 676 1
150 679 1
150 691 1
151 4 1
151 6 1
151 8 1
151 12 1
151 14 1
151 19 1
151 24 1
151 32 1
151 39 1
151 49 1
151 57 1
151 58 1
151 60 1
151 64 1
151 66 1
151 69 1
151 75 1
151 77 1
151 78 1
151 82 1
151 85 1
151 87 1
151 88 1
151 113 1
151 118 1
151 125 1
151 126 1
151 138 1
151 145 1
151 156 1
151 163 1
151 165 1
151 166 1
151 179 1
151 188 1
151 202 1
151 205 1
151 206 1
151 210 1
151 211 1
151 217 1
151 232 1
151 239 1
151 240 1
151 243 1
151 248 1
151 249 1
151 254 1
151 260 1
151 261 1
151 263 1
151 279 1
151 282 1
151 283 1
151 291 1
151 320 1
151 334 1
151 338 1
151 342 1
151 343 1
151 350 1
151 353 1
151 356 1
151 363 1
151 371 1
151 385 1
151 386 1
151 387 1
151 390 1
151 391 1
151 398 1
151 412 1
151 414 1
151 418 1
151 421 1
151 424 1
151 427 1
151 429 1
151 435 1
151 436 1
151 439 1
151 441 1
151 442 1
151 443 1
151 445 1
151 455 1
151 475 1
151 483 1
151 484 1
151 496 1
151 497 1
151 504 1
151 505 1
151 507 1
151 510 1
151 517 1
151 518 1
151 519 1
151 527 1
151 537 1
151 538 1
151 543 1
151 545 1
151 547 1
151 563 1
151 564 1
151 572 1
151 573 1
151 576 1
151 577 1
151 584 1
151 585 1
151 596 1
151 602 1
151 606 1
151 610 1
151 612 1
151 622 1
151 633 1
151 642 1
151 646 1
151 659 1
151 666 1
151 670 1
151 675 1
151 676 1
151 678 1
151 681 1
151 685 1
151 692 1
151 696 1
151 700 1
152 3 1
152 9 1
152 10 1
152 15 1
152 28 1
152 29 1
152 33 1
152 36 1
152 55 1
152 59 1
152 60 1
152 66 1
152 85 1
152 95 1
152 104 1
152 114 1
152 117 1
152 120 1
152 127 1
152 128 1
152 129 1
152 131 1
152 147 1
152 157 1
152 158 1
152 159 1
152 163 1
152 166 1
152 168 1
152 174 1
152 188 1
152 200 1
152 201 1
152 202 1
152 204 1
152 205 1
152 212 1
152 213 1
152 216 1
152 225 1
152 226 1
152 231 1
152 248 1
152 263 1
152 265 1
152 268 1
152 277 1
152 281 1
152 283 1
152 286 1
152 287 1
152 288 1
152 295 1
152 297 1
152 301 1
152 308 1
152 309 1
152 317 1
152 318 1
152 319 1
152 320 1
152 330 1
152 334 1
152 339 1
152 354 1
152 355 1
152 363 1
152 366 1
152 383 1
152 384 1
152 385 1
152 386 1
152 399 1
152 405 1
152 409 1
152 413 1
152 416 1
152 428 1
152 430 1
152 432 1
152 434 1
152 439 1
152 444 1
152 445 1
152 447 1
152 452 1
152 455 1
152 464 1
152 465 1
152 466 1
152 471 1
152 479 1
152 482 1
152 487 1
152 491 1
152 497 1
152 503 1
152 508 1
152 512 1
152 520 1
152 525 1
152 529 1
152 535 1
152 548 1
152 549 1
152 552 1
152 556 1
152 564 1
152 565 1
152 573 1
152 574 1
152 575 1
152 582 1
152 583 1
152 585 1
152 593 1
152 596 1
152 598 1
152 608 1
152 617 1
152 621 1
152 622 1
152 638 1
152 641 1
152 651 1
152 652 1
152 654 1
152 655 1
152 657 1
152 664 1
152 673 1
152 692 1
153 5 1
153 6 1
153 13 1
153 16 1
153 21 1
153 28 1
153 30 1
153 36 1
153 38 1
153 41 1
153 43 1
153 44 1
153 45 1
153 49 1
153 52 1
153 60 1
153 66 1
153 80 1
153 82 1
153 83 1
153 85 1
153 93 1
153 99 1
153 101 1
153 102 1
153 109 1
153 112 1
153 121 1
153 123 1
153 127 1
153 139 1
153 141 1
153 142 1
153 144 1
153 145 1
153 147 1
153 148 1
153 160 1
153 161 1
153 162 1
153 171 1
153 180 1
153 182 1
153 185 1
153 186 1
153 191 1
153 195 1
153 201 1
153 209 1
153 213 1
153 217 1
153 230 1
153 233 1
153 239 1
153 240 1
153 241 1
153 243 1
153 252 1
153 255 1
153 261 1
153 269 1
153 270 1
153 272 1
153 273 1
153 278 1
153 280 1
153 285 1
153 292 1
153 293 1
153 294 1
153 295 1
153 301 1
153 310 1
153 316 1
153 322 1
153 325 1
153 330 1
153 336 1
153 342 1
153 348 1
153 357 1
153 358 1
153 366 1
153 368 1
153 375 1
153 380 1
153 381 1
153 391 1
153 394 1
153 396 1
153 398 1
153 405 1
153 412 1
153 415 1
153 418 1
153 422 1
153 433 1
153 436 1
153 441 1
153 442 1
153 445 1
153 457 1
153 471 1
153 487 1
153 490 1
153 504 1
153 509 1
153 510 1
153 513 1
153 514 1
153 527 1
153 528 1
153 529 1
153 537 1
153 552 1
153 553 1
153 554 1
153 557 1
153 569 1
153 578 1
153 590 1
153 594 1
153 598 1
153 609 1
153 622 1
153 628 1
153 634 1
153 635 1
153 637 1
153 643 1
153 646 1
153 650 1
153 661 1
153 671 1
153 686 1
153 689 1
154 6 1
154 7 1
154 13 1
154 25 1
154 33 1
154 40 1
154 52 1
154 57 1
154 58 1
154 72 1
154 74 1
154 75 1
154 77 1
154 85 1
154 88 1
154 98 1
154 107 1
154 109 1
154 110 1
154 113 1
154 120 1
154 126 1
154 133 1
154 136 1
154 139 1
154 148 1
154 165 1
154 192 1
154 196 1
154 202 1
154 206 1
154 211 1
154 221 1
154 225 1
154 235 1
154 253 1
154 260 1
154 267 1
154 269 1
154 279 1
154 280 1
154 281 1
154 284 1
154 289 1
154 290 1
154 291 1
154 294 1
154 296 1
154 298 1
154 303 1
154 304 1
154 310 1
154 330 1
154 339 1
154 349 1
154 354 1
154 358 1
154 360 1
154 363 1
154 370 1
154 371 1
154 375 1
154 376 1
154 390 1
154 393 1
154 394 1
154 410 1
154 416 1
154 428 1
154 430 1
154 433 1
154 438 1
154 441 1
154 447 1
154 460 1
154 467 1
154 473 1
154 476 1
154 478 1
154 479 1
154 481 1
154 487 1
154 488 1
154 494 1
154 496 1
154 497 1
154 499 1
154 502 1
154 504 1
154 505 1
154 511 1
154 523 1
154 525 1
154 526 1
154 530 1
154 532 1
154 533 1
154 536 1
154 537 1
154 543 1
154 546 1
154 549 1
154 550 1
154 558 1
154 559 1
154 564 1
154 565 1
154 570 1
154 571 1
154 578 1
154 581 1
154 586 1
154 587 1
154 589 1
154 596 1
154 605 1
154 631 1
154 634 1
154 638 1
154 640 1
154 644 1
154 645 1
154 648 1
154 651 1
154 657 1
154 664 1
154 676 1
154 679 1
154 684 1
155 2 1
155 5 1
155 11 1
155 13 1
155 16 1
155 18 1
155 21 1
155 25 1
155 38 1
155 40 1
155 44 1
155 45 1
155 58 1
155 62 1
155 65 1
155 71 1
155 73 1
155 89 1
155 105 1
155 106 1
155 111 1
155 116 1
155 131 1
155 132 1
155 133 1
155 134 1
155 145 1
155 146 1
155 167 1
155 168 1
155 170 1
155 180 1
155 182 1
155 187 1
155 190 1
155 196 1
155 201 1
155 204 1
155 206 1
155 213 1
155 217 1
155 218 1
155 225 1
155 226 1
155 228 1
155 239 1
155 247 1
155 248 1
155 250 1
155 255 1
155 259 1
155 262 1
155 263 1
155 265 1
155 272 1
155 277 1
155 281 1
155 282 1
155 289 1
155 290 1
155 297 1
155 304 1
155 306 1
155 308 1
155 310 1
155 314 1
155 320 1
155 322 1
155 324 1
155 329 1
155 332 1
155 338 1
155 341 1
155 342 1
155 343 1
155 356 1
155 361 1
155 370 1
155 378 1
155 390 1
155 398 1
155 404 1
155 405 1
155 406 1
155 408 1
155 412 1
155 415 1
155 416 1
155 430 1
155 437 1
155 438 1
155 448 1
155 449 1
155 453 1
155 458 1
155 461 1
155 472 1
155 474 1
155 477 1
155 487 1
155 488 1
155 491 1
155 492 1
155 494 1
155 497 1
155 499 1
155 501 1
155 504 1
155 515 1
155 519 1
155 522 1
155 523 1
155 524 1
155 528 1
155 531 1
155 532 1
155 533 1
155 544 1
155 555 1
155 556 1
155 559 1
155 564 1
155 568 1
155 570 1
155 581 1
155 589 1
155 592 1
155 602 1
155 604 1
155 605 1
155 624 1
155 626 1
155 627 1
155 632 1
155 634 1
155 635 1
155 638 1
155 643 1
155 652 1
155 665 1
155 673 1
155 675 1
155 680 1
155 684 1
155 685 1
155 687 1
155 688 1
155 696 1
156 5 1
156 12 1
156 15 1
156 26 1
156 29 1
156 46 1
156 47 1
156 49 1
156 61 1
156 77 1
156 80 1
156 87 1
156 92 1
156 96 1
156 111 1
156 119 1
156 123 1
156 124 1
156 126 1
156 128 1
156 133 1
156 146 1
156 151 1
156 158 1
156 159 1
156 165 1
156 166 1
156 168 1
156 171 1
156 173 1
156 176 1
156 178 1
156 220 1
156 224 1
156 229 1
156 233 1
156 238 1
156 256 1
156 258 1
156 262 1
156 269 1
156 273 1
156 274 1
156 275 1
156 276 1
156 282 1
156 286 1
156 290 1
156 292 1
156 321 1
156 335 1
156 348 1
156 349 1
156 350 1
156 352 1
156 370 1
156 375 1
156 377 1
156 378 1
156 383 1
156 387 1
156 388 1
156 392 1
156 397 1
156 407 1
156 413 1
156 419 1
156 420 1
156 423 1
156 428 1
156 429 1
156 432 1
156 436 1
156 437 1
156 439 1
156 441 1
156 452 1
156 454 1
156 455 1
156 469 1
156 473 1
156 475 1
156 476 1
156 479 1
156 480 1
156 483 1
156 485 1
156 486 1
156 490 1
156 492 1
156 493 1
156 501 1
156 503 1
156 507 1
156 509 1
156 511 1
156 513 1
156 516 1
156 524 1
156 527 1
156 528 1
156 530 1
156 531 1
156 549 1
156 560 1
156 564 1
156 569 1
156 570 1
156 572 1
156 573 1
156 581 1
156 588 1
156 609 1
156 611 1
156 612 1
156 613 1
156 615 1
156 640 1
156 641 1
156 643 1
156 649 1
156 650 1
156 651 1
156 658 1
156 668 1
156 678 1
156 680 1
156 682 1
156 686 1
156 691 1
157 8 1
157 9 1
157 12 1
157 17 1
157 28 1
157 29 1
157 44 1
157 46 1
157 63 1
157 65 1
157 71 1
157 77 1
157 81 1
157 82 1
157 83 1
157 84 1
157 101 1
157 102 1
157 109 1
157 115 1
157 121 1
157 122 1
157 125 1
157 131 1
157 141 1
157 146 1
157 150 1
157 152 1
157 163 1
157 175 1
157 179 1
157 182 1
157 184 1
157 188 1
157 201 1
157 206 1
157 223 1
157 229 1
157 241 1
157 249 1
157 250 1
157 254 1
157 266 1
157 268 1
157 273 1
157 277 1
157 288 1
157 292 1
157 295 1
157 306 1
157 310 1
157 321 1
157 322 1
157 333 1
157 336 1
157 338 1
157 339 1
157 356 1
157 361 1
157 367 1
157 370 1
157 372 1
157 378 1
157 383 1
157 387 1
157 396 1
157 398 1
157 401 1
157 406 1
157 412 1
157 414 1
157 415 1
157 417 1
157 419 1
157 422 1
157 432 1
157 435 1
157 441 1
157 465 1
157 469 1
157 472 1
157 473 1
157 474 1
157 476 1
157 480 1
157 482 1
157 484 1
157 485 1
157 500 1
157 503 1
157 505 1
157 512 1
157 535 1
157 540 1
157 543 1
157 554 1
157 560 1
157 570 1
157 575 1
157 584 1
157 587 1
157 595 1
157 602 1
157 604 1
157 605 1
157 609 1
157 610 1
157 612 1
157 618 1
157 619 1
157 622 1
157 628 1
157 629 1
157 631 1
157 636 1
157 639 1
157 641 1
157 642 1
157 645 1
157 652 1
157 680 1
157 686 1
158 6 1
158 12 1
158 15 1
158 16 1
158 23 1
158 27 1
158 32 1
158 33 1
158 36 1
158 43 1
158 56 1
158 59 1
158 61 1
158 78 1
158 79 1
158 83 1
158 93 1
158 104 1
158 107 1
158 129 1
158 135 1
158 145 1
158 146 1
158 152 1
158 156 1
158 160 1
158 170 1
158 171 1
158 177 1
158 178 1
158 188 1
158 192 1
158 195 1
158 215 1
158 217 1
158 224 1
158 226 1
158 229 1
158 230 1
158 233 1
158 241 1
158 245 1
158 246 1
158 247 1
158 249 1
158 250 1
158 252 1
158 254 1
158 266 1
158 269 1
158 277 1
158 278 1
158 283 1
158 284 1
158 290 1
158 294 1
158 298 1
158 302 1
158 307 1
158 313 1
158 316 1
158 319 1
158 321 1
158 325 1
158 329 1
158 334 1
158 342 1
158 345 1
158 354 1
158 358 1
158 359 1
158 365 1
158 370 1
158 371 1
158 372 1
158 377 1
158 381 1
158 391 1
158 397 1
158 398 1
158 399 1
158 401 1
158 402 1
158 403 1
158 412 1
158 413 1
158 416 1
158 418 1
158 419 1
158 420 1
158 426 1
158 438 1
158 458 1
158 467 1
158 475 1
158 484 1
158 493 1
158 495 1
158 498 1
158 500 1
158 502 1
158 515 1
158 516 1
158 519 1
158 521 1
158 532 1
158 545 1
158 550 1
158 552 1
158 560 1
158 573 1
158 578 1
158 585 1
158 589 1
158 601 1
158 608 1
158 614 1
158 634 1
158 641 1
158 642 1
158 648 1
158 651 1
158 662 1
158 671 1
158 672 1
158 673 1
158 677 1
158 680 1
158 682 1
158 688 1
158 695 1
158 696 1
159 1 1
159 7 1
159 8 1
159 14 1
159 18 1
159 26 1
159 30 1
159 33 1
159 35 1
159 50 1
159 51 1
159 52 1
159 53 1
159 71 1
159 78 1
159 90 1
159 108 1
159 113 1
159 114 1
159 120 1
159 122 1
159 123 1
159 128 1
159 129 1
159 145 1
159 147 1
159 152 1
159 156 1
159 160 1
159 161 1
159 167 1
159 171 1
159 182 1
159 194 1
159 196 1
159 208 1
159 219 1
159 220 1
159 222 1
159 229 1
159 232 1
159 235 1
159 237 1
159 245 1
159 248 1
159 251 1
159 258 1
159 260 1
159 262 1
159 269 1
159 270 1
159 277 1
159 278 1
159 281 1
159 288 1
159 295 1
159 303 1
159 309 1
159 310 1
159 311 1
159 312 1
159 314 1
159 324 1
159 326 1
159 329 1
159 330 1
159 339 1
159 341 1
159 345 1
159 349 1
159 352 1
159 356 1
159 361 1
159 374 1
159 387 1
159 394 1
159 397 1
159 400 1
159 408 1
159 412 1
159 419 1
159 426 1
159 427 1
159 429 1
159 432 1
159 440 1
159 441 1
159 452 1
159 458 1
159 467 1
159 470 1
159 472 1
159 473 1
159 477 1
159 480 1
159 483 1
159 499 1
159 519 1
159 526 1
159 527 1
159 535 1
159 539 1
159 541 1
159 547 1
159 552 1
159 555 1
159 560 1
159 561 1
159 566 1
159 581 1
159 598 1
159 601 1
159 609 1
159 610 1
159 616 1
159 618 1
159 619 1
159 620 1
159 621 1
159 626 1
159 638 1
159 646 1
159 647 1
159 652 1
159 665 1
159 668 1
159 677 1
159 679 1
159 687 1
159 688 1
159 689 1
159 691 1
159 692 1
160 1 1
160 2 1
160 10 1
160 28 1
160 29 1
160 31 1
160 34 1
160 46 1
160 47 1
160 56 1
160 60 1
160 62 1
160 64 1
160 65 1
160 70 1
160 73 1
160 75 1
160 81 1
160 83 1
160 86 1
160 94 1
160 105 1
160 109 1
160 111 1
160 113 1
160 115 1
160 116 1
160 119 1
160 134 1
160 135 1
160 138 1
160 139 1
160 153 1
160 158 1
160 159 1
160 161 1
160 165 1
160 173 1
160 180 1
160 182 1
160 183 1
160 184 1
160 187 1
160 190 1
160 194 1
160 195 1
160 201 1
160 204 1
160 211 1
160 212 1
160 214 1
160 216 1
160 226 1
160 234 1
160 238 1
160 251 1
160 254 1
160 255 1
160 259 1
160 270 1
160 273 1
160 282 1
160 283 1
160 284 1
160 286 1
160 289 1
160 290 1
160 292 1
160 294 1
160 295 1
160 297 1
160 299 1
160 301 1
160 302 1
160 313 1
160 319 1
160 321 1
160 330 1
160 333 1
160 336 1
160 338 1
160 340 1
160 367 1
160 370 1
160 373 1
160 380 1
160 383 1
160 385 1
160 396 1
160 397 1
160 405 1
160 410 1
160 413 1
160 422 1
160 433 1
160 438 1
160 448 1
160 452 1
160 453 1
160 455 1
160 458 1
160 465 1
160 470 1
160 477 1
160 478 1
160 483 1
160 486 1
160 487 1
160 489 1
160 492 1
160 502 1
160 503 1
160 510 1
160 511 1
160 516 1
160 519 1
160 522 1
160 524 1
160 525 1
160 528 1
160 531 1
160 541 1
160 543 1
160 556 1
160 562 1
160 564 1
160 574 1
160 578 1
160 581 1
160 588 1
160 590 1
160 591 1
160 599 1
160 600 1
160 602 1
160 603 1
160 618 1
160 628 1
160 631 1
160 633 1
160 634 1
160 641 1
160 642 1
160 646 1
160 656 1
160 659 1
160 663 1
160 668 1
160 672 1
160 673 1
160 674 1
160 676 1
160 682 1
160 691 1
160 696 1
160 698 1
160 700 1
161 5 1
161 12 1
161 15 1
161 17 1
161 32 1
161 37 1
161 39 1
161 41 1
161 54 1
161 62 1
161 65 1
161 66 1
161 72 1
161 74 1
161 75 1
161 87 1
161 89 1
161 94 1
161 96 1
161 98 1
161 108 1
161 111 1
161 114 1
161 115 1
161 118 1
161 127 1
161 129 1
161 132 1
161 136 1
161 140 1
161 144 1
161 147 1
161 148 1
161 153 1
161 159 1
161 160 1
161 169 1
161 173 1
161 184 1
161 189 1
161 201 1
161 202 1
161 232 1
161 233 1
161 234 1
161 239 1
161 246 1
161 253 1
161 260 1
161 267 1
161 271 1
161 272 1
161 280 1
161 290 1
161 302 1
161 307 1
161 315 1
161 322 1
161 335 1
161 338 1
161 347 1
161 349 1
161 355 1
161 361 1
161 365 1
161 375 1
161 380 1
161 388 1
161 391 1
161 397 1
161 398 1
161 401 1
161 403 1
161 410 1
161 420 1
161 421 1
161 423 1
161 429 1
161 434 1
161 435 1
161 441 1
161 442 1
161 449 1
161 451 1
161 456 1
161 461 1
161 462 1
161 466 1
161 470 1
161 471 1
161 476 1
161 480 1
161 481 1
161 483 1
161 484 1
161 486 1
161 487 1
161 497 1
161 498 1
161 499 1
161 506 1
161 508 1
161 509 1
161 514 1
161 520 1
161 521 1
161 524 1
161 527 1
161 529 1
161 538 1
161 541 1
161 542 1
161 544 1
161 551 1
161 554 1
161 565 1
161 566 1
161 567 1
161 570 1
161 573 1
161 574 1
161 576 1
161 581 1
161 587 1
161 589 1
161 596 1
161 599 1
161 601 1
161 615 1
161 618 1
161 623 1
161 629 1
161 637 1
161 641 1
161 653 1
161 659 1
161 660 1
161 667 1
161 671 1
161 675 1
161 677 1
161 683 1
161 685 1
161 688 1
161 693 1
161 697 1
162 3 1
162 15 1
162 16 1
162 17 1
162 18 1
162 25 1
162 37 1
162 39 1
162 40 1
162 43 1
162 45 1
162 47 1
162 51 1
162 64 1
162 66 1
162 68 1
162 74 1
162 75 1
162 76 1
162 80 1
162 82 1
162 89 1
162 92 1
162 95 1
162 100 1
162 109 1
162 113 1
162 123 1
162 133 1
162 139 1
162 150 1
162 153 1
162 163 1
162 171 1
162 178 1
162 186 1
162 192 1
162 196 1
162 204 1
162 214 1
162 222 1
162 226 1
162 229 1
162 233 1
162 244 1
162 248 1
162 249 1
162 251 1
162 256 1
162 262 1
162 273 1
162 274 1
162 283 1
162 286 1
162 295 1
162 306 1
162 311 1
162 314 1
162 328 1
162 335 1
162 337 1
162 344 1
162 353 1
162 358 1
162 361 1
162 365 1
162 367 1
162 368 1
162 371 1
162 380 1
162 384 1
162 391 1
162 414 1
162 422 1
162 423 1
162 426 1
162 428 1
162 429 1
162 433 1
162 439 1
162 442 1
162 446 1
162 455 1
162 456 1
162 463 1
162 466 1
162 476 1
162 483 1
162 490 1
162 493 1
162 495 1
162 496 1
162 505 1
162 507 1
162 510 1
162 515 1
162 516 1
162 524 1
162 534 1
162 537 1
162 539 1
162 559 1
162 560 1
162 561 1
162 569 1
162 573 1
162 575 1
162 576 1
162 579 1
162 582 1
162 586 1
162 588 1
162 590 1
162 591 1
162 595 1
162 597 1
162 603 1
162 604 1
162 615 1
162 623 1
162 624 1
162 638 1
162 639 1
162 640 1
162 646 1
162 652 1
162 655 1
162 656 1
162 658 1
162 664 1
162 672 1
162 674 1
162 683 1
162 686 1
162 691 1
162 695 1
163 1 1
163 2 1
163 3 1
163 7 1
163 14 1
163 20 1
163 35 1
163 55 1
163 56 1
163 61 1
163 68 1
163 69 1
163 70 1
163 75 1
163 76 1
163 82 1
163 89 1
163 92 1
163 93 1
163 94 1
163 99 1
163 101 1
163 106 1
163 107 1
163 111 1
163 114 1
163 117 1
163 120 1
163 124 1
163 130 1
163 143 1
163 148 1
163 151 1
163 152 1
163 157 1
163 162 1
163 164 1
163 170 1
163 175 1
163 176 1
163 180 1
163 184 1
163 186 1
163 188 1
163 197 1
163 205 1
163 218 1
163 220 1
163 224 1
163 225 1
163 251 1
163 255 1
163 259 1
163 269 1
163 271 1
163 275 1
163 276 1
163 281 1
163 289 1
163 296 1
163 307 1
163 308 1
163 310 1
163 312 1
163 317 1
163 324 1
163 328 1
163 339 1
163 342 1
163 345 1
163 351 1
163 352 1
163 354 1
163 357 1
163 358 1
163 365 1
163 367 1
163 380 1
163 384 1
163 385 1
163 386 1
163 392 1
163 394 1
163 403 1
163 404 1
163 406 1
163 407 1
163 419 1
163 428 1
163 438 1
163 441 1
163 444 1
163 446 1
163 448 1
163 466 1
163 470 1
163 480 1
163 499 1
163 509 1
163 510 1
163 515 1
163 524 1
163 528 1
163 534 1
163 536 1
163 555 1
163 561 1
163 562 1
163 564 1
163 567 1
163 581 1
163 582 1
163 592 1
163 595 1
163 597 1
163 603 1
163 605 1
163 608 1
163 609 1
163 621 1
163 623 1
163 625 1
163 626 1
163 627 1
163 629 1
163 631 1
163 633 1
163 635 1
163 643 1
163 644 1
163 647 1
163 655 1
163 659 1
163 661 1
163 662 1
163 663 1
163 665 1
163 666 1
163 673 1
163 675 1
163 677 1
163 678 1
163 681 1
163 688 1
163 690 1
163 691 1
163 696 1
164 1 1
164 2 1
164 10 1
164 11 1
164 12 1
164 21 1
164 32 1
164 33 1
164 36 1
164 37 1
164 41 1
164 42 1
164 45 1
164 52 1
164 70 1
164 71 1
164 77 1
164 80 1
164 88 1
164 97 1
164 108 1
164 113 1
164 117 1
164 132 1
164 133 1
164 139 1
164 143 1
164 145 1
164 146 1
164 148 1
164 163 1
164 171 1
164 175 1
164 187 1
164 189 1
164 199 1
164 205 1
164 214 1
164 222 1
164 224 1
164 236 1
164 239 1
164 242 1
164 245 1
164 246 1
164 250 1
164 254 1
164 258 1
164 259 1
164 260 1
164 267 1
164 277 1
164 284 1
164 291 1
164 292 1
164 299 1
164 309 1
164 311 1
164 314 1
164 318 1
164 327 1
164 329 1
164 330 1
164 343 1
164 347 1
164 348 1
164 352 1
164 357 1
164 358 1
164 360 1
164 362 1
164 364 1
164 365 1
164 368 1
164 373 1
164 374 1
164 379 1
164 380 1
164 384 1
164 385 1
164 387 1
164 389 1
164 392 1
164 395 1
164 412 1
164 428 1
164 430 1
164 433 1
164 434 1
164 438 1
164 441 1
164 445 1
164 447 1
164 467 1
164 468 1
164 469 1
164 471 1
164 483 1
164 486 1
164 496 1
164 499 1
164 503 1
164 506 1
164 517 1
164 520 1
164 526 1
164 543 1
164 544 1
164 546 1
164 552 1
164 562 1
164 564 1
164 565 1
164 573 1
164 575 1
164 579 1
164 583 1
164 597 1
164 601 1
164 607 1
164 608 1
164 609 1
164 612 1
164 613 1
164 614 1
164 621 1
164 622 1
164 627 1
164 629 1
164 631 1
164 633 1
164 643 1
164 644 1
164 646 1
164 654 1
164 655 1
164 657 1
164 665 1
164 666 1
164 672 1
164 675 1
164 681 1
164 698 1
165 2 1
165 22 1
165 38 1
165 39 1
165 50 1
165 52 1
165 53 1
165 60 1
165 66 1
165 70 1
165 83 1
165 85 1
165 87 1
165 93 1
165 94 1
165 103 1
165 105 1
165 110 1
165 119 1
165 129 1
165 130 1
165 131 1
165 139 1
165 149 1
165 151 1
165 154 1
165 156 1
165 160 1
165 169 1
165 170 1
165 174 1
165 179 1
165 184 1
165 188 1
165 196 1
165 199 1
165 200 1
165 208 1
165 213 1
165 218 1
165 222 1
165 223 1
165 248 1
165 254 1
165 258 1
165 278 1
165 283 1
165 287 1
165 291 1
165 296 1
165 304 1
165 306 1
165 307 1
165 308 1
165 309 1
165 317 1
165 320 1
165 327 1
165 349 1
165 352 1
165 355 1
165 357 1
165 363 1
165 364 1
165 366 1
165 371 1
165 373 1
165 374 1
165 377 1
165 378 1
165 384 1
165 395 1
165 396 1
165 400 1
165 405 1
165 412 1
165 416 1
165 418 1
165 424 1
165 427 1
165 431 1
165 437 1
165 443 1
165 447 1
165 450 1
165 458 1
165 460 1
165 462 1
165 463 1
165 464 1
165 466 1
165 467 1
165 469 1
165 470 1
165 479 1
165 485 1
165 486 1
165 492 1
165 504 1
165 510 1
165 513 1
165 515 1
165 519 1
165 523 1
165 530 1
165 531 1
165 532 1
165 537 1
165 539 1
165 541 1
165 544 1
165 547 1
165 548 1
165 551 1
165 552 1
165 553 1
165 558 1
165 561 1
165 564 1
165 571 1
165 575 1
165 578 1
165 579 1
165 589 1
165 591 1
165 595 1
165 597 1
165 598 1
165 599 1
165 605 1
165 614 1
165 615 1
165 617 1
165 622 1
165 627 1
165 632 1
165 634 1
165 635 1
165 642 1
165 645 1
165 648 1
165 651 1
165 665 1
165 671 1
165 672 1
165 676 1
165 680 1
165 687 1
165 691 1
165 693 1
165 696 1
165 699 1
166 1 1
166 4 1
166 15 1
166 17 1
166 25 1
166 32 1
166 33 1
166 47 1
166 54 1
166 60 1
166 61 1
166 67 1
166 75 1
166 78 1
166 80 1
166 85 1
166 97 1
166 106 1
166 110 1
166 113 1
166 118 1
166 123 1
166 125 1
166 137 1
166 142 1
166 147 1
166 148 1
166 151 1
166 152 1
166 156 1
166 172 1
166 173 1
166 175 1
166 179 1
166 183 1
166 185 1
166 190 1
166 193 1
166 198 1
166 199 1
166 205 1
166 216 1
166 219 1
166 220 1
166 221 1
166 224 1
166 225 1
166 236 1
166 237 1
166 239 1
166 240 1
166 243 1
166 246 1
166 252 1
166 254 1
166 255 1
166 259 1
166 262 1
166 264 1
166 268 1
166 270 1
166 299 1
166 301 1
166 302 1
166 306 1
166 307 1
166 314 1
166 318 1
166 332 1
166 336 1
166 338 1
166 342 1
166 346 1
166 348 1
166 349 1
166 351 1
166 356 1
166 358 1
166 367 1
166 370 1
166 380 1
166 382 1
166 388 1
166 396 1
166 397 1
166 405 1
166 410 1
166 413 1
166 420 1
166 423 1
166 430 1
166 434 1
166 435 1
166 438 1
166 439 1
166 452 1
166 453 1
166 454 1
166 466 1
166 479 1
166 480 1
166 482 1
166 484 1
166 485 1
166 486 1
166 492 1
166 493 1
166 494 1
166 497 1
166 499 1
166 511 1
166 513 1
166 515 1
166 516 1
166 527 1
166 528 1
166 540 1
166 547 1
166 550 1
166 556 1
166 558 1
166 561 1
166 563 1
166 565 1
166 576 1
166 584 1
166 603 1
166 605 1
166 607 1
166 617 1
166 622 1
166 632 1
166 637 1
166 638 1
166 644 1
166 650 1
166 655 1
166 656 1
166 670 1
166 672 1
166 699 1
167 4 1
167 8 1
167 10 1
167 12 1
167 20 1
167 29 1
167 36 1
167 42 1
167 45 1
167 47 1
167 50 1
167 55 1
167 62 1
167 63 1
167 69 1
167 70 1
167 73 1
167 76 1
167 80 1
167 84 1
167 86 1
167 94 1
167 97 1
167 98 1
167 105 1
167 108 1
167 114 1
167 116 1
167 122 1
167 136 1
167 155 1
167 159 1
167 171 1
167 181 1
167 186 1
167 194 1
167 195 1
167 196 1
167 197 1
167 199 1
167 200 1
167 205 1
167 207 1
167 209 1
167 213 1
167 214 1
167 217 1
167 229 1
167 233 1
167 235 1
167 236 1
167 239 1
167 246 1
167 247 1
167 269 1
167 273 1
167 274 1
167 275 1
167 277 1
167 291 1
167 305 1
167 311 1
167 313 1
167 314 1
167 324 1
167 327 1
167 328 1
167 330 1
167 335 1
167 348 1
167 349 1
167 350 1
167 353 1
167 355 1
167 357 1
167 359 1
167 361 1
167 363 1
167 364 1
167 365 1
167 370 1
167 377 1
167 391 1
167 394 1
167 398 1
167 400 1
167 419 1
167 420 1
167 422 1
167 434 1
167 447 1
167 453 1
167 455 1
167 457 1
167 458 1
167 466 1
167 478 1
167 480 1
167 482 1
167 489 1
167 493 1
167 494 1
167 499 1
167 500 1
167 506 1
167 513 1
167 516 1
167 522 1
167 531 1
167 537 1
167 541 1
167 555 1
167 559 1
167 565 1
167 569 1
167 573 1
167 583 1
167 584 1
167 586 1
167 587 1
167 600 1
167 601 1
167 606 1
167 610 1
167 611 1
167 613 1
167 628 1
167 630 1
167 634 1
167 635 1
167 651 1
167 652 1
167 656 1
167 664 1
167 667 1
167 675 1
167 682 1
167 697 1
167 699 1
168 5 1
168 8 1
168 12 1
168 13 1
168 25 1
168 33 1
168 35 1
168 43 1
168 45 1
168 47 1
168 59 1
168 63 1
168 71 1
168 75 1
168 77 1
168 83 1
168 94 1
168 95 1
168 97 1
168 99 1
168 107 1
168 108 1
168 110 1
168 124 1
168 130 1
168 134 1
168 137 1
168 144 1
168 150 1
168 152 1
168 155 1
168 156 1
168 169 1
168 170 1
168 185 1
168 194 1
168 200 1
168 214 1
168 216 1
168 228 1
168 231 1
168 237 1
168 251 1
168 256 1
168 258 1
168 271 1
168 272 1
168 276 1
168 279 1
168 282 1
168 300 1
168 304 1
168 311 1
168 312 1
168 318 1
168 328 1
168 332 1
168 333 1
168 338 1
168 340 1
168 342 1
168 353 1
168 357 1
168 364 1
168 372 1
168 378 1
168 391 1
168 393 1
168 403 1
168 409 1
168 414 1
168 417 1
168 420 1
168 421 1
168 429 1
168 430 1
168 434 1
168 442 1
168 458 1
168 460 1
168 466 1
168 467 1
168 476 1
168 481 1
168 482 1
168 483 1
168 485 1
168 489 1
168 496 1
168 499 1
168 504 1
168 505 1
168 520 1
168 521 1
168 522 1
168 525 1
168 534 1
168 555 1
168 570 1
168 574 1
168 577 1
168 578 1
168 589 1
168 591 1
168 595 1
168 596 1
168 597 1
168 599 1
168 601 1
168 605 1
168 606 1
168 607 1
168 608 1
168 610 1
168 618 1
168 626 1
168 628 1
168 630 1
168 632 1
168 643 1
168 644 1
168 648 1
168 651 1
168 657 1
168 660 1
168 687 1
168 691 1
168 692 1
168 695 1
168 699 1
168 700 1
169 3 1
169 23 1
169 28 1
169 30 1
169 32 1
169 36 1
169 39 1
169 45 1
169 46 1
169 47 1
169 51 1
169 54 1
169 57 1
169 77 1
169 79 1
169 80 1
169 86 1
169 87 1
169 89 1
169 105 1
169 129 1
169 131 1
169 133 1
169 134 1
169 144 1
169 147 1
169 161 1
169 165 1
169 168 1
169 183 1
169 188 1
169 194 1
169 195 1
169 204 1
169 208 1
169 216 1
169 218 1
169 226 1
169 229 1
169 230 1
169 232 1
169 236 1
169 241 1
169 242 1
169 244 1
169 246 1
169 248 1
169 255 1
169 282 1
169 283 1
169 285 1
169 287 1
169 288 1
169 292 1
169 295 1
169 299 1
169 313 1
169 314 1
169 317 1
169 320 1
169 323 1
169 324 1
169 325 1
169 326 1
169 336 1
169 338 1
169 341 1
169 343 1
169 348 1
169 352 1
169 355 1
169 372 1
169 374 1
169 376 1
169 382 1
169 397 1
169 405 1
169 406 1
169 414 1
169 419 1
169 422 1
169 425 1
169 441 1
169 448 1
169 449 1
169 451 1
169 456 1
169 458 1
169 459 1
169 476 1
169 477 1
169 478 1
169 479 1
169 481 1
169 484 1
169 488 1
169 494 1
169 501 1
169 502 1
169 510 1
169 512 1
169 513 1
169 519 1
169 520 1
169 535 1
169 536 1
169 538 1
169 540 1
169 541 1
169 544 1
169 549 1
169 550 1
169 562 1
169 567 1
169 568 1
169 572 1
169 595 1
169 596 1
169 599 1
169 601 1
169 608 1
169 614 1
169 615 1
169 628 1
169 630 1
169 650 1
169 651 1
169 652 1
169 660 1
169 663 1
169 671 1
169 672 1
169 673 1
169 674 1
169 684 1
169 685 1
169 687 1
169 690 1
170 8 1
170 9 1
170 14 1
170 22 1
170 23 1
170 25 1
170 30 1
170 42 1
170 46 1
170 57 1
170 60 1
170 69 1
170 73 1
170 75 1
170 88 1
170 90 1
170 91 1
170 94 1
170 96 1
170 109 1
170 111 1
170 128 1
170 132 1
170 135 1
170 138 1
170 141 1
170 142 1
170 155 1
170 158 1
170 163 1
170 165 1
170 168 1
170 176 1
170 180 1
170 183 1
170 184 1
170 188 1
170 191 1
170 193 1
170 195 1
170 196 1
170 207 1
170 208 1
170 210 1
170 212 1
170 216 1
170 217 1
170 227 1
170 229 1
170 231 1
170 233 1
170 236 1
170 245 1
170 251 1
170 253 1
170 258 1
170 259 1
170 261 1
170 267 1
170 273 1
170 275 1
170 294 1
170 301 1
170 323 1
170 332 1
170 334 1
170 336 1
170 337 1
170 344 1
170 346 1
170 361 1
170 362 1
170 364 1
170 366 1
170 368 1
170 373 1
170 374 1
170 379 1
170 385 1
170 403 1
170 407 1
170 408 1
170 411 1
170 412 1
170 414 1
170 419 1
170 420 1
170 425 1
170 434 1
170 438 1
170 440 1
170 452 1
170 453 1
170 460 1
170 468 1
170 469 1
170 474 1
170 479 1
170 487 1
170 488 1
170 490 1
170 496 1
170 509 1
170 513 1
170 514 1
170 535 1
170 543 1
170 544 1
170 545 1
170 548 1
170 550 1
170 552 1
170 555 1
170 557 1
170 558 1
170 561 1
170 562 1
170 563 1
170 566 1
170 569 1
170 570 1
170 575 1
170 577 1
170 581 1
170 583 1
170 589 1
170 595 1
170 626 1
170 629 1
170 645 1
170 648 1
170 652 1
170 655 1
170 666 1
170 672 1
170 675 1
170 679 1
170 683 1
170 685 1
170 693 1
170 694 1
170 698 1
171 22 1
171 30 1
171 32 1
171 37 1
171 39 1
171 41 1
171 46 1
171 51 1
171 52 1
171 55 1
171 61 1
171 62 1
171 63 1
171 66 1
171 67 1
171 68 1
171 69 1
171 74 1
171 77 1
171 80 1
171 84 1
171 85 1
171 93 1
171 103 1
171 130 1
171 132 1
171 135 1
171 139 1
171 141 1
171 153 1
171 156 1
171 158 1
171 159 1
171 162 1
171 164 1
171 167 1
171 173 1
171 179 1
171 186 1
171 187 1
171 198 1
171 203 1
171 211 1
171 217 1
171 219 1
171 230 1
171 232 1
171 245 1
171 255 1
171 258 1
171 259 1
171 262 1
171 264 1
171 267 1
171 276 1
171 283 1
171 284 1
171 286 1
171 294 1
171 297 1
171 303 1
171 304 1
171 307 1
171 309 1
171 313 1
171 320 1
171 329 1
171 330 1
171 336 1
171 339 1
171 352 1
171 357 1
171 368 1
171 377 1
171 378 1
171 383 1
171 384 1
171 390 1
171 398 1
171 400 1
171 408 1
171 409 1
171 414 1
171 417 1
171 422 1
171 427 1
171 431 1
171 432 1
171 439 1
171 440 1
171 447 1
171 453 1
171 458 1
171 460 1
171 468 1
171 476 1
171 480 1
171 482 1
171 487 1
171 497 1
171 503 1
171 505 1
171 510 1
171 511 1
171 517 1
171 518 1
171 521 1
171 523 1
171 524 1
171 550 1
171 557 1
171 564 1
171 565 1
171 566 1
171 569 1
171 572 1
171 577 1
171 579 1
171 581 1
171 584 1
171 586 1
171 589 1
171 592 1
171 593 1
171 599 1
171 607 1
171 610 1
171 618 1
171 621 1
171 622 1
171 633 1
171 634 1
171 637 1
171 650 1
171 657 1
171 661 1
171 662 1
171 663 1
171 664 1
171 674 1
171 675 1
171 678 1
171 684 1
171 687 1
171 689 1
171 695 1
171 696 1
171 697 1
172 3 1
172 18 1
172 19 1
172 24 1
172 25 1
172 26 1
172 30 1
172 33 1
172 40 1
172 42 1
172 45 1
172 52 1
172 56 1
172 62 1
172 66 1
172 79 1
172 86 1
172 91 1
172 96 1
172 98 1
172 103 1
172 120 1
172 128 1
172 144 1
172 148 1
172 150 1
172 166 1
172 175 1
172 181 1
172 189 1
172 196 1
172 197 1
172 199 1
172 200 1
172 210 1
172 213 1
172 215 1
172 221 1
172 225 1
172 233 1
172 235 1
172 245 1
172 250 1
172 261 1
172 262 1
172 265 1
172 269 1
172 273 1
172 276 1
172 277 1
172 307 1
172 323 1
172 324 1
172 326 1
172 330 1
172 337 1
172 344 1
172 349 1
172 355 1
172 358 1
172 365 1
172 367 1
172 368 1
172 372 1
172 386 1
172 387 1
172 388 1
172 390 1
172 398 1
172 403 1
172 410 1
172 415 1
172 417 1
172 418 1
172 421 1
172 422 1
172 424 1
172 426 1
172 428 1
172 431 1
172 433 1
172 435 1
172 441 1
172 442 1
172 468 1
172 469 1
172 471 1
172 475 1
172 479 1
172 483 1
172 485 1
172 490 1
172 494 1
172 499 1
172 504 1
172 507 1
172 508 1
172 516 1
172 524 1
172 526 1
172 531 1
172 532 1
172 534 1
172 537 1
172 540 1
172 549 1
172 560 1
172 564 1
172 568 1
172 575 1
172 588 1
172 590 1
172 593 1
172 596 1
172 603 1
172 610 1
172 612 1
172 615 1
172 630 1
172 636 1
172 639 1
172 654 1
172 658 1
172 659 1
172 664 1
172 667 1
172 674 1
172 683 1
172 692 1
172 695 1
172 697 1
172 698 1
172 699 1
172 700 1
173 9 1
173 14 1
173 17 1
173 19 1
173 21 1
173 31 1
173 44 1
173 46 1
173 47 1
173 59 1
173 61 1
173 67 1
173 72 1
173 80 1
173 84 1
173 86 1
173 87 1
173 89 1
173 93 1
173 98 1
173 99 1
173 103 1
173 105 1
173 107 1
173 109 1
173 111 1
173 124 1
173 129 1
173 130 1
173 146 1
173 156 1
173 160 1
173 161 1
173 166 1
173 171 1
173 191 1
173 195 1
173 196 1
173 201 1
173 206 1
173 207 1
173 214 1
173 244 1
173 259 1
173 261 1
173 264 1
173 267 1
173 269 1
173 271 1
173 273 1
173 290 1
173 292 1
173 293 1
173 295 1
173 296 1
173 298 1
173 300 1
173 304 1
173 306 1
173 312 1
173 316 1
173 322 1
173 323 1
173 324 1
173 330 1
173 331 1
173 335 1
173 337 1
173 352 1
173 371 1
173 376 1
173 382 1
173 384 1
173 387 1
173 391 1
173 406 1
173 407 1
173 414 1
173 417 1
173 419 1
173 434 1
173 435 1
173 449 1
173 453 1
173 456 1
173 465 1
173 476 1
173 480 1
173 481 1
173 485 1
173 486 1
173 493 1
173 497 1
173 499 1
173 505 1
173 506 1
173 532 1
173 542 1
173 549 1
173 550 1
173 553 1
173 557 1
173 564 1
173 565 1
173 570 1
173 585 1
173 588 1
173 594 1
173 598 1
173 611 1
173 613 1
173 615 1
173 620 1
173 622 1
173 626 1
173 631 1
173 632 1
173 634 1
173 641 1
173 651 1
173 660 1
173 663 1
173 672 1
173 676 1
173 681 1
173 684 1
173 689 1
173 693 1
173 695 1
173 696 1
174 9 1
174 30 1
174 44 1
174 50 1
174 51 1
174 70 1
174 73 1
174 82 1
174 86 1
174 91 1
174 92 1
174 94 1
174 110 1
174 116 1
174 122 1
174 128 1
174 133 1
174 135 1
174 136 1
174 140 1
174 146 1
174 152 1
174 165 1
174 183 1
174 186 1
174 210 1
174 226 1
174 227 1
174 228 1
174 231 1
174 234 1
174 236 1
174 263 1
174 273 1
174 277 1
174 282 1
174 283 1
174 285 1
174 288 1
174 296 1
174 298 1
174 305 1
174 320 1
174 328 1
174 330 1
174 337 1
174 343 1
174 344 1
174 347 1
174 359 1
174 360 1
174 363 1
174 364 1
174 366 1
174 371 1
174 373 1
174 379 1
174 381 1
174 393 1
174 402 1
174 403 1
174 408 1
174 420 1
174 421 1
174 425 1
174 426 1
174 429 1
174 443 1
174 452 1
174 456 1
174 457 1
174 464 1
174 468 1
174 469 1
174 471 1
174 479 1
174 484 1
174 487 1
174 492 1
174 509 1
174 510 1
174 515 1
174 516 1
174 520 1
174 522 1
174 523 1
174 525 1
174 528 1
174 534 1
174 537 1
174 541 1
174 542 1
174 543 1
174 544 1
174 545 1
174 547 1
174 549 1
174 550 1
174 557 1
174 558 1
174 559 1
174 563 1
174 571 1
174 575 1
174 576 1
174 579 1
174 582 1
174 583 1
174 586 1
174 588 1
174 594 1
174 595 1
174 598 1
174 602 1
174 603 1
174 606 1
174 607 1
174 614 1
174 623 1
174 629 1
174 630 1
174 637 1
174 643 1
174 646 1
174 649 1
174 654 1
174 655 1
174 656 1
174 657 1
174 660 1
174 663 1
174 670 1
174 673 1
174 674 1
174 677 1
174 690 1
174 692 1
174 695 1
174 698 1
175 6 1
175 13 1
175 22 1
175 28 1
175 31 1
175 34 1
175 35 1
175 36 1
175 43 1
175 44 1
175 48 1
175 55 1
175 59 1
175 62 1
175 66 1
175 67 1
175 68 1
175 70 1
175 75 1
175 78 1
175 79 1
175 82 1
175 83 1
175 85 1
175 87 1
175 89 1
175 102 1
175 111 1
175 114 1
175 125 1
175 128 1
175 131 1
175 139 1
175 143 1
175 149 1
175 157 1
175 163 1
175 164 1
175 166 1
175 172 1
175 176 1
175 177 1
175 181 1
175 183 1
175 189 1
175 193 1
175 196 1
175 200 1
175 204 1
175 220 1
175 222 1
175 241 1
175 242 1
175 243 1
175 248 1
175 254 1
175 263 1
175 265 1
175 269 1
175 274 1
175 275 1
175 278 1
175 281 1
175 282 1
175 297 1
175 302 1
175 319 1
175 321 1
175 331 1
175 339 1
175 341 1
175 346 1
175 348 1
175 350 1
175 354 1
175 361 1
175 362 1
175 373 1
175 378 1
175 384 1
175 385 1
175 386 1
175 387 1
175 389 1
175 395 1
175 397 1
175 399 1
175 403 1
175 409 1
175 416 1
175 418 1
175 422 1
175 425 1
175 426 1
175 428 1
175 431 1
175 441 1
175 444 1
175 447 1
175 469 1
175 470 1
175 472 1
175 476 1
175 477 1
175 485 1
175 486 1
175 490 1
175 496 1
175 500 1
175 502 1
175 507 1
175 508 1
175 512 1
175 513 1
175 517 1
175 522 1
175 524 1
175 526 1
175 541 1
175 543 1
175 547 1
175 550 1
175 556 1
175 566 1
175 574 1
175 580 1
175 583 1
175 585 1
175 587 1
175 597 1
175 604 1
175 606 1
175 611 1
175 619 1
175 622 1
175 642 1
175 651 1
175 659 1
175 660 1
175 661 1
175 676 1
175 677 1
175 682 1
175 686 1
175 689 1
175 691 1
175 692 1
175 696 1
176 6 1
176 12 1
176 13 1
176 14 1
176 21 1
176 25 1
176 28 1
176 30 1
176 35 1
176 39 1
176 45 1
176 46 1
176 47 1
176 50 1
176 52 1
176 58 1
176 62 1
176 72 1
176 73 1
176 81 1
176 82 1
176 84 1
176 96 1
176 98 1
176 100 1
176 102 1
176 104 1
176 106 1
176 109 1
176 111 1
176 123 1
176 127 1
176 130 1
176 139 1
176 150 1
176 156 1
176 163 1
176 170 1
176 175 1
176 180 1
176 182 1
176 183 1
176 188 1
176 191 1
176 193 1
176 195 1
176 196 1
176 199 1
176 200 1
176 203 1
176 205 1
176 206 1
176 209 1
176 214 1
176 218 1
176 226 1
176 230 1
176 246 1
176 247 1
176 249 1
176 253 1
176 263 1
176 269 1
176 271 1
176 272 1
176 282 1
176 284 1
176 286 1
176 290 1
176 291 1
176 300 1
176 307 1
176 308 1
176 310 1
176 313 1
176 316 1
176 317 1
176 320 1
176 333 1
176 345 1
176 351 1
176 352 1
176 355 1
176 357 1
176 362 1
176 364 1
176 365 1
176 368 1
176 383 1
176 386 1
176 393 1
176 394 1
176 395 1
176 396 1
176 397 1
176 400 1
176 416 1
176 424 1
176 430 1
176 454 1
176 459 1
176 460 1
176 463 1
176 466 1
176 473 1
176 479 1
176 480 1
176 482 1
176 488 1
176 490 1
176 491 1
176 495 1
176 507 1
176 511 1
176 519 1
176 527 1
176 528 1
176 529 1
176 532 1
176 538 1
176 540 1
176 547 1
176 553 1
176 556 1
176 557 1
176 562 1
176 575 1
176 578 1
176 584 1
176 587 1
176 595 1
176 596 1
176 597 1
176 599 1
176 608 1
176 616 1
176 618 1
176 619 1
176 621 1
176 622 1
176 625 1
176 626 1
176 629 1
176 631 1
176 632 1
176 633 1
176 637 1
176 640 1
176 645 1
176 660 1
176 663 1
176 665 1
176 670 1
176 676 1
176 686 1
176 687 1
176 688 1
176 694 1
176 696 1
177 7 1
177 16 1
177 17 1
177 34 1
177 40 1
177 41 1
177 46 1
177 51 1
177 55 1
177 58 1
177 60 1
177 63 1
177 66 1
177 72 1
177 73 1
177 76 1
177 84 1
177 91 1
177 97 1
177 106 1
177 117 1
177 127 1
177 131 1
177 134 1
177 135 1
177 144 1
177 147 1
177 149 1
177 158 1
177 175 1
177 184 1
177 189 1
177 198 1
177 200 1
177 205 1
177 211 1
177 214 1
177 220 1
177 226 1
177 239 1
177 245 1
177 247 1
177 251 1
177 253 1
177 255 1
177 265 1
177 266 1
177 267 1
177 268 1
177 272 1
177 280 1
177 282 1
177 283 1
177 285 1
177 286 1
177 288 1
177 294 1
177 301 1
177 304 1
177 308 1
177 321 1
177 322 1
177 325 1
177 327 1
177 331 1
177 336 1
177 339 1
177 344 1
177 349 1
177 356 1
177 357 1
177 363 1
177 378 1
177 387 1
177 388 1
177 392 1
177 408 1
177 411 1
177 420 1
177 425 1
177 426 1
177 438 1
177 440 1
177 447 1
177 463 1
177 469 1
177 474 1
177 484 1
177 497 1
177 510 1
177 513 1
177 518 1
177 522 1
177 527 1
177 530 1
177 534 1
177 535 1
177 537 1
177 547 1
177 553 1
177 554 1
177 564 1
177 568 1
177 569 1
177 574 1
177 575 1
177 582 1
177 585 1
177 593 1
177 598 1
177 603 1
177 606 1
177 615 1
177 623 1
177 625 1
177 629 1
177 631 1
177 639 1
177 649 1
177 655 1
177 656 1
177 666 1
177 671 1
177 672 1
177 679 1
177 684 1
177 697 1
177 698 1
178 4 1
178 18 1
178 28 1
178 32 1
178 38 1
178 40 1
178 50 1
178 52 1
178 56 1
178 67 1
178 69 1
178 72 1
178 92 1
178 94 1
178 95 1
178 103 1
178 113 1
178 115 1
178 117 1
178 119 1
178 123 1
178 124 1
178 126 1
178 128 1
178 133 1
178 134 1
178 139 1
178 156 1
178 158 1
178 162 1
178 182 1
178 184 1
178 185 1
178 187 1
178 190 1
178 195 1
178 198 1
178 200 1
178 204 1
178 229 1
178 237 1
178 241 1
178 249 1
178 251 1
178 253 1
178 255 1
178 261 1
178 269 1
178 275 1
178 277 1
178 283 1
178 286 1
178 291 1
178 292 1
178 293 1
178 300 1
178 303 1
178 304 1
178 305 1
178 308 1
178 320 1
178 324 1
178 326 1
178 327 1
178 337 1
178 339 1
178 349 1
178 354 1
178 356 1
178 365 1
178 375 1
178 394 1
178 400 1
178 401 1
178 402 1
178 407 1
178 410 1
178 421 1
178 425 1
178 433 1
178 438 1
178 452 1
178 453 1
178 456 1
178 462 1
178 465 1
178 466 1
178 467 1
178 477 1
178 478 1
178 481 1
178 489 1
178 497 1
178 500 1
178 502 1
178 505 1
178 506 1
178 512 1
178 528 1
178 536 1
178 545 1
178 555 1
178 557 1
178 559 1
178 569 1
178 572 1
178 576 1
178 581 1
178 582 1
178 590 1
178 595 1
178 604 1
178 605 1
178 613 1
178 616 1
178 620 1
178 621 1
178 624 1
178 627 1
178 628 1
178 632 1
178 633 1
178 639 1
178 641 1
178 648 1
178 649 1
178 652 1
178 659 1
178 669 1
178 674 1
178 680 1
178 682 1
178 683 1
178 685 1
178 688 1
178 695 1
178 698 1
179 3 1
179 11 1
179 15 1
179 17 1
179 19 1
179 24 1
179 25 1
179 26 1
179 27 1
179 30 1
179 35 1
179 53 1
179 57 1
179 61 1
179 64 1
179 66 1
179 72 1
179 73 1
179 89 1
179 92 1
179 93 1
179 94 1
179 95 1
179 96 1
179 101 1
179 102 1
179 105 1
179 107 1
179 114 1
179 125 1
179 130 1
179 146 1
179 151 1
179 157 1
179 165 1
179 166 1
179 171 1
179 189 1
179 190 1
179 194 1
179 203 1
179 205 1
179 208 1
179 218 1
179 221 1
179 222 1
179 223 1
179 226 1
179 232 1
179 238 1
179 244 1
179 245 1
179 247 1
179 249 1
179 251 1
179 253 1
179 265 1
179 266 1
179 267 1
179 269 1
179 272 1
179 276 1
179 278 1
179 280 1
179 291 1
179 292 1
179 293 1
179 303 1
179 306 1
179 310 1
179 312 1
179 313 1
179 319 1
179 326 1
179 330 1
179 331 1
179 338 1
179 340 1
179 349 1
179 351 1
179 357 1
179 358 1
179 361 1
179 362 1
179 366 1
179 368 1
179 380 1
179 381 1
179 384 1
179 386 1
179 394 1
179 395 1
179 414 1
179 424 1
179 425 1
179 428 1
179 438 1
179 448 1
179 461 1
179 463 1
179 464 1
179 469 1
179 471 1
179 474 1
179 475 1
179 479 1
179 491 1
179 495 1
179 496 1
179 498 1
179 499 1
179 505 1
179 506 1
179 507 1
179 518 1
179 519 1
179 525 1
179 528 1
179 539 1
179 540 1
179 544 1
179 549 1
179 551 1
179 557 1
179 558 1
179 563 1
179 564 1
179 567 1
179 568 1
179 569 1
179 572 1
179 575 1
179 576 1
179 578 1
179 583 1
179 585 1
179 586 1
179 592 1
179 600 1
179 602 1
179 603 1
179 613 1
179 614 1
179 616 1
179 619 1
179 632 1
179 634 1
179 636 1
179 644 1
179 645 1
179 647 1
179 650 1
179 655 1
179 658 1
179 665 1
179 666 1
179 669 1
179 670 1
179 671 1
179 674 1
179 683 1
179 695 1
179 699 1
180 2 1
180 3 1
180 7 1
180 12 1
180 18 1
180 19 1
180 22 1
180 25 1
180 26 1
180 27 1
180 36 1
180 43 1
180 45 1
180 48 1
180 57 1
180 63 1
180 65 1
180 68 1
180 73 1
180 75 1
180 82 1
180 87 1
180 94 1
180 103 1
180 119 1
180 120 1
180 123 1
180 125 1
180 129 1
180 131 1
180 136 1
180 139 1
180 140 1
180 143 1
180 147 1
180 153 1
180 155 1
180 160 1
180 163 1
180 170 1
180 176 1
180 181 1
180 185 1
180 188 1
180 189 1
180 198 1
180 200 1
180 205 1
180 217 1
180 220 1
180 224 1
180 226 1
180 235 1
180 236 1
180 237 1
180 238 1
180 246 1
180 253 1
180 259 1
180 272 1
180 280 1
180 283 1
180 284 1
180 286 1
180 291 1
180 297 1
180 298 1
180 299 1
180 303 1
180 304 1
180 311 1
180 313 1
180 314 1
180 317 1
180 320 1
180 322 1
180 323 1
180 326 1
180 327 1
180 332 1
180 334 1
180 340 1
180 341 1
180 347 1
180 351 1
180 352 1
180 355 1
180 357 1
180 362 1
180 366 1
180 373 1
180 385 1
180 389 1
180 404 1
180 414 1
180 421 1
180 424 1
180 428 1
180 438 1
180 439 1
180 444 1
180 450 1
180 452 1
180 456 1
180 478 1
180 486 1
180 487 1
180 489 1
180 491 1
180 496 1
180 502 1
180 509 1
180 510 1
180 511 1
180 515 1
180 518 1
180 520 1
180 529 1
180 537 1
180 539 1
180 540 1
180 542 1
180 547 1
180 557 1
180 559 1
180 568 1
180 577 1
180 579 1
180 583 1
180 585 1
180 591 1
180 600 1
180 606 1
180 614 1
180 625 1
180 634 1
180 636 1
180 637 1
180 639 1
180 661 1
180 663 1
180 674 1
180 675 1
180 677 1
180 679 1
180 680 1
180 682 1
180 686 1
180 687 1
180 688 1
180 689 1
180 693 1
180 698 1
181 1 1
181 6 1
181 9 1
181 10 1
181 15 1
181 24 1
181 25 1
181 36 1
181 40 1
181 43 1
181 44 1
181 45 1
181 50 1
181 64 1
181 67 1
181 68 1
181 73 1
181 74 1
181 75 1
181 84 1
181 87 1
181 91 1
181 92 1
181 97 1
181 107 1
181 112 1
181 114 1
181 123 1
181 132 1
181 133 1
181 136 1
181 137 1
181 140 1
181 147 1
181 167 1
181 172 1
181 175 1
181 180 1
181 189 1
181 199 1
181 205 1
181 209 1
181 213 1
181 215 1
181 219 1
181 221 1
181 227 1
181 235 1
181 238 1
181 240 1
181 242 1
181 244 1
181 245 1
181 250 1
181 255 1
181 259 1
181 263 1
181 267 1
181 272 1
181 276 1
181 277 1
181 286 1
181 288 1
181 293 1
181 310 1
181 312 1
181 315 1
181 324 1
181 326 1
181 328 1
181 329 1
181 338 1
181 343 1
181 345 1
181 357 1
181 359 1
181 378 1
181 386 1
181 389 1
181 392 1
181 395 1
181 396 1
181 401 1
181 405 1
181 407 1
181 409 1
181 414 1
181 418 1
181 420 1
181 422 1
181 431 1
181 433 1
181 435 1
181 440 1
181 442 1
181 443 1
181 444 1
181 461 1
181 462 1
181 465 1
181 468 1
181 469 1
181 475 1
181 479 1
181 484 1
181 487 1
181 491 1
181 494 1
181 501 1
181 502 1
181 504 1
181 509 1
181 510 1
181 512 1
181 525 1
181 530 1
181 535 1
181 543 1
181 549 1
181 553 1
181 564 1
181 566 1
181 567 1
181 568 1
181 586 1
181 587 1
181 589 1
181 590 1
181 600 1
181 603 1
181 608 1
181 611 1
181 612 1
181 614 1
181 615 1
181 621 1
181 622 1
181 624 1
181 631 1
181 641 1
181 642 1
181 644 1
181 652 1
181 658 1
181 659 1
181 669 1
181 684 1
181 687 1
181 688 1
181 691 1
181 694 1
181 696 1
181 700 1
182 4 1
182 5 1
182 10 1
182 19 1
182 22 1
182 25 1
182 31 1
182 49 1
182 52 1
182 54 1
182 63 1
182 72 1
182 74 1
182 77 1
182 78 1
182 80 1
182 82 1
182 88 1
182 91 1
182 97 1
182 101 1
182 105 1
182 106 1
182 107 1
182 110 1
182 112 1
182 120 1
182 125 1
182 153 1
182 155 1
182 157 1
182 159 1
182 160 1
182 176 1
182 178 1
182 184 1
182 185 1
182 190 1
182 195 1
182 204 1
182 205 1
182 212 1
182 213 1
182 216 1
182 221 1
182 229 1
182 230 1
182 234 1
182 239 1
182 246 1
182 253 1
182 257 1
182 259 1
182 264 1
182 273 1
182 274 1
182 278 1
182 280 1
182 286 1
182 292 1
182 295 1
182 300 1
182 301 1
182 308 1
182 310 1
182 316 1
182 318 1
182 321 1
182 332 1
182 333 1
182 334 1
182 344 1
182 348 1
182 350 1
182 353 1
182 354 1
182 357 1
182 358 1
182 367 1
182 371 1
182 382 1
182 389 1
182 392 1
182 396 1
182 399 1
182 401 1
182 404 1
182 407 1
182 415 1
182 422 1
182 427 1
182 430 1
182 437 1
182 448 1
182 458 1
182 464 1
182 468 1
182 470 1
182 474 1
182 477 1
182 480 1
182 486 1
182 494 1
182 495 1
182 499 1
182 500 1
182 508 1
182 510 1
182 513 1
182 528 1
182 539 1
182 549 1
182 558 1
182 559 1
182 563 1
182 576 1
182 579 1
182 587 1
182 595 1
182 598 1
182 600 1
182 623 1
182 629 1
182 630 1
182 633 1
182 636 1
182 638 1
182 645 1
182 655 1
182 664 1
182 674 1
182 676 1
182 685 1
182 689 1
182 691 1
183 5 1
183 8 1
183 16 1
183 17 1
183 22 1
183 26 1
183 29 1
183 35 1
183 38 1
183 52 1
183 59 1
183 60 1
183 68 1
183 70 1
183 71 1
183 76 1
183 78 1
183 84 1
183 86 1
183 87 1
183 92 1
183 99 1
183 106 1
183 111 1
183 113 1
183 119 1
183 122 1
183 131 1
183 133 1
183 139 1
183 144 1
183 145 1
183 160 1
183 166 1
183 169 1
183 170 1
183 174 1
183 175 1
183 176 1
183 195 1
183 203 1
183 205 1
183 213 1
183 214 1
183 216 1
183 217 1
183 218 1
183 223 1
183 238 1
183 239 1
183 242 1
183 251 1
183 258 1
183 260 1
183 261 1
183 267 1
183 269 1
183 271 1
183 282 1
183 303 1
183 305 1
183 312 1
183 317 1
183 325 1
183 332 1
183 339 1
183 352 1
183 354 1
183 355 1
183 357 1
183 370 1
183 373 1
183 378 1
183 379 1
183 382 1
183 388 1
183 402 1
183 405 1
183 408 1
183 416 1
183 438 1
183 439 1
183 449 1
183 456 1
183 461 1
183 462 1
183 469 1
183 478 1
183 481 1
183 483 1
183 488 1
183 502 1
183 508 1
183 513 1
183 514 1
183 521 1
183 523 1
183 525 1
183 528 1
183 533 1
183 543 1
183 545 1
183 548 1
183 551 1
183 552 1
183 562 1
183 579 1
183 584 1
183 593 1
183 601 1
183 602 1
183 603 1
183 613 1
183 625 1
183 628 1
183 634 1
183 637 1
183 638 1
183 643 1
183 664 1
183 666 1
183 671 1
183 672 1
183 673 1
183 681 1
183 691 1
183 692 1
183 700 1
184 1 1
184 9 1
184 10 1
184 12 1
184 14 1
184 31 1
184 41 1
184 43 1
184 46 1
184 47 1
184 48 1
184 59 1
184 60 1
184 70 1
184 78 1
184 84 1
184 90 1
184 97 1
184 98 1
184 103 1
184 107 1
184 110 1
184 117 1
184 119 1
184 136 1
184 139 1
184 142 1
184 150 1
184 157 1
184 160 1
184 161 1
184 163 1
184 165 1
184 170 1
184 177 1
184 178 1
184 182 1
184 185 1
184 186 1
184 187 1
184 191 1
184 194 1
184 196 1
184 211 1
184 218 1
184 227 1
184 236 1
184 245 1
184 246 1
184 251 1
184 261 1
184 268 1
184 272 1
184 281 1
184 286 1
184 291 1
184 300 1
184 304 1
184 314 1
184 316 1
184 333 1
184 334 1
184 343 1
184 344 1
184 356 1
184 361 1
184 379 1
184 381 1
184 393 1
184 394 1
184 395 1
184 399 1
184 400 1
184 413 1
184 414 1
184 422 1
184 430 1
184 440 1
184 441 1
184 445 1
184 447 1
184 450 1
184 453 1
184 459 1
184 464 1
184 465 1
184 469 1
184 474 1
184 476 1
184 477 1
184 484 1
184 488 1
184 491 1
184 493 1
184 494 1
184 500 1
184 501 1
184 509 1
184 515 1
184 516 1
184 535 1
184 536 1
184 541 1
184 543 1
184 552 1
184 556 1
184 570 1
184 576 1
184 578 1
184 593 1
184 600 1
184 606 1
184 618 1
184 624 1
184 638 1
184 645 1
184 646 1
184 663 1
184 664 1
184 666 1
184 668 1
184 679 1
184 680 1
184 681 1
184 689 1
184 690 1
184 692 1
185 1 1
185 3 1
185 6 1
185 9 1
185 10 1
185 11 1
185 28 1
185 31 1
185 36 1
185 37 1
185 40 1
185 46 1
185 53 1
185 54 1
185 64 1
185 65 1
185 67 1
185 70 1
185 71 1
185 80 1
185 97 1
185 101 1
185 103 1
185 110 1
185 113 1
185 118 1
185 119 1
185 121 1
185 126 1
185 134 1
185 142 1
185 148 1
185 150 1
185 153 1
185 166 1
185 168 1
185 178 1
185 180 1
185 182 1
185 184 1
185 189 1
185 191 1
185 194 1
185 202 1
185 203 1
185 204 1
185 208 1
185 220 1
185 221 1
185 222 1
185 229 1
185 237 1
185 240 1
185 242 1
185 246 1
185 264 1
185 277 1
185 285 1
185 287 1
185 293 1
185 298 1
185 299 1
185 300 1
185 301 1
185 308 1
185 312 1
185 318 1
185 325 1
185 328 1
185 343 1
185 348 1
185 350 1
185 351 1
185 354 1
185 359 1
185 371 1
185 375 1
185 385 1
185 388 1
185 393 1
185 403 1
185 405 1
185 406 1
185 411 1
185 414 1
185 416 1
185 420 1
185 421 1
185 429 1
185 433 1
185 436 1
185 439 1
185 448 1
185 451 1
185 460 1
185 464 1
185 468 1
185 481 1
185 483 1
185 491 1
185 492 1
185 494 1
185 496 1
185 501 1
185 508 1
185 510 1
185 515 1
185 517 1
185 542 1
185 548 1
185 550 1
185 554 1
185 595 1
185 596 1
185 606 1
185 607 1
185 610 1
185 613 1
185 617 1
185 620 1
185 627 1
185 628 1
185 637 1
185 641 1
185 648 1
185 650 1
185 651 1
185 659 1
185 665 1
185 670 1
185 678 1
185 686 1
185 688 1
185 696 1
185 700 1
186 1 1
186 7 1
186 12 1
186 22 1
186 25 1
186 35 1
186 39 1
186 41 1
186 44 1
186 47 1
186 49 1
186 63 1
186 64 1
186 74 1
186 78 1
186 83 1
186 84 1
186 104 1
186 108 1
186 112 1
186 114 1
186 119 1
186 124 1
186 125 1
186 126 1
186 129 1
186 130 1
186 132 1
186 141 1
186 143 1
186 148 1
186 149 1
186 153 1
186 162 1
186 163 1
186 167 1
186 171 1
186 174 1
186 184 1
186 188 1
186 195 1
186 198 1
186 202 1
186 212 1
186 214 1
186 216 1
186 218 1
186 225 1
186 233 1
186 237 1
186 245 1
186 248 1
186 258 1
186 277 1
186 280 1
186 300 1
186 306 1
186 310 1
186 320 1
186 323 1
186 324 1
186 325 1
186 332 1
186 345 1
186 354 1
186 363 1
186 367 1
186 371 1
186 379 1
186 383 1
186 384 1
186 391 1
186 395 1
186 399 1
186 416 1
186 418 1
186 422 1
186 428 1
186 433 1
186 436 1
186 438 1
186 441 1
186 443 1
186 449 1
186 454 1
186 457 1
186 460 1
186 462 1
186 466 1
186 472 1
186 473 1
186 483 1
186 485 1
186 493 1
186 500 1
186 501 1
186 511 1
186 513 1
186 518 1
186 521 1
186 523 1
186 528 1
186 541 1
186 543 1
186 545 1
186 550 1
186 552 1
186 554 1
186 556 1
186 561 1
186 568 1
186 571 1
186 579 1
186 583 1
186 588 1
186 610 1
186 617 1
186 619 1
186 629 1
186 638 1
186 648 1
186 655 1
186 658 1
186 674 1
186 677 1
186 680 1
186 686 1
186 692 1
186 695 1
187 1 1
187 3 1
187 7 1
187 11 1
187 16 1
187 17 1
187 18 1
187 25 1
187 29 1
187 30 1
187 36 1
187 43 1
187 47 1
187 52 1
187 66 1
187 73 1
187 76 1
187 77 1
187 83 1
187 88 1
187 90 1
187 91 1
187 92 1
187 95 1
187 96 1
187 97 1
187 98 1
187 104 1
187 105 1
187 109 1
187 113 1
187 114 1
187 117 1
187 119 1
187 129 1
187 133 1
187 134 1
187 136 1
187 140 1
187 143 1
187 147 1
187 155 1
187 160 1
187 164 1
187 171 1
187 178 1
187 184 1
187 191 1
187 221 1
187 223 1
187 224 1
187 227 1
187 246 1
187 247 1
187 249 1
187 253 1
187 261 1
187 266 1
187 267 1
187 268 1
187 269 1
187 272 1
187 276 1
187 283 1
187 286 1
187 288 1
187 295 1
187 311 1
187 314 1
187 321 1
187 334 1
187 342 1
187 344 1
187 355 1
187 356 1
187 358 1
187 368 1
187 375 1
187 379 1
187 382 1
187 386 1
187 388 1
187 391 1
187 392 1
187 401 1
187 403 1
187 409 1
187 410 1
187 417 1
187 430 1
187 441 1
187 442 1
187 447 1
187 448 1
187 450 1
187 451 1
187 454 1
187 467 1
187 479 1
187 501 1
187 502 1
187 510 1
187 519 1
187 523 1
187 527 1
187 540 1
187 542 1
187 545 1
187 553 1
187 556 1
187 578 1
187 580 1
187 584 1
187 596 1
187 601 1
187 606 1
187 613 1
187 617 1
187 626 1
187 629 1
187 637 1
187 638 1
187 639 1
187 644 1
187 645 1
187 651 1
187 656 1
187 658 1
187 661 1
187 662 1
187 669 1
187 673 1
187 675 1
187 682 1
187 685 1
187 686 1
187 688 1
187 697 1
187 698 1
187 700 1
188 5 1
188 17 1
188 18 1
188 22 1
188 23 1
188 35 1
188 46 1
188 73 1
188 78 1
188 80 1
188 94 1
188 105 1
188 106 1
188 112 1
188 113 1
188 118 1
188 120 1
188 121 1
188 124 1
188 134 1
188 141 1
188 144 1
188 151 1
188 152 1
188 157 1
188 158 1
188 163 1
188 165 1
188 169 1
188 170 1
188 176 1
188 180 1
188 186 1
188 214 1
188 215 1
188 240 1
188 253 1
188 259 1
188 260 1
188 264 1
188 273 1
188 275 1
188 278 1
188 279 1
188 284 1
188 288 1
188 290 1
188 297 1
188 301 1
188 303 1
188 307 1
188 309 1
188 314 1
188 321 1
188 322 1
188 344 1
188 347 1
188 348 1
188 349 1
188 361 1
188 372 1
188 380 1
188 394 1
188 403 1
188 405 1
188 421 1
188 422 1
188 424 1
188 426 1
188 428 1
188 433 1
188 434 1
188 439 1
188 451 1
188 454 1
188 460 1
188 462 1
188 463 1
188 469 1
188 471 1
188 472 1
188 474 1
188 476 1
188 482 1
188 485 1
188 491 1
188 492 1
188 493 1
188 500 1
188 510 1
188 515 1
188 519 1
188 522 1
188 525 1
188 526 1
188 534 1
188 538 1
188 546 1
188 548 1
188 549 1
188 554 1
188 574 1
188 575 1
188 578 1
188 585 1
188 586 1
188 594 1
188 595 1
188 604 1
188 605 1
188 606 1
188 609 1
188 626 1
188 633 1
188 635 1
188 639 1
188 640 1
188 651 1
188 657 1
188 658 1
188 662 1
188 664 1
188 665 1
188 668 1
188 675 1
188 682 1
188 683 1
188 699 1
189 1 1
189 3 1
189 6 1
189 12 1
189 13 1
189 17 1
189 30 1
189 40 1
189 56 1
189 59 1
189 71 1
189 75 1
189 76 1
189 85 1
189 91 1
189 99 1
189 100 1
189 101 1
189 103 1
189 110 1
189 115 1
189 118 1
189 125 1
189 130 1
189 132 1
189 137 1
189 147 1
189 161 1
189 164 1
189 172 1
189 175 1
189 177 1
189 179 1
189 180 1
189 181 1
189 185 1
189 190 1
189 195 1
189 199 1
189 207 1
189 210 1
189 211 1
189 216 1
189 234 1
189 244 1
189 249 1
189 250 1
189 251 1
189 254 1
189 258 1
189 260 1
189 270 1
189 281 1
189 290 1
189 296 1
189 300 1
189 305 1
189 308 1
189 312 1
189 318 1
189 331 1
189 335 1
189 342 1
189 346 1
189 353 1
189 355 1
189 361 1
189 363 1
189 364 1
189 368 1
189 380 1
189 393 1
189 398 1
189 400 1
189 413 1
189 417 1
189 419 1
189 426 1
189 431 1
189 434 1
189 440 1
189 448 1
189 453 1
189 457 1
189 464 1
189 469 1
189 470 1
189 473 1
189 474 1
189 476 1
189 483 1
189 486 1
189 493 1
189 500 1
189 504 1
189 508 1
189 512 1
189 523 1
189 526 1
189 532 1
189 538 1
189 540 1
189 543 1
189 546 1
189 550 1
189 552 1
189 568 1
189 572 1
189 579 1
189 582 1
189 583 1
189 584 1
189 593 1
189 594 1
189 604 1
189 605 1
189 633 1
189 637 1
189 642 1
189 656 1
189 660 1
189 665 1
189 672 1
189 683 1
189 689 1
189 698 1
189 699 1
189 700 1
190 1 1
190 8 1
190 16 1
190 17 1
190 20 1
190 23 1
190 26 1
190 29 1
190 39 1
190 56 1
190 61 1
190 67 1
190 70 1
190 89 1
190 110 1
190 118 1
190 131 1
190 133 1
190 134 1
190 135 1
190 136 1
190 138 1
190 144 1
190 155 1
190 160 1
190 166 1
190 178 1
190 179 1
190 182 1
190 189 1
190 191 1
190 195 1
190 201 1
190 203 1
190 208 1
190 217 1
190 218 1
190 222 1
190 234 1
190 235 1
190 241 1
190 242 1
190 249 1
190 250 1
190 251 1
190 254 1
190 259 1
190 261 1
190 264 1
190 291 1
190 302 1
190 312 1
190 319 1
190 321 1
190 326 1
190 328 1
190 333 1
190 342 1
190 343 1
190 347 1
190 358 1
190 359 1
190 363 1
190 364 1
190 373 1
190 375 1
190 376 1
190 392 1
190 393 1
190 397 1
190 398 1
190 425 1
190 438 1
190 453 1
190 458 1
190 469 1
190 470 1
190 485 1
190 488 1
190 495 1
190 496 1
190 498 1
190 511 1
190 513 1
190 516 1
190 518 1
190 523 1
190 526 1
190 527 1
190 537 1
190 540 1
190 544 1
190 550 1
190 551 1
190 552 1
190 555 1
190 556 1
190 565 1
190 576 1
190 586 1
190 587 1
190 596 1
190 601 1
190 604 1
190 614 1
190 616 1
190 619 1
190 628 1
190 636 1
190 637 1
190 639 1
190 642 1
190 661 1
190 662 1
190 674 1
190 681 1
190 682 1
190 688 1
190 693 1
190 698 1
190 699 1
191 15 1
191 17 1
191 23 1
191 24 1
191 28 1
191 32 1
191 35 1
191 41 1
191 42 1
191 43 1
191 44 1
191 47 1
191 49 1
191 54 1
191 59 1
191 67 1
191 75 1
191 79 1
191 80 1
191 93 1
191 95 1
191 103 1
191 106 1
191 108 1
191 109 1
191 115 1
191 121 1
191 122 1
191 125 1
191 127 1
191 128 1
191 130 1
191 134 1
191 136 1
191 140 1
191 143 1
191 146 1
191 153 1
191 170 1
191 173 1
191 176 1
191 184 1
191 185 1
191 187 1
191 190 1
191 192 1
191 201 1
191 204 1
191 218 1
191 221 1
191 227 1
191 229 1
191 234 1
191 235 1
191 237 1
191 239 1
191 249 1
191 259 1
191 261 1
191 266 1
191 269 1
191 273 1
191 275 1
191 280 1
191 281 1
191 285 1
191 287 1
191 288 1
191 291 1
191 294 1
191 295 1
191 296 1
191 298 1
191 301 1
191 302 1
191 303 1
191 335 1
191 348 1
191 354 1
191 366 1
191 385 1
191 395 1
191 396 1
191 400 1
191 402 1
191 406 1
191 413 1
191 418 1
191 422 1
191 424 1
191 425 1
191 432 1
191 438 1
191 439 1
191 443 1
191 445 1
191 450 1
191 458 1
191 461 1
191 469 1
191 472 1
191 474 1
191 476 1
191 479 1
191 481 1
191 485 1
191 491 1
191 493 1
191 497 1
191 505 1
191 506 1
191 510 1
191 512 1
191 516 1
191 517 1
191 518 1
191 523 1
191 533 1
191 536 1
191 538 1
191 543 1
191 544 1
191 552 1
191 555 1
191 559 1
191 561 1
191 562 1
191 565 1
191 573 1
191 575 1
191 576 1
191 583 1
191 584 1
191 588 1
191 589 1
191 594 1
191 603 1
191 605 1
191 606 1
191 610 1
191 614 1
191 616 1
191 635 1
191 639 1
191 641 1
191 643 1
191 644 1
191 645 1
191 646 1
191 661 1
191 664 1
191 669 1
191 686 1
191 688 1
191 692 1
192 4 1
192 9 1
192 20 1
192 22 1
192 29 1
192 33 1
192 48 1
192 50 1
192 51 1
192 58 1
192 62 1
192 66 1
192 67 1
192 69 1
192 73 1
192 86 1
192 90 1
192 99 1
192 116 1
192 119 1
192 121 1
192 123 1
192 140 1
192 145 1
192 146 1
192 150 1
192 154 1
192 158 1
192 162 1
192 191 1
192 193 1
192 195 1
192 198 1
192 203 1
192 205 1
192 206 1
192 209 1
192 211 1
192 215 1
192 228 1
192 231 1
192 242 1
192 249 1
192 251 1
192 254 1
192 256 1
192 262 1
192 276 1
192 277 1
192 292 1
192 298 1
192 304 1
192 309 1
192 311 1
192 315 1
192 344 1
192 345 1
192 348 1
192 363 1
192 373 1
192 378 1
192 386 1
192 392 1
192 394 1
192 397 1
192 403 1
192 412 1
192 416 1
192 424 1
192 426 1
192 428 1
192 430 1
192 432 1
192 435 1
192 449 1
192 461 1
192 464 1
192 465 1
192 467 1
192 473 1
192 476 1
192 477 1
192 480 1
192 490 1
192 491 1
192 494 1
192 496 1
192 497 1
192 499 1
192 509 1
192 514 1
192 517 1
192 522 1
192 533 1
192 535 1
192 541 1
192 545 1
192 550 1
192 552 1
192 563 1
192 566 1
192 576 1
192 578 1
192 587 1
192 593 1
192 603 1
192 610 1
192 611 1
192 621 1
192 624 1
192 628 1
192 633 1
192 635 1
192 637 1
192 646 1
192 650 1
192 653 1
192 659 1
192 662 1
192 665 1
192 666 1
192 668 1
192 669 1
192 673 1
192 675 1
192 690 1
192 693 1
192 695 1
192 697 1
192 698 1
193 1 1
193 6 1
193 8 1
193 9 1
193 11 1
193 17 1
193 25 1
193 37 1
193 38 1
193 44 1
193 45 1
193 47 1
193 53 1
193 55 1
193 64 1
193 66 1
193 68 1
193 72 1
193 73 1
193 85 1
193 90 1
193 106 1
193 113 1
193 119 1
193 121 1
193 122 1
193 123 1
193 131 1
193 135 1
193 144 1
193 166 1
193 170 1
193 175 1
193 176 1
193 192 1
193 194 1
193 196 1
193 202 1
193 208 1
193 212 1
193 213 1
193 214 1
193 215 1
193 219 1
193 228 1
193 231 1
193 235 1
193 236 1
193 255 1
193 263 1
193 265 1
193 270 1
193 272 1
193 273 1
193 277 1
193 278 1
193 279 1
193 281 1
193 283 1
193 286 1
193 291 1
193 292 1
193 299 1
193 301 1
193 305 1
193 316 1
193 317 1
193 326 1
193 333 1
193 339 1
193 343 1
193 347 1
193 348 1
193 353 1
193 356 1
193 361 1
193 368 1
193 376 1
193 378 1
193 385 1
193 388 1
193 397 1
193 410 1
193 413 1
193 421 1
193 424 1
193 430 1
193 436 1
193 437 1
193 441 1
193 444 1
193 447 1
193 450 1
193 452 1
193 461 1
193 470 1
193 471 1
193 475 1
193 485 1
193 488 1
193 490 1
193 500 1
193 501 1
193 502 1
193 506 1
193 507 1
193 521 1
193 529 1
193 531 1
193 533 1
193 535 1
193 536 1
193 541 1
193 543 1
193 546 1
193 550 1
193 551 1
193 578 1
193 588 1
193 590 1
193 594 1
193 595 1
193 603 1
193 617 1
193 622 1
193 623 1
193 628 1
193 630 1
193 635 1
193 642 1
193 647 1
193 659 1
193 674 1
193 681 1
193 687 1
193 689 1
193 693 1
193 696 1
193 700 1
194 7 1
194 12 1
194 14 1
194 21 1
194 25 1
194 27 1
194 55 1
194 65 1
194 71 1
194 72 1
194 75 1
194 77 1
194 82 1
194 88 1
194 93 1
194 96 1
194 100 1
194 105 1
194 107 1
194 122 1
194 123 1
194 126 1
194 139 1
194 143 1
194 150 1
194 159 1
194 160 1
194 167 1
194 168 1
194 169 1
194 179 1
194 184 1
194 185 1
194 193 1
194 200 1
194 218 1
194 225 1
194 227 1
194 228 1
194 229 1
194 230 1
194 233 1
194 242 1
194 243 1
194 255 1
194 256 1
194 257 1
194 261 1
194 264 1
194 266 1
194 271 1
194 273 1
194 283 1
194 285 1
194 287 1
194 288 1
194 289 1
194 292 1
194 293 1
194 300 1
194 305 1
194 306 1
194 311 1
194 315 1
194 325 1
194 345 1
194 349 1
194 360 1
194 365 1
194 368 1
194 372 1
194 381 1
194 388 1
194 389 1
194 396 1
194 403 1
194 423 1
194 429 1
194 431 1
194 433 1
194 439 1
194 440 1
194 441 1
194 442 1
194 445 1
194 446 1
194 454 1
194 458 1
194 459 1
194 465 1
194 475 1
194 477 1
194 478 1
194 482 1
194 485 1
194 490 1
194 491 1
194 497 1
194 501 1
194 514 1
194 519 1
194 522 1
194 528 1
194 532 1
194 546 1
194 548 1
194 551 1
194 553 1
194 559 1
194 561 1
194 563 1
194 564 1
194 567 1
194 572 1
194 577 1
194 585 1
194 608 1
194 609 1
194 611 1
194 620 1
194 631 1
194 633 1
194 636 1
194 641 1
194 644 1
194 653 1
194 657 1
194 667 1
194 680 1
194 685 1
194 688 1
195 4 1
195 9 1
195 12 1
195 25 1
195 29 1
195 31 1
195 32 1
195 34 1
195 35 1
195 36 1
195 44 1
195 70 1
195 72 1
195 77 1
195 85 1
195 86 1
195 100 1
195 104 1
195 106 1
195 107 1
195 108 1
195 119 1
195 126 1
195 132 1
195 134 1
195 139 1
195 141 1
195 143 1
195 147 1
195 153 1
195 158 1
195 160 1
195 167 1
195 169 1
195 170 1
195 173 1
195 176 1
195 178 1
195 182 1
195 183 1
195 186 1
195 189 1
195 190 1
195 192 1
195 196 1
195 203 1
195 206 1
195 209 1
195 217 1
195 220 1
195 231 1
195 233 1
195 248 1
195 252 1
195 254 1
195 256 1
195 258 1
195 264 1
195 268 1
195 270 1
195 272 1
195 280 1
195 289 1
195 290 1
195 291 1
195 298 1
195 312 1
195 314 1
195 326 1
195 335 1
195 353 1
195 355 1
195 356 1
195 357 1
195 361 1
195 362 1
195 363 1
195 365 1
195 366 1
195 371 1
195 395 1
195 407 1
195 411 1
195 416 1
195 417 1
195 420 1
195 424 1
195 429 1
195 434 1
195 438 1
195 440 1
195 442 1
195 447 1
195 448 1
195 458 1
195 462 1
195 479 1
195 483 1
195 485 1
195 486 1
195 488 1
195 494 1
195 496 1
195 498 1
195 500 1
195 502 1
195 503 1
195 512 1
195 516 1
195 522 1
195 527 1
195 529 1
195 533 1
195 536 1
195 537 1
195 543 1
195 548 1
195 557 1
195 560 1
195 562 1
195 582 1
195 586 1
195 590 1
195 594 1
195 595 1
195 598 1
195 612 1
195 613 1
195 621 1
195 626 1
195 627 1
195 628 1
195 645 1
195 647 1
195 659 1
195 668 1
195 671 1
195 672 1
195 675 1
195 678 1
195 681 1
195 693 1
195 694 1
196 3 1
196 5 1
196 7 1
196 9 1
196 11 1
196 19 1
196 20 1
196 21 1
196 24 1
196 25 1
196 40 1
196 48 1
196 61 1
196 63 1
196 76 1
196 78 1
196 80 1
196 95 1
196 96 1
196 116 1
196 122 1
196 127 1
196 131 1
196 134 1
196 144 1
196 154 1
196 155 1
196 159 1
196 162 1
196 165 1
196 167 1
196 170 1
196 172 1
196 173 1
196 175 1
196 176 1
196 184 1
196 193 1
196 195 1
196 211 1
196 214 1
196 215 1
196 222 1
196 233 1
196 238 1
196 241 1
196 244 1
196 248 1
196 254 1
196 258 1
196 261 1
196 272 1
196 279 1
196 280 1
196 281 1
196 286 1
196 291 1
196 294 1
196 302 1
196 316 1
196 319 1
196 328 1
196 335 1
196 339 1
196 343 1
196 345 1
196 346 1
196 349 1
196 351 1
196 359 1
196 361 1
196 362 1
196 363 1
196 368 1
196 379 1
196 380 1
196 386 1
196 387 1
196 390 1
196 392 1
196 394 1
196 398 1
196 403 1
196 406 1
196 412 1
196 417 1
196 418 1
196 424 1
196 425 1
196 426 1
196 443 1
196 447 1
196 449 1
196 457 1
196 460 1
196 475 1
196 477 1
196 479 1
196 480 1
196 482 1
196 485 1
196 490 1
196 492 1
196 494 1
196 496 1
196 509 1
196 510 1
196 513 1
196 518 1
196 519 1
196 539 1
196 543 1
196 547 1
196 548 1
196 550 1
196 554 1
196 555 1
196 557 1
196 566 1
196 568 1
196 571 1
196 585 1
196 600 1
196 605 1
196 614 1
196 625 1
196 634 1
196 636 1
196 639 1
196 642 1
196 648 1
196 651 1
196 652 1
196 664 1
196 669 1
196 674 1
196 676 1
196 688 1
196 689 1
196 698 1
196 699 1
197 9 1
197 10 1
197 13 1
197 14 1
197 19 1
197 22 1
197 28 1
197 31 1
197 32 1
197 36 1
197 37 1
197 47 1
197 71 1
197 72 1
197 74 1
197 76 1
197 79 1
197 83 1
197 85 1
197 88 1
197 94 1
197 97 1
197 98 1
197 102 1
197 110 1
197 115 1
197 120 1
197 132 1
197 133 1
197 135 1
197 137 1
197 141 1
197 146 1
197 147 1
197 149 1
197 163 1
197 167 1
197 172 1
197 200 1
197 207 1
197 212 1
197 213 1
197 222 1
197 227 1
197 239 1
197 240 1
197 243 1
197 258 1
197 266 1
197 270 1
197 278 1
197 284 1
197 289 1
197 302 1
197 305 1
197 316 1
197 319 1
197 321 1
197 326 1
197 330 1
197 334 1
197 345 1
197 347 1
197 350 1
197 351 1
197 355 1
197 358 1
197 361 1
197 368 1
197 369 1
197 370 1
197 382 1
197 383 1
197 394 1
197 401 1
197 411 1
197 429 1
197 430 1
197 433 1
197 434 1
197 438 1
197 439 1
197 441 1
197 442 1
197 446 1
197 452 1
197 460 1
197 465 1
197 469 1
197 475 1
197 480 1
197 482 1
197 493 1
197 506 1
197 512 1
197 514 1
197 518 1
197 540 1
197 544 1
197 556 1
197 560 1
197 564 1
197 565 1
197 571 1
197 572 1
197 574 1
197 584 1
197 586 1
197 592 1
197 593 1
197 598 1
197 601 1
197 605 1
197 607 1
197 617 1
197 619 1
197 621 1
197 624 1
197 628 1
197 630 1
197 636 1
197 647 1
197 653 1
197 654 1
197 657 1
197 658 1
197 659 1
197 669 1
197 674 1
197 679 1
197 680 1
197 683 1
197 686 1
198 12 1
198 14 1
198 23 1
198 25 1
198 28 1
198 29 1
198 34 1
198 37 1
198 49 1
198 55 1
198 60 1
198 62 1
198 65 1
198 68 1
198 73 1
198 74 1
198 76 1
198 88 1
198 89 1
198 93 1
198 121 1
198 126 1
198 127 1
198 129 1
198 136 1
198 137 1
198 144 1
198 166 1
198 171 1
198 177 1
198 178 1
198 180 1
198 186 1
198 192 1
198 200 1
198 203 1
198 207 1
198 215 1
198 220 1
198 222 1
198 224 1
198 231 1
198 235 1
198 236 1
198 241 1
198 243 1
198 255 1
198 261 1
198 266 1
198 267 1
198 268 1
198 271 1
198 274 1
198 284 1
198 290 1
198 295 1
198 298 1
198 308 1
198 310 1
198 313 1
198 326 1
198 330 1
198 339 1
198 341 1
198 347 1
198 358 1
198 367 1
198 372 1
198 374 1
198 376 1
198 384 1
198 398 1
198 403 1
198 417 1
198 425 1
198 427 1
198 430 1
198 436 1
198 444 1
198 462 1
198 465 1
198 471 1
198 478 1
198 479 1
198 493 1
198 498 1
198 502 1
198 510 1
198 515 1
198 520 1
198 522 1
198 523 1
198 529 1
198 532 1
198 539 1
198 553 1
198 554 1
198 559 1
198 560 1
198 565 1
198 582 1
198 584 1
198 589 1
198 590 1
198 596 1
198 603 1
198 604 1
198 605 1
198 609 1
198 611 1
198 617 1
198 621 1
198 626 1
198 632 1
198 638 1
198 639 1
198 648 1
198 651 1
198 652 1
198 657 1
198 661 1
198 675 1
198 677 1
198 679 1
198 685 1
199 3 1
199 4 1
199 9 1
199 12 1
199 25 1
199 26 1
199 27 1
199 30 1
199 31 1
199 35 1
199 40 1
199 43 1
199 47 1
199 51 1
199 54 1
199 63 1
199 73 1
199 75 1
199 78 1
199 81 1
199 83 1
199 91 1
199 99 1
199 103 1
199 113 1
199 114 1
199 119 1
199 124 1
199 127 1
199 133 1
199 134 1
199 139 1
199 164 1
199 165 1
199 166 1
199 167 1
199 172 1
199 176 1
199 181 1
199 189 1
199 200 1
199 202 1
199 204 1
199 206 1
199 212 1
199 214 1
199 225 1
199 231 1
199 233 1
199 239 1
199 242 1
199 244 1
199 247 1
199 248 1
199 249 1
199 253 1
199 261 1
199 266 1
199 268 1
199 295 1
199 296 1
199 297 1
199 308 1
199 312 1
199 327 1
199 329 1
199 333 1
199 334 1
199 343 1
199 344 1
199 346 1
199 351 1
199 366 1
199 369 1
199 376 1
199 393 1
199 396 1
199 405 1
199 415 1
199 424 1
199 425 1
199 426 1
199 439 1
199 441 1
199 449 1
199 452 1
199 454 1
199 460 1
199 463 1
199 466 1
199 471 1
199 473 1
199 478 1
199 480 1
199 490 1
199 498 1
199 499 1
199 500 1
199 504 1
199 505 1
199 506 1
199 522 1
199 523 1
199 531 1
199 537 1
199 539 1
199 543 1
199 555 1
199 559 1
199 564 1
199 570 1
199 573 1
199 583 1
199 589 1
199 590 1
199 594 1
199 606 1
199 607 1
199 609 1
199 610 1
199 624 1
199 628 1
199 631 1
199 633 1
199 639 1
199 648 1
199 649 1
199 656 1
199 665 1
199 667 1
199 675 1
199 678 1
199 679 1
199 688 1
199 693 1
199 697 1
200 2 1
200 9 1
200 17 1
200 31 1
200 35 1
200 47 1
200 53 1
200 60 1
200 63 1
200 64 1
200 66 1
200 72 1
200 74 1
200 76 1
200 77 1
200 78 1
200 88 1
200 89 1
200 92 1
200 98 1
200 99 1
200 106 1
200 112 1
200 113 1
200 117 1
200 124 1
200 133 1
200 138 1
200 144 1
200 145 1
200 147 1
200 152 1
200 165 1
200 167 1
200 168 1
200 172 1
200 175 1
200 176 1
200 177 1
200 178 1
200 180 1
200 194 1
200 197 1
200 198 1
200 199 1
200 230 1
200 231 1
200 236 1
200 241 1
200 245 1
200 246 1
200 254 1
200 258 1
200 262 1
200 275 1
200 276 1
200 288 1
200 289 1
200 295 1
200 297 1
200 298 1
200 301 1
200 305 1
200 307 1
200 315 1
200 316 1
200 317 1
200 323 1
200 328 1
200 329 1
200 334 1
200 343 1
200 344 1
200 346 1
200 356 1
200 358 1
200 371 1
200 373 1
200 391 1
200 393 1
200 399 1
200 412 1
200 415 1
200 421 1
200 423 1
200 427 1
200 429 1
200 433 1
200 435 1
200 440 1
200 444 1
200 446 1
200 449 1
200 458 1
200 459 1
200 465 1
200 467 1
200 470 1
200 473 1
200 478 1
200 480 1
200 485 1
200 491 1
200 498 1
200 505 1
200 508 1
200 515 1
200 534 1
200 541 1
200 543 1
200 549 1
200 553 1
200 555 1
200 557 1
200 562 1
200 563 1
200 572 1
200 580 1
200 585 1
200 588 1
200 606 1
200 608 1
200 612 1
200 627 1
200 635 1
200 643 1
200 646 1
200 654 1
200 659 1
200 663 1
200 664 1
200 667 1
200 676 1
200 691 1
200 693 1
200 694 1
201 14 1
201 19 1
201 31 1
201 33 1
201 48 1
201 54 1
201 55 1
201 61 1
201 71 1
201 73 1
201 91 1
201 93 1
201 102 1
201 108 1
201 121 1
201 135 1
201 146 1
201 148 1
201 152 1
201 153 1
201 155 1
201 157 1
201 160 1
201 161 1
201 173 1
201 190 1
201 191 1
201 202 1
201 204 1
201 207 1
201 211 1
201 215 1
201 216 1
201 221 1
201 225 1
201 229 1
201 233 1
201 234 1
201 251 1
201 252 1
201 254 1
201 261 1
201 271 1
201 277 1
201 287 1
201 290 1
201 292 1
201 294 1
201 296 1
201 299 1
201 300 1
201 321 1
201 325 1
201 328 1
201 329 1
201 331 1
201 339 1
201 340 1
201 341 1
201 348 1
201 349 1
201 352 1
201 355 1
201 357 1
201 362 1
201 371 1
201 372 1
201 376 1
201 377 1
201 381 1
201 382 1
201 383 1
201 391 1
201 398 1
201 402 1
201 404 1
201 406 1
201 410 1
201 427 1
201 430 1
201 431 1
201 432 1
201 434 1
201 446 1
201 453 1
201 458 1
201 467 1
201 473 1
201 483 1
201 485 1
201 489 1
201 491 1
201 494 1
201 502 1
201 512 1
201 519 1
201 522 1
201 527 1
201 532 1
201 536 1
201 539 1
201 551 1
201 552 1
201 553 1
201 557 1
201 559 1
201 569 1
201 577 1
201 578 1
201 580 1
201 588 1
201 601 1
201 605 1
201 606 1
201 608 1
201 626 1
201 630 1
201 634 1
201 637 1
201 646 1
201 660 1
201 667 1
201 668 1
201 672 1
201 676 1
201 678 1
201 681 1
201 685 1
201 697 1
201 699 1
201 700 1
202 5 1
202 7 1
202 11 1
202 12 1
202 15 1
202 24 1
202 31 1
202 34 1
202 43 1
202 52 1
202 53 1
202 55 1
202 60 1
202 66 1
202 69 1
202 70 1
202 71 1
202 85 1
202 86 1
202 88 1
202 109 1
202 124 1
202 146 1
202 150 1
202 151 1
202 152 1
202 154 1
202 161 1
202 185 1
202 186 1
202 193 1
202 199 1
202 201 1
202 210 1
202 216 1
202 219 1
202 227 1
202 228 1
202 229 1
202 235 1
202 240 1
202 246 1
202 248 1
202 256 1
202 257 1
202 267 1
202 278 1
202 281 1
202 291 1
202 293 1
202 297 1
202 303 1
202 310 1
202 316 1
202 321 1
202 334 1
202 341 1
202 348 1
202 353 1
202 355 1
202 357 1
202 363 1
202 380 1
202 381 1
202 387 1
202 391 1
202 393 1
202 396 1
202 402 1
202 410 1
202 420 1
202 421 1
202 424 1
202 430 1
202 448 1
202 449 1
202 450 1
202 451 1
202 455 1
202 457 1
202 463 1
202 464 1
202 471 1
202 472 1
202 475 1
202 478 1
202 484 1
202 487 1
202 488 1
202 495 1
202 509 1
202 513 1
202 515 1
202 521 1
202 524 1
202 530 1
202 539 1
202 542 1
202 544 1
202 547 1
202 549 1
202 551 1
202 557 1
202 563 1
202 565 1
202 568 1
202 570 1
202 588 1
202 591 1
202 597 1
202 599 1
202 607 1
202 611 1
202 614 1
202 625 1
202 626 1
202 629 1
202 642 1
202 643 1
202 644 1
202 648 1
202 652 1
202 654 1
202 656 1
202 657 1
202 658 1
202 663 1
202 664 1
202 669 1
202 680 1
202 686 1
202 699 1
203 1 1
203 2 1
203 9 1
203 10 1
203 23 1
203 33 1
203 36 1
203 38 1
203 39 1
203 42 1
203 45 1
203 46 1
203 50 1
203 53 1
203 66 1
203 67 1
203 72 1
203 78 1
203 79 1
203 81 1
203 82 1
203 88 1
203 90 1
203 93 1
203 97 1
203 101 1
203 128 1
203 141 1
203 143 1
203 147 1
203 171 1
203 176 1
203 179 1
203 183 1
203 185 1
203 190 1
203 192 1
203 195 1
203 198 1
203 211 1
203 213 1
203 216 1
203 217 1
203 218 1
203 221 1
203 223 1
203 231 1
203 238 1
203 239 1
203 241 1
203 247 1
203 254 1
203 255 1
203 259 1
203 260 1
203 271 1
203 273 1
203 275 1
203 276 1
203 286 1
203 288 1
203 289 1
203 291 1
203 297 1
203 304 1
203 307 1
203 309 1
203 313 1
203 314 1
203 318 1
203 319 1
203 322 1
203 324 1
203 328 1
203 329 1
203 341 1
203 356 1
203 358 1
203 360 1
203 366 1
203 373 1
203 375 1
203 382 1
203 392 1
203 395 1
203 398 1
203 399 1
203 405 1
203 408 1
203 411 1
203 417 1
203 425 1
203 426 1
203 432 1
203 433 1
203 439 1
203 451 1
203 460 1
203 465 1
203 474 1
203 478 1
203 484 1
203 486 1
203 487 1
203 506 1
203 513 1
203 514 1
203 516 1
203 525 1
203 527 1
203 529 1
203 531 1
203 545 1
203 556 1
203 564 1
203 576 1
203 577 1
203 587 1
203 596 1
203 597 1
203 602 1
203 605 1
203 607 1
203 608 1
203 616 1
203 619 1
203 620 1
203 622 1
203 623 1
203 624 1
203 626 1
203 639 1
203 646 1
203 648 1
203 649 1
203 655 1
203 666 1
203 679 1
203 689 1
203 691 1
204 7 1
204 11 1
204 16 1
204 24 1
204 35 1
204 37 1
204 42 1
204 48 1
204 52 1
204 55 1
204 57 1
204 62 1
204 69 1
204 71 1
204 78 1
204 85 1
204 86 1
204 87 1
204 93 1
204 96 1
204 108 1
204 110 1
204 112 1
204 116 1
204 117 1
204 118 1
204 123 1
204 136 1
204 138 1
204 140 1
204 142 1
204 152 1
204 155 1
204 160 1
204 162 1
204 169 1
204 175 1
204 178 1
204 182 1
204 185 1
204 191 1
204 199 1
204 201 1
204 215 1
204 218 1
204 220 1
204 227 1
204 231 1
204 241 1
204 244 1
204 250 1
204 252 1
204 254 1
204 257 1
204 266 1
204 268 1
204 269 1
204 275 1
204 278 1
204 284 1
204 294 1
204 298 1
204 301 1
204 308 1
204 311 1
204 313 1
204 318 1
204 323 1
204 326 1
204 334 1
204 335 1
204 342 1
204 350 1
204 354 1
204 357 1
204 361 1
204 364 1
204 365 1
204 367 1
204 372 1
204 375 1
204 380 1
204 391 1
204 392 1
204 396 1
204 404 1
204 408 1
204 417 1
204 421 1
204 429 1
204 432 1
204 433 1
204 435 1
204 439 1
204 447 1
204 461 1
204 466 1
204 468 1
204 470 1
204 471 1
204 501 1
204 516 1
204 524 1
204 529 1
204 530 1
204 534 1
204 535 1
204 538 1
204 540 1
204 542 1
204 545 1
204 552 1
204 555 1
204 562 1
204 565 1
204 566 1
204 570 1
204 582 1
204 584 1
204 585 1
204 593 1
204 596 1
204 599 1
204 614 1
204 624 1
204 625 1
204 626 1
204 627 1
204 628 1
204 644 1
204 646 1
204 652 1
204 657 1
204 665 1
204 667 1
204 672 1
204 676 1
204 678 1
204 695 1
204 696 1
204 697 1
204 699 1
205 6 1
205 12 1
205 26 1
205 40 1
205 45 1
205 46 1
205 48 1
205 49 1
205 59 1
205 60 1
205 61 1
205 82 1
205 85 1
205 89 1
205 90 1
205 92 1
205 100 1
205 101 1
205 103 1
205 111 1
205 123 1
205 124 1
205 126 1
205 130 1
205 134 1
205 136 1
205 140 1
205 141 1
205 144 1
205 147 1
205 151 1
205 152 1
205 163 1
205 164 1
205 166 1
205 167 1
205 176 1
205 177 1
205 179 1
205 180 1
205 181 1
205 182 1
205 183 1
205 192 1
205 207 1
205 216 1
205 221 1
205 223 1
205 237 1
205 240 1
205 258 1
205 263 1
205 264 1
205 267 1
205 268 1
205 273 1
205 282 1
205 285 1
205 292 1
205 299 1
205 306 1
205 326 1
205 330 1
205 332 1
205 333 1
205 338 1
205 339 1
205 341 1
205 343 1
205 344 1
205 356 1
205 358 1
205 359 1
205 364 1
205 377 1
205 384 1
205 390 1
205 403 1
205 405 1
205 414 1
205 418 1
205 423 1
205 424 1
205 425 1
205 427 1
205 430 1
205 446 1
205 447 1
205 452 1
205 454 1
205 456 1
205 459 1
205 462 1
205 467 1
205 468 1
205 469 1
205 473 1
205 479 1
205 493 1
205 496 1
205 504 1
205 507 1
205 517 1
205 523 1
205 527 1
205 530 1
205 536 1
205 539 1
205 552 1
205 572 1
205 573 1
205 576 1
205 577 1
205 578 1
205 583 1
205 587 1
205 592 1
205 601 1
205 602 1
205 608 1
205 612 1
205 616 1
205 619 1
205 621 1
205 622 1
205 631 1
205 638 1
205 643 1
205 647 1
205 650 1
205 655 1
205 656 1
205 660 1
205 677 1
205 678 1
205 679 1
205 689 1
205 700 1
206 13 1
206 19 1
206 24 1
206 30 1
206 34 1
206 41 1
206 48 1
206 51 1
206 60 1
206 65 1
206 74 1
206 81 1
206 94 1
206 95 1
206 96 1
206 108 1
206 111 1
206 115 1
206 117 1
206 119 1
206 121 1
206 132 1
206 136 1
206 137 1
206 140 1
206 151 1
206 154 1
206 155 1
206 157 1
206 173 1
206 176 1
206 192 1
206 195 1
206 199 1
206 215 1
206 219 1
206 220 1
206 230 1
206 234 1
206 238 1
206 240 1
206 243 1
206 247 1
206 248 1
206 250 1
206 269 1
206 272 1
206 278 1
206 280 1
206 281 1
206 286 1
206 290 1
206 291 1
206 301 1
206 302 1
206 307 1
206 310 1
206 316 1
206 324 1
206 329 1
206 331 1
206 339 1
206 341 1
206 343 1
206 348 1
206 354 1
206 357 1
206 359 1
206 365 1
206 366 1
206 375 1
206 383 1
206 385 1
206 387 1
206 389 1
206 391 1
206 395 1
206 402 1
206 405 1
206 409 1
206 410 1
206 411 1
206 413 1
206 421 1
206 423 1
206 424 1
206 431 1
206 437 1
206 441 1
206 446 1
206 448 1
206 449 1
206 456 1
206 465 1
206 468 1
206 469 1
206 470 1
206 482 1
206 487 1
206 499 1
206 502 1
206 503 1
206 507 1
206 511 1
206 512 1
206 517 1
206 524 1
206 532 1
206 538 1
206 541 1
206 542 1
206 545 1
206 547 1
206 549 1
206 551 1
206 553 1
206 556 1
206 562 1
206 566 1
206 568 1
206 569 1
206 572 1
206 576 1
206 580 1
206 589 1
206 592 1
206 595 1
206 604 1
206 605 1
206 606 1
206 608 1
206 612 1
206 614 1
206 625 1
206 627 1
206 628 1
206 656 1
206 668 1
206 671 1
206 676 1
206 677 1
206 684 1
206 688 1
206 691 1
206 692 1
206 699 1
207 3 1
207 4 1
207 5 1
207 9 1
207 20 1
207 22 1
207 26 1
207 33 1
207 40 1
207 52 1
207 53 1
207 64 1
207 79 1
207 80 1
207 84 1
207 96 1
207 101 1
207 112 1
207 113 1
207 118 1
207 119 1
207 129 1
207 145 1
207 149 1
207 150 1
207 167 1
207 170 1
207 173 1
207 189 1
207 197 1
207 198 1
207 201 1
207 205 1
207 213 1
207 220 1
207 224 1
207 231 1
207 239 1
207 246 1
207 253 1
207 267 1
207 270 1
207 273 1
207 275 1
207 279 1
207 283 1
207 288 1
207 295 1
207 303 1
207 304 1
207 309 1
207 310 1
207 319 1
207 320 1
207 325 1
207 330 1
207 333 1
207 337 1
207 346 1
207 350 1
207 353 1
207 354 1
207 360 1
207 375 1
207 376 1
207 388 1
207 398 1
207 401 1
207 403 1
207 405 1
207 411 1
207 418 1
207 427 1
207 436 1
207 438 1
207 440 1
207 441 1
207 446 1
207 458 1
207 468 1
207 479 1
207 485 1
207 487 1
207 489 1
207 492 1
207 502 1
207 511 1
207 514 1
207 519 1
207 520 1
207 521 1
207 522 1
207 528 1
207 533 1
207 535 1
207 537 1
207 549 1
207 559 1
207 564 1
207 568 1
207 571 1
207 577 1
207 589 1
207 594 1
207 601 1
207 603 1
207 604 1
207 605 1
207 612 1
207 618 1
207 622 1
207 624 1
207 625 1
207 627 1
207 644 1
207 647 1
207 652 1
207 654 1
207 656 1
207 657 1
207 661 1
207 672 1
207 673 1
207 677 1
207 683 1
207 687 1
207 692 1
208 2 1
208 8 1
208 16 1
208 18 1
208 19 1
208 20 1
208 27 1
208 28 1
208 34 1
208 35 1
208 37 1
208 39 1
208 40 1
208 45 1
208 47 1
208 56 1
208 57 1
208 64 1
208 68 1
208 71 1
208 72 1
208 75 1
208 79 1
208 80 1
208 87 1
208 88 1
208 91 1
208 92 1
208 101 1
208 109 1
208 113 1
208 117 1
208 121 1
208 123 1
208 126 1
208 138 1
208 142 1
208 148 1
208 159 1
208 165 1
208 169 1
208 170 1
208 179 1
208 185 1
208 190 1
208 193 1
208 211 1
208 217 1
208 218 1
208 223 1
208 229 1
208 234 1
208 236 1
208 243 1
208 247 1
208 261 1
208 273 1
208 285 1
208 287 1
208 289 1
208 292 1
208 296 1
208 305 1
208 306 1
208 309 1
208 324 1
208 337 1
208 341 1
208 345 1
208 350 1
208 351 1
208 359 1
208 369 1
208 372 1
208 375 1
208 382 1
208 386 1
208 391 1
208 407 1
208 417 1
208 421 1
208 429 1
208 443 1
208 452 1
208 453 1
208 454 1
208 461 1
208 466 1
208 468 1
208 471 1
208 473 1
208 477 1
208 478 1
208 479 1
208 480 1
208 486 1
208 487 1
208 490 1
208 494 1
208 499 1
208 508 1
208 520 1
208 521 1
208 524 1
208 530 1
208 537 1
208 541 1
208 544 1
208 547 1
208 548 1
208 553 1
208 565 1
208 570 1
208 579 1
208 586 1
208 603 1
208 605 1
208 618 1
208 623 1
208 636 1
208 637 1
208 644 1
208 648 1
208 649 1
208 650 1
208 654 1
208 655 1
208 656 1
208 659 1
208 662 1
208 664 1
208 675 1
208 680 1
208 681 1
208 687 1
208 688 1
208 690 1
208 696 1
208 698 1
209 12 1
209 13 1
209 18 1
209 27 1
209 28 1
209 35 1
209 46 1
209 51 1
209 60 1
209 65 1
209 87 1
209 94 1
209 96 1
209 100 1
209 101 1
209 104 1
209 105 1
209 112 1
209 116 1
209 125 1
209 134 1
209 153 1
209 167 1
209 176 1
209 181 1
209 192 1
209 195 1
209 210 1
209 212 1
209 216 1
209 222 1
209 226 1
209 229 1
209 232 1
209 234 1
209 235 1
209 239 1
209 245 1
209 247 1
209 250 1
209 251 1
209 270 1
209 272 1
209 275 1
209 276 1
209 282 1
209 283 1
209 289 1
209 290 1
209 308 1
209 310 1
209 321 1
209 325 1
209 328 1
209 346 1
209 363 1
209 364 1
209 384 1
209 388 1
209 389 1
209 407 1
209 411 1
209 413 1
209 418 1
209 424 1
209 427 1
209 428 1
209 430 1
209 435 1
209 437 1
209 439 1
209 450 1
209 456 1
209 467 1
209 476 1
209 483 1
209 485 1
209 493 1
209 496 1
209 502 1
209 506 1
209 511 1
209 526 1
209 531 1
209 537 1
209 538 1
209 542 1
209 543 1
209 565 1
209 570 1
209 573 1
209 574 1
209 579 1
209 581 1
209 584 1
209 585 1
209 586 1
209 593 1
209 594 1
209 604 1
209 612 1
209 618 1
209 622 1
209 625 1
209 626 1
209 635 1
209 649 1
209 661 1
209 669 1
209 671 1
209 672 1
209 677 1
209 680 1
209 699 1
210 1 1
210 3 1
210 4 1
210 5 1
210 18 1
210 32 1
210 37 1
210 38 1
210 39 1
210 40 1
210 46 1
210 47 1
210 51 1
210 57 1
210 59 1
210 61 1
210 62 1
210 64 1
210 75 1
210 76 1
210 81 1
210 83 1
210 84 1
210 85 1
210 86 1
210 87 1
210 101 1
210 107 1
210 109 1
210 112 1
210 119 1
210 120 1
210 137 1
210 149 1
210 151 1
210 170 1
210 172 1
210 174 1
210 189 1
210 202 1
210 209 1
210 211 1
210 213 1
210 216 1
210 223 1
210 225 1
210 239 1
210 242 1
210 266 1
210 271 1
210 281 1
210 282 1
210 301 1
210 302 1
210 314 1
210 320 1
210 322 1
210 327 1
210 332 1
210 339 1
210 342 1
210 344 1
210 345 1
210 346 1
210 349 1
210 350 1
210 358 1
210 361 1
210 369 1
210 372 1
210 379 1
210 381 1
210 388 1
210 389 1
210 417 1
210 420 1
210 422 1
210 423 1
210 424 1
210 428 1
210 434 1
210 443 1
210 444 1
210 446 1
210 450 1
210 451 1
210 458 1
210 461 1
210 462 1
210 463 1
210 465 1
210 470 1
210 472 1
210 478 1
210 486 1
210 487 1
210 490 1
210 497 1
210 499 1
210 501 1
210 504 1
210 505 1
210 510 1
210 512 1
210 518 1
210 528 1
210 533 1
210 534 1
210 536 1
210 538 1
210 540 1
210 541 1
210 544 1
210 546 1
210 548 1
210 550 1
210 563 1
210 566 1
210 569 1
210 576 1
210 579 1
210 590 1
210 595 1
210 596 1
210 597 1
210 604 1
210 606 1
210 609 1
210 616 1
210 626 1
210 630 1
210 632 1
210 640 1
210 646 1
210 650 1
210 652 1
210 653 1
210 654 1
210 658 1
210 659 1
210 662 1
210 666 1
210 671 1
210 674 1
210 675 1
210 678 1
210 681 1
210 684 1
210 699 1
211 11 1
211 13 1
211 14 1
211 18 1
211 19 1
211 20 1
211 26 1
211 27 1
211 29 1
211 32 1
211 35 1
211 36 1
211 46 1
211 47 1
211 51 1
211 64 1
211 65 1
211 69 1
211 77 1
211 80 1
211 89 1
211 96 1
211 99 1
211 102 1
211 109 1
211 110 1
211 117 1
211 120 1
211 122 1
211 128 1
211 129 1
211 134 1
211 135 1
211 138 1
211 143 1
211 144 1
211 151 1
211 154 1
211 160 1
211 171 1
211 177 1
211 184 1
211 189 1
211 192 1
211 196 1
211 201 1
211 203 1
211 208 1
211 210 1
211 215 1
211 219 1
211 225 1
211 231 1
211 233 1
211 237 1
211 240 1
211 244 1
211 248 1
211 251 1
211 264 1
211 284 1
211 286 1
211 291 1
211 296 1
211 298 1
211 299 1
211 311 1
211 312 1
211 329 1
211 331 1
211 336 1
211 341 1
211 345 1
211 348 1
211 353 1
211 354 1
211 356 1
211 359 1
211 362 1
211 366 1
211 367 1
211 368 1
211 375 1
211 378 1
211 379 1
211 380 1
211 383 1
211 385 1
211 390 1
211 394 1
211 398 1
211 407 1
211 409 1
211 412 1
211 416 1
211 420 1
211 433 1
211 434 1
211 435 1
211 440 1
211 446 1
211 450 1
211 454 1
211 459 1
211 468 1
211 477 1
211 492 1
211 493 1
211 507 1
211 510 1
211 511 1
211 520 1
211 522 1
211 523 1
211 525 1
211 527 1
211 528 1
211 537 1
211 548 1
211 549 1
211 551 1
211 553 1
211 554 1
211 562 1
211 563 1
211 565 1
211 580 1
211 583 1
211 589 1
211 592 1
211 593 1
211 597 1
211 602 1
211 606 1
211 608 1
211 609 1
211 611 1
211 612 1
211 613 1
211 619 1
211 622 1
211 627 1
211 637 1
211 640 1
211 645 1
211 647 1
211 654 1
211 659 1
211 662 1
211 674 1
211 689 1
211 690 1
211 692 1
211 696 1
212 1 1
212 4 1
212 5 1
212 6 1
212 7 1
212 9 1
212 18 1
212 21 1
212 22 1
212 32 1
212 34 1
212 45 1
212 51 1
212 54 1
212 62 1
212 63 1
212 72 1
212 76 1
212 78 1
212 85 1
212 96 1
212 101 1
212 102 1
212 115 1
212 116 1
212 117 1
212 119 1
212 130 1
212 134 1
212 138 1
212 139 1
212 152 1
212 160 1
212 170 1
212 182 1
212 186 1
212 193 1
212 197 1
212 199 1
212 209 1
212 217 1
212 218 1
212 219 1
212 232 1
212 240 1
212 242 1
212 254 1
212 258 1
212 261 1
212 263 1
212 274 1
212 276 1
212 286 1
212 307 1
212 310 1
212 311 1
212 316 1
212 317 1
212 318 1
212 322 1
212 338 1
212 348 1
212 352 1
212 356 1
212 358 1
212 364 1
212 371 1
212 383 1
212 388 1
212 394 1
212 408 1
212 419 1
212 427 1
212 436 1
212 441 1
212 442 1
212 451 1
212 453 1
212 458 1
212 469 1
212 471 1
212 474 1
212 475 1
212 477 1
212 479 1
212 489 1
212 490 1
212 494 1
212 496 1
212 497 1
212 500 1
212 501 1
212 514 1
212 518 1
212 525 1
212 526 1
212 527 1
212 529 1
212 531 1
212 534 1
212 537 1
212 539 1
212 540 1
212 542 1
212 545 1
212 560 1
212 564 1
212 565 1
212 568 1
212 570 1
212 577 1
212 580 1
212 586 1
212 587 1
212 597 1
212 601 1
212 603 1
212 605 1
212 610 1
212 613 1
212 615 1
212 620 1
212 622 1
212 623 1
212 631 1
212 632 1
212 636 1
212 637 1
212 639 1
212 643 1
212 644 1
212 650 1
212 651 1
212 655 1
212 656 1
212 665 1
212 668 1
212 672 1
212 674 1
212 675 1
212 677 1
212 679 1
212 681 1
212 688 1
213 6 1
213 8 1
213 16 1
213 23 1
213 26 1
213 27 1
213 36 1
213 38 1
213 48 1
213 49 1
213 54 1
213 59 1
213 66 1
213 68 1
213 79 1
213 80 1
213 83 1
213 89 1
213 110 1
213 116 1
213 120 1
213 138 1
213 139 1
213 146 1
213 149 1
213 152 1
213 153 1
213 155 1
213 165 1
213 167 1
213 172 1
213 181 1
213 182 1
213 183 1
213 193 1
213 197 1
213 203 1
213 207 1
213 210 1
213 217 1
213 227 1
213 228 1
213 237 1
213 239 1
213 249 1
213 250 1
213 254 1
213 258 1
213 262 1
213 282 1
213 286 1
213 297 1
213 329 1
213 335 1
213 337 1
213 339 1
213 346 1
213 351 1
213 353 1
213 357 1
213 359 1
213 360 1
213 372 1
213 373 1
213 376 1
213 397 1
213 409 1
213 416 1
213 434 1
213 435 1
213 436 1
213 454 1
213 457 1
213 458 1
213 472 1
213 485 1
213 494 1
213 496 1
213 506 1
213 514 1
213 519 1
213 520 1
213 521 1
213 528 1
213 532 1
213 538 1
213 543 1
213 545 1
213 548 1
213 553 1
213 556 1
213 558 1
213 562 1
213 564 1
213 575 1
213 581 1
213 582 1
213 592 1
213 597 1
213 602 1
213 603 1
213 609 1
213 611 1
213 612 1
213 615 1
213 626 1
213 637 1
213 643 1
213 644 1
213 661 1
213 662 1
213 664 1
213 665 1
213 667 1
213 672 1
213 674 1
213 675 1
213 676 1
213 677 1
213 691 1
213 693 1
213 696 1
213 698 1
214 7 1
214 9 1
214 26 1
214 32 1
214 33 1
214 34 1
214 42 1
214 43 1
214 48 1
214 54 1
214 55 1
214 57 1
214 59 1
214 61 1
214 65 1
214 66 1
214 68 1
214 72 1
214 79 1
214 82 1
214 99 1
214 101 1
214 118 1
214 119 1
214 120 1
214 121 1
214 122 1
214 123 1
214 124 1
214 127 1
214 134 1
214 140 1
214 148 1
214 160 1
214 162 1
214 164 1
214 167 1
214 168 1
214 173 1
214 176 1
214 177 1
214 183 1
214 186 1
214 188 1
214 193 1
214 196 1
214 199 1
214 224 1
214 246 1
214 249 1
214 252 1
214 262 1
214 267 1
214 268 1
214 270 1
214 287 1
214 289 1
214 292 1
214 293 1
214 294 1
214 300 1
214 304 1
214 307 1
214 308 1
214 310 1
214 314 1
214 315 1
214 316 1
214 324 1
214 332 1
214 333 1
214 338 1
214 339 1
214 349 1
214 350 1
214 351 1
214 354 1
214 359 1
214 360 1
214 372 1
214 378 1
214 379 1
214 380 1
214 384 1
214 388 1
214 394 1
214 397 1
214 405 1
214 406 1
214 413 1
214 417 1
214 418 1
214 425 1
214 439 1
214 446 1
214 449 1
214 450 1
214 452 1
214 457 1
214 460 1
214 471 1
214 473 1
214 481 1
214 484 1
214 493 1
214 498 1
214 506 1
214 507 1
214 510 1
214 512 1
214 543 1
214 550 1
214 554 1
214 557 1
214 572 1
214 578 1
214 585 1
214 588 1
214 597 1
214 614 1
214 617 1
214 619 1
214 620 1
214 621 1
214 627 1
214 635 1
214 638 1
214 643 1
214 644 1
214 652 1
214 654 1
214 661 1
214 663 1
214 667 1
214 674 1
214 680 1
214 685 1
214 688 1
214 690 1
214 695 1
214 698 1
215 2 1
215 3 1
215 9 1
215 11 1
215 12 1
215 16 1
215 17 1
215 18 1
215 23 1
215 34 1
215 41 1
215 42 1
215 55 1
215 60 1
215 61 1
215 62 1
215 64 1
215 65 1
215 73 1
215 74 1
215 76 1
215 81 1
215 89 1
215 90 1
215 92 1
215 93 1
215 94 1
215 100 1
215 101 1
215 103 1
215 104 1
215 109 1
215 112 1
215 115 1
215 118 1
215 124 1
215 137 1
215 139 1
215 140 1
215 148 1
215 149 1
215 150 1
215 158 1
215 172 1
215 181 1
215 188 1
215 192 1
215 193 1
215 196 1
215 198 1
215 201 1
215 204 1
215 206 1
215 211 1
215 217 1
215 218 1
215 233 1
215 238 1
215 242 1
215 244 1
215 260 1
215 266 1
215 270 1
215 275 1
215 279 1
215 285 1
215 296 1
215 311 1
215 314 1
215 316 1
215 320 1
215 324 1
215 325 1
215 329 1
215 330 1
215 336 1
215 337 1
215 341 1
215 346 1
215 347 1
215 349 1
215 356 1
215 358 1
215 360 1
215 368 1
215 373 1
215 375 1
215 379 1
215 384 1
215 385 1
215 386 1
215 389 1
215 396 1
215 407 1
215 414 1
215 417 1
215 421 1
215 431 1
215 435 1
215 440 1
215 442 1
215 445 1
215 454 1
215 459 1
215 463 1
215 471 1
215 485 1
215 493 1
215 495 1
215 506 1
215 520 1
215 521 1
215 522 1
215 526 1
215 530 1
215 536 1
215 540 1
215 542 1
215 544 1
215 546 1
215 549 1
215 550 1
215 551 1
215 565 1
215 566 1
215 568 1
215 569 1
215 574 1
215 577 1
215 584 1
215 587 1
215 590 1
215 592 1
215 600 1
215 604 1
215 609 1
215 610 1
215 611 1
215 616 1
215 619 1
215 623 1
215 634 1
215 638 1
215 640 1
215 645 1
215 647 1
215 649 1
215 650 1
215 651 1
215 652 1
215 655 1
215 664 1
215 675 1
215 677 1
215 681 1
215 682 1
215 686 1
215 691 1
215 692 1
215 696 1
216 8 1
216 9 1
216 15 1
216 26 1
216 31 1
216 37 1
216 44 1
216 47 1
216 51 1
216 55 1
216 60 1
216 65 1
216 66 1
216 73 1
216 78 1
216 82 1
216 85 1
216 92 1
216 95 1
216 101 1
216 113 1
216 128 1
216 129 1
216 134 1
216 141 1
216 142 1
216 143 1
216 144 1
216 149 1
216 152 1
216 160 1
216 166 1
216 168 1
216 169 1
216 170 1
216 182 1
216 183 1
216 186 1
216 189 1
216 201 1
216 202 1
216 203 1
216 205 1
216 209 1
216 210 1
216 221 1
216 227 1
216 231 1
216 240 1
216 246 1
216 247 1
216 250 1
216 262 1
216 268 1
216 278 1
216 284 1
216 286 1
216 292 1
216 306 1
216 307 1
216 310 1
216 316 1
216 324 1
216 325 1
216 326 1
216 330 1
216 335 1
216 336 1
216 341 1
216 344 1
216 345 1
216 346 1
216 353 1
216 355 1
216 363 1
216 368 1
216 371 1
216 385 1
216 388 1
216 397 1
216 398 1
216 406 1
216 410 1
216 420 1
216 449 1
216 451 1
216 453 1
216 472 1
216 477 1
216 478 1
216 481 1
216 482 1
216 488 1
216 491 1
216 494 1
216 496 1
216 507 1
216 520 1
216 522 1
216 525 1
216 527 1
216 530 1
216 532 1
216 533 1
216 536 1
216 539 1
216 546 1
216 547 1
216 552 1
216 559 1
216 561 1
216 567 1
216 569 1
216 572 1
216 575 1
216 576 1
216 578 1
216 584 1
216 585 1
216 587 1
216 597 1
216 601 1
216 602 1
216 605 1
216 607 1
216 615 1
216 616 1
216 618 1
216 619 1
216 625 1
216 630 1
216 633 1
216 638 1
216 641 1
216 652 1
216 655 1
216 656 1
216 665 1
216 672 1
216 674 1
216 682 1
216 684 1
216 687 1
216 688 1
216 693 1
216 694 1
216 696 1
216 697 1
217 13 1
217 16 1
217 19 1
217 22 1
217 39 1
217 42 1
217 45 1
217 51 1
217 66 1
217 68 1
217 78 1
217 84 1
217 92 1
217 93 1
217 94 1
217 95 1
217 97 1
217 101 1
217 110 1
217 116 1
217 117 1
217 124 1
217 132 1
217 133 1
217 134 1
217 140 1
217 141 1
217 145 1
217 146 1
217 151 1
217 153 1
217 155 1
217 158 1
217 167 1
217 170 1
217 171 1
217 180 1
217 183 1
217 190 1
217 195 1
217 203 1
217 208 1
217 212 1
217 213 1
217 215 1
217 222 1
217 224 1
217 227 1
217 232 1
217 242 1
217 244 1
217 251 1
217 252 1
217 254 1
217 261 1
217 270 1
217 273 1
217 282 1
217 284 1
217 287 1
217 290 1
217 291 1
217 293 1
217 295 1
217 301 1
217 308 1
217 309 1
217 311 1
217 320 1
217 322 1
217 331 1
217 341 1
217 346 1
217 360 1
217 366 1
217 368 1
217 395 1
217 406 1
217 407 1
217 410 1
217 411 1
217 418 1
217 423 1
217 432 1
217 433 1
217 437 1
217 438 1
217 443 1
217 445 1
217 453 1
217 454 1
217 463 1
217 464 1
217 466 1
217 470 1
217 472 1
217 475 1
217 494 1
217 507 1
217 509 1
217 510 1
217 513 1
217 514 1
217 519 1
217 523 1
217 529 1
217 530 1
217 531 1
217 534 1
217 537 1
217 540 1
217 541 1
217 547 1
217 551 1
217 557 1
217 560 1
217 561 1
217 563 1
217 564 1
217 568 1
217 570 1
217 580 1
217 582 1
217 585 1
217 588 1
217 589 1
217 615 1
217 621 1
217 623 1
217 624 1
217 642 1
217 647 1
217 648 1
217 651 1
217 652 1
217 665 1
217 668 1
217 673 1
217 676 1
217 677 1
217 695 1
217 699 1
218 2 1
218 4 1
218 5 1
218 18 1
218 19 1
218 29 1
218 68 1
218 81 1
218 88 1
218 91 1
218 94 1
218 97 1
218 108 1
218 110 1
218 113 1
218 114 1
218 120 1
218 121 1
218 122 1
218 125 1
218 127 1
218 141 1
218 143 1
218 144 1
218 146 1
218 147 1
218 148 1
218 150 1
218 155 1
218 163 1
218 165 1
218 169 1
218 176 1
218 179 1
218 183 1
218 184 1
218 186 1
218 190 1
218 191 1
218 194 1
218 203 1
218 204 1
218 208 1
218 212 1
218 215 1
218 220 1
218 224 1
218 227 1
218 229 1
218 238 1
218 239 1
218 245 1
218 248 1
218 255 1
218 258 1
218 260 1
218 261 1
218 264 1
218 268 1
218 276 1
218 280 1
218 299 1
218 300 1
218 301 1
218 302 1
218 306 1
218 318 1
218 322 1
218 326 1
218 331 1
218 338 1
218 339 1
218 342 1
218 348 1
218 351 1
218 360 1
218 374 1
218 375 1
218 411 1
218 418 1
218 430 1
218 439 1
218 451 1
218 452 1
218 453 1
218 462 1
218 480 1
218 485 1
218 486 1
218 491 1
218 496 1
218 504 1
218 519 1
218 525 1
218 531 1
218 537 1
218 543 1
218 550 1
218 551 1
218 554 1
218 562 1
218 572 1
218 576 1
218 577 1
218 589 1
218 590 1
218 593 1
218 594 1
218 605 1
218 608 1
218 615 1
218 616 1
218 623 1
218 627 1
218 639 1
218 643 1
218 649 1
218 651 1
218 653 1
218 666 1
218 670 1
218 675 1
218 678 1
218 679 1
218 682 1
218 686 1
218 687 1
219 5 1
219 30 1
219 32 1
219 37 1
219 41 1
219 44 1
219 46 1
219 49 1
219 52 1
219 61 1
219 67 1
219 69 1
219 80 1
219 83 1
219 84 1
219 87 1
219 93 1
219 102 1
219 103 1
219 104 1
219 109 1
219 113 1
219 117 1
219 118 1
219 126 1
219 127 1
219 130 1
219 139 1
219 141 1
219 146 1
219 150 1
219 159 1
219 166 1
219 171 1
219 181 1
219 193 1
219 202 1
219 206 1
219 211 1
219 212 1
219 232 1
219 234 1
219 237 1
219 239 1
219 242 1
219 244 1
219 248 1
219 253 1
219 257 1
219 258 1
219 260 1
219 265 1
219 267 1
219 271 1
219 277 1
219 281 1
219 286 1
219 289 1
219 291 1
219 292 1
219 298 1
219 301 1
219 303 1
219 305 1
219 316 1
219 317 1
219 328 1
219 333 1
219 338 1
219 341 1
219 342 1
219 345 1
219 346 1
219 347 1
219 351 1
219 352 1
219 359 1
219 369 1
219 378 1
219 381 1
219 388 1
219 389 1
219 390 1
219 400 1
219 404 1
219 409 1
219 416 1
219 420 1
219 430 1
219 431 1
219 443 1
219 444 1
219 456 1
219 458 1
219 459 1
219 460 1
219 461 1
219 464 1
219 466 1
219 478 1
219 482 1
219 497 1
219 503 1
219 505 1
219 513 1
219 517 1
219 518 1
219 526 1
219 528 1
219 529 1
219 531 1
219 546 1
219 550 1
219 552 1
219 553 1
219 560 1
219 565 1
219 568 1
219 569 1
219 577 1
219 579 1
219 588 1
219 593 1
219 597 1
219 598 1
219 599 1
219 601 1
219 603 1
219 610 1
219 619 1
219 622 1
219 624 1
219 626 1
219 630 1
219 635 1
219 637 1
219 653 1
219 657 1
219 661 1
219 664 1
219 665 1
219 666 1
219 668 1
219 671 1
219 677 1
219 681 1
219 683 1
219 685 1
219 686 1
220 2 1
220 9 1
220 10 1
220 11 1
220 16 1
220 20 1
220 30 1
220 39 1
220 50 1
220 57 1
220 61 1
220 65 1
220 70 1
220 71 1
220 84 1
220 90 1
220 92 1
220 93 1
220 97 1
220 98 1
220 99 1
220 114 1
220 117 1
220 120 1
220 124 1
220 128 1
220 143 1
220 146 1
220 148 1
220 150 1
220 156 1
220 159 1
220 163 1
220 166 1
220 175 1
220 177 1
220 180 1
220 185 1
220 195 1
220 198 1
220 204 1
220 206 1
220 207 1
220 218 1
220 239 1
220 242 1
220 248 1
220 251 1
220 252 1
220 268 1
220 269 1
220 273 1
220 274 1
220 277 1
220 281 1
220 284 1
220 287 1
220 300 1
220 301 1
220 304 1
220 310 1
220 311 1
220 312 1
220 324 1
220 331 1
220 333 1
220 334 1
220 335 1
220 337 1
220 340 1
220 345 1
220 350 1
220 352 1
220 360 1
220 361 1
220 363 1
220 368 1
220 372 1
220 373 1
220 383 1
220 385 1
220 389 1
220 390 1
220 393 1
220 398 1
220 400 1
220 402 1
220 405 1
220 407 1
220 414 1
220 417 1
220 419 1
220 426 1
220 427 1
220 429 1
220 433 1
220 434 1
220 436 1
220 437 1
220 441 1
220 442 1
220 444 1
220 445 1
220 451 1
220 453 1
220 456 1
220 460 1
220 465 1
220 466 1
220 482 1
220 483 1
220 484 1
220 486 1
220 494 1
220 501 1
220 510 1
220 511 1
220 526 1
220 531 1
220 533 1
220 544 1
220 554 1
220 558 1
220 560 1
220 562 1
220 569 1
220 573 1
220 574 1
220 583 1
220 586 1
220 588 1
220 593 1
220 597 1
220 607 1
220 610 1
220 626 1
220 634 1
220 654 1
220 656 1
220 657 1
220 660 1
220 665 1
220 667 1
220 669 1
220 673 1
220 675 1
220 696 1
221 4 1
221 12 1
221 17 1
221 19 1
221 20 1
221 22 1
221 27 1
221 39 1
221 41 1
221 48 1
221 53 1
221 55 1
221 59 1
221 60 1
221 65 1
221 67 1
221 81 1
221 86 1
221 88 1
221 90 1
221 93 1
221 94 1
221 98 1
221 99 1
221 104 1
221 106 1
221 124 1
221 134 1
221 138 1
221 144 1
221 147 1
221 149 1
221 150 1
221 154 1
221 166 1
221 172 1
221 179 1
221 181 1
221 182 1
221 185 1
221 187 1
221 191 1
221 201 1
221 203 1
221 205 1
221 216 1
221 222 1
221 232 1
221 235 1
221 239 1
221 245 1
221 250 1
221 253 1
221 258 1
221 263 1
221 266 1
221 271 1
221 273 1
221 282 1
221 290 1
221 292 1
221 296 1
221 302 1
221 311 1
221 312 1
221 313 1
221 315 1
221 317 1
221 326 1
221 332 1
221 334 1
221 338 1
221 339 1
221 345 1
221 347 1
221 355 1
221 356 1
221 357 1
221 358 1
221 365 1
221 366 1
221 379 1
221 381 1
221 383 1
221 390 1
221 395 1
221 397 1
221 398 1
221 401 1
221 414 1
221 421 1
221 425 1
221 426 1
221 428 1
221 436 1
221 437 1
221 443 1
221 446 1
221 457 1
221 461 1
221 463 1
221 464 1
221 465 1
221 466 1
221 468 1
221 469 1
221 470 1
221 479 1
221 503 1
221 520 1
221 525 1
221 531 1
221 532 1
221 534 1
221 539 1
221 547 1
221 548 1
221 549 1
221 552 1
221 565 1
221 570 1
221 573 1
221 578 1
221 579 1
221 583 1
221 602 1
221 607 1
221 608 1
221 619 1
221 625 1
221 627 1
221 634 1
221 641 1
221 644 1
221 659 1
221 663 1
221 665 1
221 678 1
221 679 1
221 683 1
221 693 1
222 1 1
222 13 1
222 17 1
222 19 1
222 28 1
222 29 1
222 30 1
222 36 1
222 42 1
222 47 1
222 48 1
222 50 1
222 52 1
222 55 1
222 62 1
222 63 1
222 67 1
222 70 1
222 71 1
222 72 1
222 106 1
222 108 1
222 123 1
222 125 1
222 138 1
222 144 1
222 146 1
222 159 1
222 162 1
222 164 1
222 165 1
222 175 1
222 179 1
222 185 1
222 190 1
222 196 1
222 197 1
222 198 1
222 209 1
222 217 1
222 221 1
222 225 1
222 227 1
222 229 1
222 247 1
222 256 1
222 258 1
222 261 1
222 264 1
222 266 1
222 277 1
222 278 1
222 281 1
222 282 1
222 287 1
222 303 1
222 305 1
222 308 1
222 323 1
222 326 1
222 335 1
222 341 1
222 344 1
222 351 1
222 363 1
222 370 1
222 371 1
222 373 1
222 383 1
222 389 1
222 392 1
222 393 1
222 394 1
222 400 1
222 403 1
222 407 1
222 430 1
222 440 1
222 445 1
222 453 1
222 460 1
222 477 1
222 479 1
222 483 1
222 485 1
222 486 1
222 489 1
222 491 1
222 492 1
222 494 1
222 498 1
222 499 1
222 522 1
222 524 1
222 527 1
222 533 1
222 535 1
222 540 1
222 543 1
222 544 1
222 545 1
222 549 1
222 564 1
222 573 1
222 578 1
222 581 1
222 583 1
222 584 1
222 597 1
222 598 1
222 599 1
222 604 1
222 605 1
222 606 1
222 610 1
222 613 1
222 616 1
222 618 1
222 622 1
222 625 1
222 630 1
222 633 1
222 637 1
222 640 1
222 645 1
222 647 1
222 650 1
222 658 1
222 661 1
222 668 1
222 672 1
222 693 1
222 696 1
222 697 1
222 700 1
223 3 1
223 5 1
223 10 1
223 13 1
223 14 1
223 19 1
223 31 1
223 34 1
223 46 1
223 58 1
223 65 1
223 74 1
223 79 1
223 80 1
223 84 1
223 86 1
223 91 1
223 92 1
223 93 1
223 96 1
223 105 1
223 114 1
223 118 1
223 122 1
223 126 1
223 130 1
223 137 1
223 138 1
223 149 1
223 157 1
223 165 1
223 179 1
223 183 1
223 187 1
223 203 1
223 205 1
223 208 1
223 210 1
223 224 1
223 225 1
223 227 1
223 232 1
223 237 1
223 240 1
223 246 1
223 247 1
223 249 1
223 255 1
223 258 1
223 262 1
223 265 1
223 269 1
223 273 1
223 307 1
223 310 1
223 325 1
223 332 1
223 334 1
223 341 1
223 352 1
223 355 1
223 366 1
223 367 1
223 381 1
223 389 1
223 394 1
223 398 1
223 411 1
223 412 1
223 414 1
223 418 1
223 421 1
223 424 1
223 431 1
223 439 1
223 442 1
223 449 1
223 452 1
223 453 1
223 459 1
223 464 1
223 465 1
223 468 1
223 472 1
223 473 1
223 476 1
223 477 1
223 483 1
223 486 1
223 497 1
223 501 1
223 508 1
223 510 1
223 513 1
223 523 1
223 524 1
223 525 1
223 526 1
223 528 1
223 532 1
223 535 1
223 537 1
223 538 1
223 540 1
223 564 1
223 566 1
223 575 1
223 583 1
223 588 1
223 595 1
223 596 1
223 598 1
223 604 1
223 605 1
223 612 1
223 627 1
223 629 1
223 632 1
223 635 1
223 638 1
223 647 1
223 651 1
223 656 1
223 657 1
223 658 1
223 665 1
223 668 1
223 672 1
223 673 1
223 674 1
223 676 1
223 678 1
223 680 1
223 686 1
223 687 1
223 692 1
223 696 1
223 699 1
224 1 1
224 2 1
224 9 1
224 25 1
224 27 1
224 29 1
224 30 1
224 32 1
224 35 1
224 36 1
224 38 1
224 39 1
224 40 1
224 42 1
224 43 1
224 48 1
224 52 1
224 55 1
224 64 1
224 66 1
224 74 1
224 83 1
224 97 1
224 98 1
224 100 1
224 105 1
224 106 1
224 109 1
224 114 1
224 115 1
224 121 1
224 122 1
224 123 1
224 126 1
224 132 1
224 138 1
224 140 1
224 145 1
224 146 1
224 150 1
224 156 1
224 158 1
224 163 1
224 164 1
224 166 1
224 180 1
224 187 1
224 198 1
224 207 1
224 214 1
224 217 1
224 218 1
224 223 1
224 226 1
224 237 1
224 248 1
224 257 1
224 258 1
224 269 1
224 270 1
224 292 1
224 293 1
224 295 1
224 298 1
224 307 1
224 312 1
224 317 1
224 327 1
224 334 1
224 339 1
224 341 1
224 359 1
224 361 1
224 369 1
224 388 1
224 392 1
224 397 1
224 405 1
224 408 1
224 425 1
224 426 1
224 428 1
224 430 1
224 434 1
224 436 1
224 443 1
224 452 1
224 454 1
224 455 1
224 460 1
224 490 1
224 492 1
224 493 1
224 499 1
224 501 1
224 502 1
224 506 1
224 510 1
224 511 1
224 516 1
224 517 1
224 520 1
224 524 1
224 526 1
224 539 1
224 554 1
224 558 1
224 563 1
224 565 1
224 566 1
224 569 1
224 575 1
224 576 1
224 578 1
224 582 1
224 592 1
224 598 1
224 599 1
224 604 1
224 612 1
224 620 1
224 627 1
224 636 1
224 638 1
224 643 1
224 645 1
224 646 1
224 648 1
224 649 1
224 651 1
224 654 1
224 657 1
224 658 1
224 661 1
224 667 1
224 677 1
224 681 1
224 682 1
224 683 1
224 687 1
224 689 1
224 691 1
224 694 1
224 695 1
224 697 1
225 7 1
225 18 1
225 27 1
225 28 1
225 30 1
225 32 1
225 33 1
225 34 1
225 48 1
225 53 1
225 56 1
225 59 1
225 66 1
225 68 1
225 71 1
225 75 1
225 77 1
225 78 1
225 84 1
225 90 1
225 96 1
225 103 1
225 108 1
225 114 1
225 120 1
225 121 1
225 122 1
225 128 1
225 132 1
225 134 1
225 135 1
225 149 1
225 152 1
225 154 1
225 155 1
225 163 1
225 166 1
225 172 1
225 186 1
225 194 1
225 199 1
225 201 1
225 210 1
225 211 1
225 222 1
225 223 1
225 228 1
225 235 1
225 242 1
225 247 1
225 253 1
225 260 1
225 263 1
225 266 1
225 268 1
225 271 1
225 276 1
225 299 1
225 302 1
225 304 1
225 306 1
225 308 1
225 320 1
225 323 1
225 325 1
225 330 1
225 331 1
225 333 1
225 336 1
225 344 1
225 346 1
225 354 1
225 359 1
225 361 1
225 368 1
225 383 1
225 386 1
225 393 1
225 410 1
225 419 1
225 431 1
225 432 1
225 433 1
225 438 1
225 443 1
225 450 1
225 462 1
225 470 1
225 473 1
225 479 1
225 480 1
225 482 1
225 483 1
225 486 1
225 495 1
225 503 1
225 506 1
225 508 1
225 515 1
225 521 1
225 526 1
225 534 1
225 538 1
225 541 1
225 544 1
225 546 1
225 547 1
225 551 1
225 555 1
225 565 1
225 569 1
225 574 1
225 575 1
225 580 1
225 581 1
225 593 1
225 595 1
225 601 1
225 603 1
225 604 1
225 606 1
225 607 1
225 611 1
225 621 1
225 622 1
225 628 1
225 633 1
225 634 1
225 642 1
225 645 1
225 647 1
225 654 1
225 655 1
225 656 1
225 660 1
225 665 1
225 668 1
225 672 1
225 675 1
225 694 1
225 695 1
226 5 1
226 10 1
226 12 1
226 18 1
226 23 1
226 26 1
226 27 1
226 30 1
226 31 1
226 32 1
226 33 1
226 36 1
226 39 1
226 45 1
226 56 1
226 68 1
226 71 1
226 72 1
226 80 1
226 94 1
226 98 1
226 106 1
226 116 1
226 117 1
226 124 1
226 126 1
226 132 1
226 140 1
226 150 1
226 152 1
226 155 1
226 158 1
226 160 1
226 162 1
226 169 1
226 174 1
226 176 1
226 177 1
226 179 1
226 180 1
226 209 1
226 224 1
226 230 1
226 236 1
226 242 1
226 246 1
226 248 1
226 252 1
226 254 1
226 262 1
226 265 1
226 284 1
226 290 1
226 292 1
226 304 1
226 307 1
226 312 1
226 316 1
226 325 1
226 329 1
226 330 1
226 334 1
226 348 1
226 351 1
226 368 1
226 376 1
226 379 1
226 381 1
226 390 1
226 422 1
226 424 1
226 426 1
226 434 1
226 436 1
226 445 1
226 448 1
226 451 1
226 456 1
226 458 1
226 465 1
226 468 1
226 475 1
226 476 1
226 481 1
226 482 1
226 484 1
226 487 1
226 495 1
226 496 1
226 499 1
226 501 1
226 504 1
226 513 1
226 516 1
226 519 1
226 520 1
226 534 1
226 543 1
226 567 1
226 570 1
226 572 1
226 577 1
226 578 1
226 582 1
226 591 1
226 595 1
226 604 1
226 611 1
226 613 1
226 615 1
226 618 1
226 619 1
226 622 1
226 625 1
226 642 1
226 649 1
226 650 1
226 655 1
226 664 1
226 670 1
226 683 1
226 686 1
226 697 1
227 1 1
227 20 1
227 21 1
227 31 1
227 40 1
227 51 1
227 58 1
227 65 1
227 81 1
227 88 1
227 95 1
227 99 1
227 100 1
227 103 1
227 104 1
227 109 1
227 118 1
227 124 1
227 137 1
227 142 1
227 144 1
227 147 1
227 149 1
227 170 1
227 174 1
227 181 1
227 184 1
227 187 1
227 191 1
227 194 1
227 197 1
227 202 1
227 204 1
227 213 1
227 216 1
227 217 1
227 218 1
227 222 1
227 223 1
227 231 1
227 235 1
227 243 1
227 244 1
227 245 1
227 248 1
227 250 1
227 261 1
227 264 1
227 268 1
227 269 1
227 278 1
227 279 1
227 280 1
227 281 1
227 284 1
227 292 1
227 293 1
227 305 1
227 309 1
227 316 1
227 319 1
227 326 1
227 330 1
227 335 1
227 337 1
227 338 1
227 342 1
227 345 1
227 357 1
227 359 1
227 361 1
227 368 1
227 369 1
227 371 1
227 381 1
227 382 1
227 386 1
227 392 1
227 393 1
227 397 1
227 401 1
227 403 1
227 405 1
227 410 1
227 412 1
227 413 1
227 415 1
227 419 1
227 420 1
227 428 1
227 430 1
227 431 1
227 432 1
227 448 1
227 450 1
227 460 1
227 465 1
227 469 1
227 476 1
227 477 1
227 480 1
227 490 1
227 499 1
227 512 1
227 521 1
227 541 1
227 544 1
227 551 1
227 553 1
227 554 1
227 558 1
227 565 1
227 573 1
227 574 1
227 575 1
227 581 1
227 591 1
227 592 1
227 594 1
227 597 1
227 601 1
227 605 1
227 607 1
227 609 1
227 610 1
227 618 1
227 620 1
227 628 1
227 634 1
227 635 1
227 637 1
227 639 1
227 650 1
227 655 1
227 656 1
227 663 1
227 675 1
227 679 1
227 682 1
227 689 1
227 692 1
227 695 1
227 698 1
228 1 1
228 3 1
228 11 1
228 19 1
228 44 1
228 47 1
228 48 1
228 49 1
228 57 1
228 58 1
228 62 1
228 76 1
228 77 1
228 78 1
228 104 1
228 105 1
228 108 1
228 116 1
228 118 1
228 140 1
228 143 1
228 148 1
228 155 1
228 168 1
228 174 1
228 192 1
228 193 1
228 194 1
228 202 1
228 213 1
228 225 1
228 234 1
228 239 1
228 240 1
228 241 1
228 243 1
228 245 1
228 247 1
228 248 1
228 259 1
228 264 1
228 265 1
228 266 1
228 267 1
228 268 1
228 270 1
228 273 1
228 277 1
228 279 1
228 283 1
228 289 1
228 294 1
228 296 1
228 299 1
228 300 1
228 301 1
228 304 1
228 308 1
228 309 1
228 314 1
228 315 1
228 316 1
228 317 1
228 318 1
228 329 1
228 336 1
228 337 1
228 342 1
228 346 1
228 349 1
228 356 1
228 359 1
228 360 1
228 361 1
228 371 1
228 374 1
228 379 1
228 387 1
228 390 1
228 400 1
228 409 1
228 415 1
228 417 1
228 420 1
228 426 1
228 427 1
228 438 1
228 459 1
228 460 1
228 462 1
228 479 1
228 489 1
228 491 1
228 492 1
228 493 1
228 494 1
228 501 1
228 508 1
228 520 1
228 524 1
228 529 1
228 534 1
228 536 1
228 547 1
228 550 1
228 553 1
228 558 1
228 560 1
228 561 1
228 563 1
228 569 1
228 570 1
228 583 1
228 588 1
228 589 1
228 590 1
228 593 1
228 603 1
228 611 1
228 614 1
228 617 1
228 625 1
228 629 1
228 630 1
228 632 1
228 638 1
228 640 1
228 643 1
228 644 1
228 652 1
228 653 1
228 659 1
228 663 1
228 681 1
228 682 1
228 692 1
228 695 1
229 1 1
229 5 1
229 8 1
229 10 1
229 12 1
229 20 1
229 21 1
229 31 1
229 32 1
229 33 1
229 47 1
229 54 1
229 59 1
229 67 1
229 75 1
229 77 1
229 83 1
229 84 1
229 85 1
229 86 1
229 89 1
229 93 1
229 107 1
229 109 1
229 129 1
229 135 1
229 143 1
229 144 1
229 145 1
229 147 1
229 150 1
229 156 1
229 157 1
229 158 1
229 159 1
229 162 1
229 167 1
229 169 1
229 170 1
229 178 1
229 182 1
229 185 1
229 191 1
229 194 1
229 201 1
229 202 1
229 208 1
229 209 1
229 218 1
229 222 1
229 235 1
229 237 1
229 239 1
229 241 1
229 242 1
229 245 1
229 249 1
229 258 1
229 259 1
229 261 1
229 262 1
229 266 1
229 276 1
229 282 1
229 286 1
229 289 1
229 292 1
229 296 1
229 306 1
229 307 1
229 315 1
229 328 1
229 346 1
229 350 1
229 355 1
229 356 1
229 365 1
229 367 1
229 377 1
229 386 1
229 394 1
229 395 1
229 397 1
229 398 1
229 407 1
229 408 1
229 417 1
229 426 1
229 431 1
229 434 1
229 441 1
229 442 1
229 448 1
229 451 1
229 458 1
229 464 1
229 468 1
229 478 1
229 482 1
229 483 1
229 487 1
229 490 1
229 494 1
229 498 1
229 502 1
229 512 1
229 514 1
229 515 1
229 516 1
229 518 1
229 527 1
229 533 1
229 535 1
229 536 1
229 537 1
229 540 1
229 547 1
229 562 1
229 568 1
229 577 1
229 581 1
229 585 1
229 587 1
229 593 1
229 601 1
229 602 1
229 605 1
229 612 1
229 623 1
229 629 1
229 630 1
229 642 1
229 643 1
229 645 1
229 651 1
229 658 1
229 659 1
229 663 1
229 672 1
229 686 1
229 690 1
230 2 1
230 10 1
230 14 1
230 24 1
230 28 1
230 32 1
230 38 1
230 39 1
230 40 1
230 46 1
230 49 1
230 52 1
230 59 1
230 61 1
230 64 1
230 65 1
230 66 1
230 68 1
230 76 1
230 78 1
230 80 1
230 81 1
230 84 1
230 88 1
230 93 1
230 94 1
230 95 1
230 96 1
230 99 1
230 101 1
230 102 1
230 103 1
230 109 1
230 112 1
230 119 1
230 121 1
230 122 1
230 130 1
230 131 1
230 135 1
230 138 1
230 139 1
230 144 1
230 148 1
230 153 1
230 158 1
230 169 1
230 171 1
230 176 1
230 182 1
230 194 1
230 200 1
230 206 1
230 226 1
230 235 1
230 245 1
230 251 1
230 253 1
230 257 1
230 263 1
230 271 1
230 275 1
230 277 1
230 289 1
230 297 1
230 298 1
230 301 1
230 303 1
230 306 1
230 308 1
230 309 1
230 314 1
230 328 1
230 332 1
230 337 1
230 342 1
230 345 1
230 350 1
230 354 1
230 357 1
230 359 1
230 361 1
230 365 1
230 368 1
230 369 1
230 371 1
230 374 1
230 376 1
230 377 1
230 378 1
230 381 1
230 391 1
230 399 1
230 401 1
230 402 1
230 406 1
230 414 1
230 421 1
230 424 1
230 427 1
230 428 1
230 445 1
230 447 1
230 451 1
230 452 1
230 461 1
230 462 1
230 464 1
230 465 1
230 473 1
230 481 1
230 489 1
230 490 1
230 493 1
230 496 1
230 497 1
230 506 1
230 507 1
230 515 1
230 519 1
230 520 1
230 527 1
230 528 1
230 532 1
230 547 1
230 551 1
230 562 1
230 567 1
230 574 1
230 575 1
230 580 1
230 585 1
230 589 1
230 594 1
230 601 1
230 604 1
230 615 1
230 618 1
230 623 1
230 628 1
230 630 1
230 647 1
230 649 1
230 650 1
230 652 1
230 654 1
230 657 1
230 660 1
230 663 1
230 671 1
230 676 1
230 678 1
230 684 1
230 685 1
230 688 1
230 690 1
231 3 1
231 28 1
231 32 1
231 36 1
231 40 1
231 44 1
231 58 1
231 76 1
231 77 1
231 80 1
231 81 1
231 86 1
231 87 1
231 95 1
231 113 1
231 119 1
231 126 1
231 131 1
231 134 1
231 148 1
231 152 1
231 168 1
231 170 1
231 174 1
231 192 1
231 193 1
231 195 1
231 198 1
231 199 1
231 200 1
231 203 1
231 204 1
231 207 1
231 211 1
231 216 1
231 227 1
231 232 1
231 249 1
231 257 1
231 268 1
231 270 1
231 278 1
231 282 1
231 283 1
231 284 1
231 285 1
231 295 1
231 301 1
231 303 1
231 311 1
231 316 1
231 322 1
231 325 1
231 329 1
231 338 1
231 344 1
231 347 1
231 351 1
231 361 1
231 363 1
231 365 1
231 370 1
231 371 1
231 384 1
231 389 1
231 390 1
231 391 1
231 393 1
231 403 1
231 404 1
231 406 1
231 407 1
231 431 1
231 436 1
231 441 1
231 444 1
231 449 1
231 451 1
231 456 1
231 459 1
231 460 1
231 461 1
231 468 1
231 469 1
231 470 1
231 471 1
231 474 1
231 478 1
231 486 1
231 488 1
231 492 1
231 498 1
231 501 1
231 507 1
231 514 1
231 528 1
231 534 1
231 537 1
231 540 1
231 541 1
231 544 1
231 545 1
231 546 1
231 550 1
231 554 1
231 555 1
231 559 1
231 562 1
231 564 1
231 573 1
231 574 1
231 578 1
231 581 1
231 585 1
231 587 1
231 588 1
231 589 1
231 600 1
231 603 1
231 604 1
231 607 1
231 616 1
231 619 1
231 622 1
231 625 1
231 633 1
231 639 1
231 640 1
231 641 1
231 659 1
231 660 1
231 662 1
231 663 1
231 666 1
231 667 1
231 669 1
231 670 1
231 678 1
231 689 1
231 696 1
231 698 1
231 699 1
232 6 1
232 10 1
232 11 1
232 15 1
232 23 1
232 24 1
232 29 1
232 31 1
232 34 1
232 47 1
232 48 1
232 54 1
232 55 1
232 59 1
232 67 1
232 79 1
232 80 1
232 93 1
232 95 1
232 100 1
232 109 1
232 116 1
232 119 1
232 122 1
232 125 1
232 126 1
232 128 1
232 136 1
232 138 1
232 142 1
232 143 1
232 147 1
232 148 1
232 149 1
232 150 1
232 151 1
232 159 1
232 161 1
232 169 1
232 171 1
232 179 1
232 209 1
232 212 1
232 217 1
232 219 1
232 221 1
232 223 1
232 231 1
232 237 1
232 242 1
232 243 1
232 256 1
232 258 1
232 263 1
232 271 1
232 276 1
232 280 1
232 286 1
232 288 1
232 289 1
232 292 1
232 300 1
232 301 1
232 302 1
232 319 1
232 320 1
232 321 1
232 325 1
232 327 1
232 328 1
232 330 1
232 332 1
232 334 1
232 337 1
232 339 1
232 350 1
232 357 1
232 363 1
232 364 1
232 372 1
232 378 1
232 380 1
232 385 1
232 391 1
232 394 1
232 403 1
232 415 1
232 421 1
232 423 1
232 424 1
232 426 1
232 437 1
232 438 1
232 441 1
232 446 1
232 452 1
232 460 1
232 461 1
232 470 1
232 471 1
232 472 1
232 475 1
232 479 1
232 486 1
232 487 1
232 491 1
232 496 1
232 499 1
232 504 1
232 507 1
232 513 1
232 515 1
232 516 1
232 523 1
232 529 1
232 532 1
232 535 1
232 540 1
232 547 1
232 548 1
232 550 1
232 560 1
232 563 1
232 569 1
232 571 1
232 572 1
232 576 1
232 584 1
232 599 1
232 600 1
232 609 1
232 613 1
232 615 1
232 623 1
232 629 1
232 631 1
232 632 1
232 641 1
232 657 1
232 660 1
232 673 1
232 676 1
232 680 1
232 681 1
232 687 1
232 690 1
232 691 1
233 1 1
233 7 1
233 12 1
233 15 1
233 17 1
233 25 1
233 30 1
233 31 1
233 37 1
233 49 1
233 60 1
233 71 1
233 73 1
233 76 1
233 79 1
233 89 1
233 107 1
233 108 1
233 112 1
233 117 1
233 119 1
233 122 1
233 125 1
233 129 1
233 134 1
233 137 1
233 138 1
233 147 1
233 148 1
233 153 1
233 156 1
233 158 1
233 161 1
233 162 1
233 167 1
233 170 1
233 172 1
233 186 1
233 194 1
233 195 1
233 196 1
233 199 1
233 201 1
233 211 1
233 215 1
233 234 1
233 240 1
233 243 1
233 255 1
233 267 1
233 271 1
233 273 1
233 276 1
233 278 1
233 284 1
233 286 1
233 289 1
233 292 1
233 295 1
233 303 1
233 307 1
233 310 1
233 320 1
233 321 1
233 327 1
233 351 1
233 352 1
233 358 1
233 360 1
233 363 1
233 367 1
233 368 1
233 369 1
233 372 1
233 374 1
233 375 1
233 379 1
233 384 1
233 404 1
233 408 1
233 411 1
233 418 1
233 421 1
233 422 1
233 424 1
233 425 1
233 428 1
233 434 1
233 440 1
233 441 1
233 454 1
233 455 1
233 467 1
233 468 1
233 472 1
233 475 1
233 479 1
233 497 1
233 498 1
233 502 1
233 506 1
233 509 1
233 516 1
233 517 1
233 520 1
233 524 1
233 530 1
233 532 1
233 536 1
233 538 1
233 539 1
233 548 1
233 549 1
233 560 1
233 561 1
233 564 1
233 565 1
233 572 1
233 574 1
233 575 1
233 579 1
233 583 1
233 584 1
233 585 1
233 589 1
233 590 1
233 592 1
233 596 1
233 599 1
233 603 1
233 615 1
233 619 1
233 629 1
233 631 1
233 641 1
233 644 1
233 648 1
233 649 1
233 658 1
233 660 1
233 663 1
233 670 1
233 676 1
233 695 1
234 4 1
234 6 1
234 24 1
234 54 1
234 64 1
234 83 1
234 92 1
234 93 1
234 97 1
234 98 1
234 100 1
234 102 1
234 106 1
234 110 1
234 115 1
234 117 1
234 122 1
234 128 1
234 129 1
234 132 1
234 139 1
234 141 1
234 145 1
234 146 1
234 147 1
234 160 1
234 161 1
234 174 1
234 182 1
234 189 1
234 190 1
234 191 1
234 201 1
234 206 1
234 208 1
234 209 1
234 219 1
234 228 1
234 233 1
234 240 1
234 244 1
234 248 1
234 251 1
234 258 1
234 260 1
234 261 1
234 264 1
234 265 1
234 276 1
234 292 1
234 310 1
234 311 1
234 312 1
234 317 1
234 318 1
234 328 1
234 333 1
234 338 1
234 344 1
234 354 1
234 357 1
234 358 1
234 360 1
234 361 1
234 364 1
234 370 1
234 372 1
234 374 1
234 377 1
234 379 1
234 383 1
234 386 1
234 390 1
234 393 1
234 397 1
234 408 1
234 411 1
234 412 1
234 420 1
234 428 1
234 430 1
234 435 1
234 436 1
234 443 1
234 446 1
234 450 1
234 455 1
234 456 1
234 458 1
234 463 1
234 464 1
234 468 1
234 479 1
234 482 1
234 486 1
234 487 1
234 492 1
234 493 1
234 498 1
234 506 1
234 507 1
234 509 1
234 510 1
234 511 1
234 516 1
234 517 1
234 521 1
234 524 1
234 533 1
234 545 1
234 546 1
234 553 1
234 558 1
234 566 1
234 572 1
234 574 1
234 575 1
234 577 1
234 591 1
234 603 1
234 611 1
234 618 1
234 622 1
234 623 1
234 624 1
234 628 1
234 637 1
234 638 1
234 639 1
234 656 1
234 665 1
234 677 1
234 680 1
234 687 1
234 690 1
234 691 1
234 695 1
235 9 1
235 10 1
235 16 1
235 20 1
235 28 1
235 34 1
235 36 1
235 40 1
235 41 1
235 49 1
235 58 1
235 59 1
235 64 1
235 65 1
235 67 1
235 71 1
235 73 1
235 78 1
235 79 1
235 84 1
235 94 1
235 95 1
235 114 1
235 125 1
235 127 1
235 131 1
235 138 1
235 144 1
235 154 1
235 159 1
235 167 1
235 172 1
235 180 1
235 181 1
235 190 1
235 191 1
235 193 1
235 198 1
235 202 1
235 209 1
235 221 1
235 225 1
235 227 1
235 229 1
235 230 1
235 237 1
235 242 1
235 244 1
235 249 1
235 251 1
235 268 1
235 269 1
235 270 1
235 277 1
235 282 1
235 291 1
235 294 1
235 297 1
235 298 1
235 301 1
235 313 1
235 317 1
235 320 1
235 324 1
235 327 1
235 332 1
235 337 1
235 358 1
235 371 1
235 377 1
235 380 1
235 385 1
235 387 1
235 388 1
235 396 1
235 398 1
235 407 1
235 408 1
235 421 1
235 423 1
235 424 1
235 436 1
235 442 1
235 444 1
235 446 1
235 456 1
235 459 1
235 463 1
235 469 1
235 475 1
235 478 1
235 488 1
235 494 1
235 495 1
235 496 1
235 498 1
235 503 1
235 507 1
235 512 1
235 520 1
235 526 1
235 527 1
235 529 1
235 531 1
235 540 1
235 546 1
235 558 1
235 563 1
235 564 1
235 569 1
235 572 1
235 578 1
235 580 1
235 583 1
235 591 1
235 593 1
235 598 1
235 599 1
235 607 1
235 626 1
235 628 1
235 629 1
235 630 1
235 633 1
235 634 1
235 636 1
235 643 1
235 652 1
235 654 1
235 660 1
235 663 1
235 669 1
235 670 1
235 679 1
235 682 1
235 687 1
235 690 1
235 695 1
236 7 1
236 9 1
236 13 1
236 17 1
236 21 1
236 23 1
236 25 1
236 33 1
236 39 1
236 53 1
236 58 1
236 70 1
236 73 1
236 77 1
236 83 1
236 89 1
236 97 1
236 102 1
236 103 1
236 107 1
236 108 1
236 109 1
236 110 1
236 113 1
236 116 1
236 126 1
236 133 1
236 134 1
236 136 1
236 138 1
236 143 1
236 149 1
236 164 1
236 166 1
236 167 1
236 169 1
236 170 1
236 174 1
236 180 1
236 184 1
236 193 1
236 198 1
236 200 1
236 208 1
236 226 1
236 242 1
236 245 1
236 247 1
236 258 1
236 262 1
236 263 1
236 269 1
236 274 1
236 276 1
236 277 1
236 289 1
236 293 1
236 297 1
236 299 1
236 303 1
236 315 1
236 316 1
236 318 1
236 320 1
236 321 1
236 324 1
236 326 1
236 328 1
236 334 1
236 350 1
236 355 1
236 360 1
236 363 1
236 364 1
236 371 1
236 377 1
236 381 1
236 384 1
236 387 1
236 388 1
236 392 1
236 393 1
236 402 1
236 407 1
236 412 1
236 413 1
236 424 1
236 426 1
236 432 1
236 445 1
236 447 1
236 452 1
236 455 1
236 460 1
236 465 1
236 466 1
236 477 1
236 484 1
236 488 1
236 492 1
236 500 1
236 501 1
236 502 1
236 504 1
236 506 1
236 508 1
236 518 1
236 519 1
236 522 1
236 525 1
236 527 1
236 534 1
236 539 1
236 548 1
236 549 1
236 557 1
236 570 1
236 579 1
236 588 1
236 591 1
236 593 1
236 595 1
236 598 1
236 609 1
236 610 1
236 613 1
236 615 1
236 616 1
236 617 1
236 618 1
236 622 1
236 623 1
236 626 1
236 631 1
236 633 1
236 636 1
236 639 1
236 641 1
236 643 1
236 645 1
236 648 1
236 654 1
236 656 1
236 657 1
236 674 1
236 678 1
236 680 1
236 687 1
236 690 1
236 697 1
237 3 1
237 8 1
237 9 1
237 11 1
237 12 1
237 25 1
237 32 1
237 34 1
237 44 1
237 45 1
237 49 1
237 54 1
237 55 1
237 57 1
237 64 1
237 67 1
237 69 1
237 70 1
237 73 1
237 75 1
237 79 1
237 82 1
237 83 1
237 88 1
237 91 1
237 92 1
237 99 1
237 102 1
237 110 1
237 113 1
237 114 1
237 117 1
237 118 1
237 119 1
237 124 1
237 125 1
237 137 1
237 141 1
237 145 1
237 150 1
237 159 1
237 166 1
237 168 1
237 178 1
237 180 1
237 185 1
237 186 1
237 191 1
237 205 1
237 211 1
237 213 1
237 219 1
237 223 1
237 224 1
237 229 1
237 232 1
237 235 1
237 239 1
237 242 1
237 246 1
237 247 1
237 253 1
237 260 1
237 261 1
237 264 1
237 265 1
237 267 1
237 277 1
237 278 1
237 279 1
237 281 1
237 288 1
237 289 1
237 296 1
237 298 1
237 301 1
237 304 1
237 311 1
237 317 1
237 321 1
237 329 1
237 337 1
237 339 1
237 342 1
237 347 1
237 348 1
237 350 1
237 365 1
237 370 1
237 372 1
237 379 1
237 381 1
237 388 1
237 392 1
237 395 1
237 408 1
237 410 1
237 412 1
237 413 1
237 436 1
237 440 1
237 444 1
237 453 1
237 457 1
237 462 1
237 468 1
237 472 1
237 475 1
237 477 1
237 480 1
237 481 1
237 489 1
237 492 1
237 494 1
237 498 1
237 499 1
237 508 1
237 509 1
237 513 1
237 518 1
237 519 1
237 521 1
237 522 1
237 530 1
237 537 1
237 541 1
237 543 1
237 546 1
237 557 1
237 560 1
237 566 1
237 569 1
237 576 1
237 579 1
237 580 1
237 592 1
237 598 1
237 601 1
237 624 1
237 625 1
237 628 1
237 631 1
237 633 1
237 634 1
237 635 1
237 658 1
237 662 1
237 666 1
237 674 1
237 689 1
237 690 1
237 693 1
238 1 1
238 3 1
238 12 1
238 15 1
238 18 1
238 24 1
238 31 1
238 36 1
238 42 1
238 49 1
238 61 1
238 63 1
238 64 1
238 70 1
238 80 1
238 81 1
238 85 1
238 87 1
238 93 1
238 98 1
238 110 1
238 117 1
238 119 1
238 120 1
238 122 1
238 124 1
238 125 1
238 144 1
238 149 1
238 156 1
238 160 1
238 179 1
238 180 1
238 181 1
238 183 1
238 196 1
238 203 1
238 206 1
238 215 1
238 218 1
238 239 1
238 245 1
238 247 1
238 249 1
238 250 1
238 253 1
238 257 1
238 265 1
238 272 1
238 276 1
238 280 1
238 284 1
238 285 1
238 288 1
238 294 1
238 295 1
238 310 1
238 311 1
238 312 1
238 317 1
238 319 1
238 325 1
238 329 1
238 330 1
238 341 1
238 354 1
238 361 1
238 365 1
238 368 1
238 370 1
238 372 1
238 377 1
238 391 1
238 393 1
238 398 1
238 403 1
238 405 1
238 423 1
238 425 1
238 435 1
238 443 1
238 449 1
238 463 1
238 469 1
238 471 1
238 487 1
238 493 1
238 495 1
238 498 1
238 499 1
238 501 1
238 503 1
238 516 1
238 518 1
238 523 1
238 525 1
238 526 1
238 531 1
238 532 1
238 533 1
238 541 1
238 556 1
238 559 1
238 562 1
238 575 1
238 587 1
238 593 1
238 594 1
238 595 1
238 599 1
238 604 1
238 605 1
238 616 1
238 621 1
238 635 1
238 636 1
238 638 1
238 640 1
238 641 1
238 644 1
238 647 1
238 649 1
238 658 1
238 663 1
238 675 1
238 678 1
238 686 1
238 696 1
239 2 1
239 3 1
239 6 1
239 7 1
239 10 1
239 14 1
239 15 1
239 20 1
239 33 1
239 50 1
239 52 1
239 61 1
239 62 1
239 75 1
239 84 1
239 86 1
239 92 1
239 94 1
239 101 1
239 102 1
239 104 1
239 119 1
239 122 1
239 126 1
239 131 1
239 144 1
239 145 1
239 147 1
239 151 1
239 153 1
239 155 1
239 161 1
239 164 1
239 166 1
239 167 1
239 177 1
239 182 1
239 183 1
239 191 1
239 197 1
239 199 1
239 203 1
239 207 1
239 209 1
239 210 1
239 213 1
239 218 1
239 219 1
239 220 1
239 221 1
239 228 1
239 229 1
239 237 1
239 238 1
239 248 1
239 257 1
239 258 1
239 260 1
239 263 1
239 268 1
239 273 1
239 278 1
239 286 1
239 288 1
239 292 1
239 296 1
239 298 1
239 305 1
239 308 1
239 310 1
239 311 1
239 312 1
239 313 1
239 317 1
239 322 1
239 330 1
239 336 1
239 359 1
239 362 1
239 368 1
239 369 1
239 370 1
239 371 1
239 386 1
239 402 1
239 407 1
239 409 1
239 411 1
239 412 1
239 413 1
239 414 1
239 420 1
239 422 1
239 425 1
239 426 1
239 432 1
239 435 1
239 438 1
239 450 1
239 453 1
239 455 1
239 456 1
239 468 1
239 470 1
239 477 1
239 479 1
239 482 1
239 484 1
239 494 1
239 495 1
239 496 1
239 500 1
239 503 1
239 506 1
239 510 1
239 514 1
239 517 1
239 518 1
239 520 1
239 523 1
239 528 1
239 532 1
239 533 1
239 542 1
239 544 1
239 553 1
239 554 1
239 556 1
239 561 1
239 563 1
239 574 1
239 583 1
239 584 1
239 585 1
239 589 1
239 590 1
239 595 1
239 596 1
239 607 1
239 610 1
239 615 1
239 618 1
239 623 1
239 624 1
239 626 1
239 627 1
239 633 1
239 635 1
239 636 1
239 644 1
239 654 1
239 656 1
239 664 1
239 667 1
239 672 1
239 679 1
239 681 1
239 690 1
239 692 1
239 697 1
239 700 1
240 2 1
240 8 1
240 9 1
240 13 1
240 17 1
240 28 1
240 32 1
240 41 1
240 45 1
240 53 1
240 56 1
240 68 1
240 72 1
240 73 1
240 74 1
240 90 1
240 92 1
240 97 1
240 113 1
240 114 1
240 116 1
240 119 1
240 123 1
240 126 1
240 129 1
240 142 1
240 147 1
240 149 1
240 150 1
240 151 1
240 153 1
240 166 1
240 181 1
240 185 1
240 188 1
240 197 1
240 202 1
240 205 1
240 206 1
240 211 1
240 212 1
240 216 1
240 223 1
240 228 1
240 233 1
240 234 1
240 243 1
240 252 1
240 258 1
240 262 1
240 271 1
240 274 1
240 279 1
240 288 1
240 289 1
240 293 1
240 296 1
240 297 1
240 298 1
240 305 1
240 313 1
240 318 1
240 327 1
240 332 1
240 337 1
240 338 1
240 339 1
240 344 1
240 347 1
240 363 1
240 373 1
240 376 1
240 385 1
240 387 1
240 390 1
240 394 1
240 396 1
240 397 1
240 404 1
240 412 1
240 414 1
240 415 1
240 420 1
240 427 1
240 428 1
240 434 1
240 440 1
240 442 1
240 472 1
240 478 1
240 493 1
240 504 1
240 505 1
240 509 1
240 511 1
240 523 1
240 524 1
240 533 1
240 559 1
240 560 1
240 562 1
240 567 1
240 569 1
240 571 1
240 577 1
240 579 1
240 585 1
240 592 1
240 595 1
240 600 1
240 602 1
240 612 1
240 615 1
240 617 1
240 618 1
240 620 1
240 623 1
240 633 1
240 637 1
240 642 1
240 643 1
240 669 1
240 672 1
240 676 1
240 679 1
240 680 1
240 681 1
240 683 1
240 688 1
240 692 1
240 696 1
240 698 1
241 5 1
241 8 1
241 15 1
241 22 1
241 24 1
241 25 1
241 27 1
241 29 1
241 39 1
241 40 1
241 45 1
241 57 1
241 67 1
241 73 1
241 85 1
241 88 1
241 95 1
241 101 1
241 102 1
241 104 1
241 106 1
241 112 1
241 113 1
241 115 1
241 124 1
241 126 1
241 135 1
241 138 1
241 140 1
241 142 1
241 147 1
241 153 1
241 157 1
241 158 1
241 169 1
241 175 1
241 178 1
241 190 1
241 196 1
241 198 1
241 200 1
241 203 1
241 204 1
241 228 1
241 229 1
241 246 1
241 250 1
241 254 1
241 257 1
241 260 1
241 261 1
241 262 1
241 277 1
241 279 1
241 289 1
241 294 1
241 298 1
241 303 1
241 305 1
241 307 1
241 313 1
241 324 1
241 328 1
241 331 1
241 337 1
241 338 1
241 340 1
241 345 1
241 346 1
241 349 1
241 351 1
241 352 1
241 364 1
241 375 1
241 379 1
241 380 1
241 387 1
241 401 1
241 404 1
241 416 1
241 417 1
241 423 1
241 432 1
241 435 1
241 437 1
241 442 1
241 443 1
241 444 1
241 449 1
241 463 1
241 467 1
241 469 1
241 473 1
241 475 1
241 477 1
241 483 1
241 487 1
241 496 1
241 497 1
241 510 1
241 515 1
241 518 1
241 519 1
241 522 1
241 526 1
241 529 1
241 535 1
241 536 1
241 539 1
241 542 1
241 545 1
241 549 1
241 561 1
241 566 1
241 569 1
241 570 1
241 571 1
241 577 1
241 578 1
241 586 1
241 587 1
241 589 1
241 590 1
241 594 1
241 600 1
241 605 1
241 617 1
241 621 1
241 622 1
241 623 1
241 626 1
241 627 1
241 628 1
241 630 1
241 631 1
241 644 1
241 654 1
241 657 1
241 669 1
241 677 1
241 681 1
241 692 1
241 695 1
241 696 1
242 3 1
242 5 1
242 6 1
242 14 1
242 15 1
242 16 1
242 25 1
242 41 1
242 43 1
242 44 1
242 51 1
242 55 1
242 58 1
242 72 1
242 73 1
242 74 1
242 75 1
242 79 1
242 80 1
242 84 1
242 88 1
242 90 1
242 102 1
242 103 1
242 104 1
242 112 1
242 114 1
242 117 1
242 128 1
242 130 1
242 134 1
242 142 1
242 145 1
242 164 1
242 169 1
242 175 1
242 181 1
242 183 1
242 185 1
242 190 1
242 192 1
242 194 1
242 199 1
242 210 1
242 212 1
242 215 1
242 217 1
242 219 1
242 220 1
242 225 1
242 226 1
242 229 1
242 232 1
242 235 1
242 236 1
242 237 1
242 243 1
242 244 1
242 252 1
242 258 1
242 270 1
242 276 1
242 278 1
242 283 1
242 288 1
242 294 1
242 295 1
242 296 1
242 301 1
242 302 1
242 305 1
242 307 1
242 312 1
242 313 1
242 322 1
242 324 1
242 325 1
242 328 1
242 332 1
242 348 1
242 363 1
242 365 1
242 368 1
242 371 1
242 372 1
242 377 1
242 386 1
242 387 1
242 390 1
242 391 1
242 392 1
242 401 1
242 405 1
242 410 1
242 413 1
242 419 1
242 420 1
242 421 1
242 441 1
242 445 1
242 446 1
242 453 1
242 454 1
242 455 1
242 463 1
242 468 1
242 472 1
242 476 1
242 477 1
242 480 1
242 482 1
242 485 1
242 489 1
242 491 1
242 494 1
242 495 1
242 512 1
242 515 1
242 517 1
242 523 1
242 538 1
242 540 1
242 541 1
242 546 1
242 548 1
242 550 1
242 553 1
242 556 1
242 558 1
242 568 1
242 569 1
242 577 1
242 584 1
242 590 1
242 594 1
242 596 1
242 601 1
242 603 1
242 611 1
242 618 1
242 620 1
242 627 1
242 639 1
242 650 1
242 657 1
242 674 1
242 675 1
242 688 1
242 693 1
242 694 1
242 695 1
242 699 1
242 700 1
243 2 1
243 3 1
243 10 1
243 12 1
243 16 1
243 18 1
243 26 1
243 29 1
243 34 1
243 37 1
243 49 1
243 64 1
243 70 1
243 76 1
243 80 1
243 84 1
243 87 1
243 96 1
243 97 1
243 102 1
243 103 1
243 108 1
243 113 1
243 121 1
243 122 1
243 128 1
243 132 1
243 134 1
243 138 1
243 140 1
243 148 1
243 149 1
243 151 1
243 153 1
243 166 1
243 175 1
243 194 1
243 197 1
243 198 1
243 206 1
243 208 1
243 227 1
243 228 1
243 232 1
243 233 1
243 240 1
243 242 1
243 249 1
243 251 1
243 252 1
243 253 1
243 257 1
243 258 1
243 268 1
243 269 1
243 273 1
243 295 1
243 301 1
243 302 1
243 303 1
243 306 1
243 313 1
243 314 1
243 318 1
243 322 1
243 323 1
243 334 1
243 335 1
243 350 1
243 353 1
243 371 1
243 378 1
243 381 1
243 387 1
243 389 1
243 391 1
243 396 1
243 397 1
243 406 1
243 407 1
243 410 1
243 429 1
243 432 1
243 435 1
243 444 1
243 449 1
243 455 1
243 461 1
243 462 1
243 467 1
243 469 1
243 482 1
243 484 1
243 497 1
243 498 1
243 504 1
243 511 1
243 516 1
243 519 1
243 521 1
243 532 1
243 533 1
243 535 1
243 538 1
243 539 1
243 541 1
243 542 1
243 544 1
243 557 1
243 562 1
243 573 1
243 576 1
243 580 1
243 593 1
243 602 1
243 603 1
243 611 1
243 619 1
243 622 1
243 623 1
243 625 1
243 629 1
243 634 1
243 639 1
243 646 1
243 649 1
243 657 1
243 660 1
243 664 1
243 665 1
243 688 1
243 690 1
243 691 1
243 693 1
243 694 1
243 696 1
243 700 1
244 3 1
244 5 1
244 11 1
244 15 1
244 29 1
244 32 1
244 33 1
244 37 1
244 42 1
244 47 1
244 49 1
244 50 1
244 52 1
244 55 1
244 60 1
244 67 1
244 71 1
244 73 1
244 74 1
244 87 1
244 88 1
244 93 1
244 102 1
244 103 1
244 105 1
244 111 1
244 118 1
244 120 1
244 132 1
244 142 1
244 147 1
244 150 1
244 162 1
244 169 1
244 173 1
244 179 1
244 181 1
244 189 1
244 196 1
244 199 1
244 204 1
244 211 1
244 215 1
244 217 1
244 219 1
244 227 1
244 234 1
244 235 1
244 242 1
244 246 1
244 251 1
244 255 1
244 259 1
244 262 1
244 264 1
244 268 1
244 279 1
244 280 1
244 285 1
244 286 1
244 294 1
244 299 1
244 302 1
244 308 1
244 313 1
244 314 1
244 316 1
244 328 1
244 330 1
244 332 1
244 342 1
244 351 1
244 362 1
244 364 1
244 367 1
244 372 1
244 373 1
244 376 1
244 385 1
244 397 1
244 398 1
244 406 1
244 408 1
244 426 1
244 427 1
244 428 1
244 434 1
244 436 1
244 440 1
244 447 1
244 452 1
244 458 1
244 459 1
244 467 1
244 472 1
244 477 1
244 479 1
244 497 1
244 498 1
244 503 1
244 505 1
244 509 1
244 510 1
244 511 1
244 514 1
244 515 1
244 518 1
244 520 1
244 525 1
244 530 1
244 551 1
244 563 1
244 568 1
244 592 1
244 603 1
244 608 1
244 613 1
244 614 1
244 623 1
244 624 1
244 629 1
244 630 1
244 636 1
244 639 1
244 641 1
244 650 1
244 653 1
244 658 1
244 660 1
244 663 1
244 669 1
244 677 1
244 681 1
244 682 1
244 685 1
244 686 1
244 687 1
245 3 1
245 9 1
245 13 1
245 31 1
245 46 1
245 48 1
245 49 1
245 51 1
245 60 1
245 61 1
245 71 1
245 81 1
245 82 1
245 84 1
245 85 1
245 88 1
245 92 1
245 96 1
245 101 1
245 111 1
245 112 1
245 121 1
245 122 1
245 126 1
245 127 1
245 130 1
245 137 1
245 138 1
245 140 1
245 142 1
245 145 1
245 146 1
245 150 1
245 158 1
245 159 1
245 164 1
245 170 1
245 171 1
245 172 1
245 177 1
245 179 1
245 181 1
245 184 1
245 186 1
245 200 1
245 209 1
245 218 1
245 221 1
245 227 1
245 228 1
245 229 1
245 230 1
245 236 1
245 238 1
245 247 1
245 254 1
245 260 1
245 264 1
245 267 1
245 268 1
245 282 1
245 286 1
245 290 1
245 292 1
245 297 1
245 301 1
245 303 1
245 317 1
245 332 1
245 333 1
245 334 1
245 336 1
245 341 1
245 359 1
245 369 1
245 376 1
245 379 1
245 382 1
245 386 1
245 387 1
245 389 1
245 394 1
245 400 1
245 406 1
245 407 1
245 413 1
245 425 1
245 426 1
245 428 1
245 429 1
245 430 1
245 431 1
245 434 1
245 438 1
245 439 1
245 441 1
245 442 1
245 447 1
245 452 1
245 454 1
245 464 1
245 465 1
245 469 1
245 483 1
245 485 1
245 490 1
245 501 1
245 509 1
245 515 1
245 521 1
245 530 1
245 538 1
245 544 1
245 545 1
245 547 1
245 557 1
245 577 1
245 581 1
245 584 1
245 587 1
245 597 1
245 604 1
245 613 1
245 615 1
245 625 1
245 627 1
245 628 1
245 633 1
245 637 1
245 638 1
245 645 1
245 646 1
245 648 1
245 651 1
245 653 1
245 654 1
245 666 1
245 673 1
245 681 1
245 683 1
245 686 1
245 688 1
245 689 1
245 690 1
245 698 1
246 14 1
246 19 1
246 29 1
246 36 1
246 43 1
246 44 1
246 45 1
246 46 1
246 50 1
246 52 1
246 56 1
246 57 1
246 60 1
246 82 1
246 86 1
246 91 1
246 94 1
246 96 1
246 97 1
246 101 1
246 104 1
246 107 1
246 112 1
246 119 1
246 127 1
246 134 1
246 138 1
246 139 1
246 149 1
246 158 1
246 161 1
246 164 1
246 166 1
246 167 1
246 169 1
246 176 1
246 180 1
246 182 1
246 184 1
246 185 1
246 187 1
246 200 1
246 202 1
246 207 1
246 214 1
246 216 1
246 223 1
246 226 1
246 237 1
246 241 1
246 244 1
246 247 1
246 249 1
246 252 1
246 253 1
246 256 1
246 258 1
246 264 1
246 266 1
246 272 1
246 275 1
246 277 1
246 284 1
246 297 1
246 301 1
246 302 1
246 310 1
246 317 1
246 320 1
246 322 1
246 327 1
246 330 1
246 336 1
246 337 1
246 338 1
246 345 1
246 347 1
246 348 1
246 351 1
246 355 1
246 367 1
246 368 1
246 385 1
246 395 1
246 397 1
246 399 1
246 405 1
246 409 1
246 412 1
246 415 1
246 422 1
246 424 1
246 427 1
246 429 1
246 433 1
246 434 1
246 435 1
246 442 1
246 452 1
246 454 1
246 458 1
246 465 1
246 476 1
246 480 1
246 483 1
246 485 1
246 490 1
246 491 1
246 494 1
246 498 1
246 506 1
246 509 1
246 514 1
246 526 1
246 530 1
246 531 1
246 532 1
246 533 1
246 536 1
246 543 1
246 554 1
246 559 1
246 561 1
246 573 1
246 577 1
246 578 1
246 583 1
246 586 1
246 597 1
246 598 1
246 603 1
246 604 1
246 610 1
246 619 1
246 629 1
246 641 1
246 646 1
246 652 1
246 653 1
246 654 1
246 661 1
246 663 1
246 665 1
246 676 1
246 679 1
246 681 1
246 685 1
246 688 1
246 696 1
247 2 1
247 7 1
247 12 1
247 14 1
247 19 1
247 33 1
247 36 1
247 38 1
247 40 1
247 44 1
247 47 1
247 50 1
247 57 1
247 61 1
247 81 1
247 86 1
247 87 1
247 94 1
247 97 1
247 98 1
247 106 1
247 109 1
247 119 1
247 121 1
247 122 1
247 124 1
247 126 1
247 127 1
247 128 1
247 132 1
247 155 1
247 158 1
247 167 1
247 176 1
247 177 1
247 179 1
247 187 1
247 199 1
247 203 1
247 206 1
247 208 1
247 209 1
247 216 1
247 222 1
247 223 1
247 225 1
247 228 1
247 236 1
247 237 1
247 238 1
247 245 1
247 246 1
247 255 1
247 256 1
247 273 1
247 288 1
247 296 1
247 298 1
247 305 1
247 310 1
247 317 1
247 319 1
247 330 1
247 347 1
247 370 1
247 371 1
247 373 1
247 385 1
247 387 1
247 393 1
247 395 1
247 397 1
247 410 1
247 418 1
247 423 1
247 428 1
247 433 1
247 439 1
247 441 1
247 451 1
247 457 1
247 459 1
247 470 1
247 481 1
247 482 1
247 484 1
247 485 1
247 486 1
247 488 1
247 502 1
247 503 1
247 521 1
247 522 1
247 524 1
247 531 1
247 532 1
247 534 1
247 536 1
247 548 1
247 553 1
247 555 1
247 556 1
247 557 1
247 561 1
247 566 1
247 570 1
247 571 1
247 573 1
247 578 1
247 580 1
247 582 1
247 584 1
247 588 1
247 591 1
247 597 1
247 615 1
247 616 1
247 623 1
247 627 1
247 630 1
247 632 1
247 634 1
247 644 1
247 645 1
247 646 1
247 647 1
247 648 1
247 649 1
247 652 1
247 657 1
247 662 1
247 663 1
247 667 1
247 676 1
247 682 1
247 684 1
247 691 1
247 693 1
247 695 1
247 700 1
248 10 1
248 11 1
248 24 1
248 25 1
248 26 1
248 32 1
248 35 1
248 38 1
248 54 1
248 55 1
248 58 1
248 63 1
248 64 1
248 67 1
248 73 1
248 74 1
248 77 1
248 78 1
248 92 1
248 97 1
248 105 1
248 110 1
248 112 1
248 118 1
248 123 1
248 129 1
248 133 1
248 137 1
248 138 1
248 148 1
248 151 1
248 152 1
248 155 1
248 159 1
248 162 1
248 165 1
248 169 1
248 175 1
248 186 1
248 195 1
248 196 1
248 199 1
248 202 1
248 206 1
248 211 1
248 218 1
248 219 1
248 220 1
248 224 1
248 226 1
248 227 1
248 228 1
248 234 1
248 239 1
248 254 1
248 256 1
248 262 1
248 265 1
248 276 1
248 277 1
248 280 1
248 288 1
248 290 1
248 291 1
248 303 1
248 310 1
248 330 1
248 341 1
248 343 1
248 345 1
248 346 1
248 347 1
248 352 1
248 355 1
248 364 1
248 366 1
248 371 1
248 376 1
248 378 1
248 381 1
248 382 1
248 383 1
248 384 1
248 387 1
248 392 1
248 399 1
248 405 1
248 409 1
248 410 1
248 413 1
248 415 1
248 426 1
248 431 1
248 449 1
248 457 1
248 458 1
248 460 1
248 461 1
248 468 1
248 475 1
248 477 1
248 479 1
248 483 1
248 485 1
248 486 1
248 491 1
248 497 1
248 501 1
248 506 1
248 510 1
248 512 1
248 515 1
248 521 1
248 527 1
248 528 1
248 538 1
248 543 1
248 555 1
248 564 1
248 577 1
248 580 1
248 585 1
248 591 1
248 598 1
248 599 1
248 613 1
248 618 1
248 625 1
248 627 1
248 634 1
248 636 1
248 638 1
248 649 1
248 664 1
248 673 1
248 679 1
248 685 1
248 687 1
248 696 1
249 3 1
249 4 1
249 6 1
249 10 1
249 21 1
249 25 1
249 31 1
249 32 1
249 36 1
249 46 1
249 49 1
249 64 1
249 65 1
249 66 1
249 67 1
249 68 1
249 75 1
249 80 1
249 81 1
249 89 1
249 92 1
249 96 1
249 106 1
249 114 1
249 116 1
249 127 1
249 128 1
249 137 1
249 151 1
249 157 1
249 158 1
249 162 1
249 176 1
249 178 1
249 179 1
249 187 1
249 189 1
249 190 1
249 191 1
249 192 1
249 199 1
249 213 1
249 214 1
249 223 1
249 229 1
249 231 1
249 235 1
249 238 1
249 243 1
249 246 1
249 254 1
249 255 1
249 258 1
249 260 1
249 264 1
249 270 1
249 271 1
249 274 1
249 282 1
249 291 1
249 305 1
249 318 1
249 320 1
249 326 1
249 327 1
249 332 1
249 337 1
249 341 1
249 344 1
249 358 1
249 360 1
249 366 1
249 389 1
249 401 1
249 406 1
249 409 1
249 411 1
249 412 1
249 417 1
249 423 1
249 429 1
249 430 1
249 436 1
249 449 1
249 454 1
249 459 1
249 462 1
249 469 1
249 472 1
249 480 1
249 482 1
249 486 1
249 504 1
249 512 1
249 513 1
249 517 1
249 522 1
249 523 1
249 527 1
249 532 1
249 533 1
249 536 1
249 537 1
249 540 1
249 544 1
249 546 1
249 549 1
249 550 1
249 559 1
249 562 1
249 563 1
249 574 1
249 581 1
249 604 1
249 612 1
249 613 1
249 617 1
249 618 1
249 627 1
249 631 1
249 632 1
249 635 1
249 640 1
249 659 1
249 666 1
249 672 1
249 680 1
249 683 1
249 684 1
249 685 1
249 696 1
250 1 1
250 4 1
250 16 1
250 20 1
250 24 1
250 29 1
250 32 1
250 38 1
250 39 1
250 51 1
250 53 1
250 61 1
250 64 1
250 65 1
250 66 1
250 75 1
250 78 1
250 86 1
250 91 1
250 101 1
250 104 1
250 105 1
250 106 1
250 109 1
250 114 1
250 116 1
250 121 1
250 123 1
250 125 1
250 129 1
250 130 1
250 131 1
250 133 1
250 140 1
250 145 1
250 148 1
250 150 1
250 155 1
250 157 1
250 158 1
250 164 1
250 172 1
250 181 1
250 189 1
250 190 1
250 204 1
250 206 1
250 209 1
250 213 1
250 216 1
250 221 1
250 227 1
250 238 1
250 241 1
250 251 1
250 255 1
250 259 1
250 269 1
250 274 1
250 277 1
250 290 1
250 291 1
250 293 1
250 297 1
250 311 1
250 312 1
250 318 1
250 320 1
250 325 1
250 328 1
250 330 1
250 331 1
250 336 1
250 341 1
250 344 1
250 356 1
250 359 1
250 364 1
250 372 1
250 375 1
250 376 1
250 381 1
250 384 1
250 385 1
250 388 1
250 393 1
250 399 1
250 400 1
250 405 1
250 413 1
250 416 1
250 417 1
250 425 1
250 432 1
250 434 1
250 436 1
250 451 1
250 452 1
250 459 1
250 460 1
250 466 1
250 470 1
250 481 1
250 482 1
250 484 1
250 487 1
250 489 1
250 492 1
250 493 1
250 496 1
250 498 1
250 499 1
250 510 1
250 515 1
250 516 1
250 521 1
250 526 1
250 528 1
250 530 1
250 532 1
250 533 1
250 544 1
250 557 1
250 558 1
250 559 1
250 569 1
250 572 1
250 580 1
250 581 1
250 588 1
250 597 1
250 598 1
250 599 1
250 600 1
250 601 1
250 610 1
250 612 1
250 613 1
250 622 1
250 623 1
250 640 1
250 645 1
250 646 1
250 647 1
250 652 1
250 654 1
250 655 1
250 660 1
250 669 1
250 672 1
250 674 1
250 677 1
250 678 1
250 684 1
250 686 1
250 691 1
251 4 1
251 10 1
251 11 1
251 12 1
251 13 1
251 20 1
251 23 1
251 32 1
251 35 1
251 41 1
251 50 1
251 51 1
251 59 1
251 70 1
251 74 1
251 77 1
251 78 1
251 83 1
251 90 1
251 93 1
251 97 1
251 99 1
251 100 1
251 103 1
251 104 1
251 108 1
251 110 1
251 113 1
251 116 1
251 118 1
251 122 1
251 128 1
251 131 1
251 139 1
251 145 1
251 146 1
251 159 1
251 160 1
251 162 1
251 163 1
251 168 1
251 170 1
251 177 1
251 178 1
251 179 1
251 183 1
251 184 1
251 189 1
251 190 1
251 192 1
251 201 1
251 209 1
251 211 1
251 217 1
251 220 1
251 230 1
251 234 1
251 235 1
251 243 1
251 244 1
251 250 1
251 256 1
251 265 1
251 270 1
251 285 1
251 286 1
251 293 1
251 296 1
251 298 1
251 318 1
251 321 1
251 330 1
251 335 1
251 336 1
251 338 1
251 341 1
251 346 1
251 348 1
251 350 1
251 360 1
251 364 1
251 366 1
251 370 1
251 371 1
251 381 1
251 387 1
251 390 1
251 391 1
251 395 1
251 400 1
251 416 1
251 420 1
251 433 1
251 440 1
251 442 1
251 446 1
251 447 1
251 452 1
251 457 1
251 463 1
251 466 1
251 481 1
251 484 1
251 493 1
251 503 1
251 510 1
251 512 1
251 514 1
251 526 1
251 529 1
251 530 1
251 538 1
251 540 1
251 552 1
251 560 1
251 562 1
251 563 1
251 570 1
251 572 1
251 581 1
251 587 1
251 592 1
251 594 1
251 599 1
251 600 1
251 601 1
251 603 1
251 605 1
251 610 1
251 615 1
251 630 1
251 635 1
251 641 1
251 642 1
251 643 1
251 644 1
251 648 1
251 650 1
251 651 1
251 652 1
251 657 1
251 663 1
251 668 1
251 700 1
252 17 1
252 23 1
252 30 1
252 31 1
252 45 1
252 54 1
252 55 1
252 68 1
252 71 1
252 74 1
252 81 1
252 82 1
252 85 1
252 89 1
252 93 1
252 111 1
252 113 1
252 119 1
252 121 1
252 125 1
252 131 1
252 132 1
252 140 1
252 142 1
252 143 1
252 144 1
252 153 1
252 158 1
252 166 1
252 195 1
252 201 1
252 204 1
252 214 1
252 217 1
252 220 1
252 226 1
252 240 1
252 242 1
252 243 1
252 246 1
252 261 1
252 262 1
252 267 1
252 271 1
252 272 1
252 273 1
252 274 1
252 275 1
252 277 1
252 279 1
252 290 1
252 292 1
252 296 1
252 300 1
252 305 1
252 307 1
252 309 1
252 310 1
252 317 1
252 323 1
252 324 1
252 332 1
252 333 1
252 347 1
252 351 1
252 352 1
252 357 1
252 358 1
252 376 1
252 377 1
252 393 1
252 401 1
252 402 1
252 414 1
252 416 1
252 420 1
252 422 1
252 424 1
252 439 1
252 447 1
252 462 1
252 465 1
252 466 1
252 467 1
252 472 1
252 474 1
252 497 1
252 505 1
252 507 1
252 513 1
252 548 1
252 551 1
252 554 1
252 564 1
252 572 1
252 574 1
252 578 1
252 583 1
252 590 1
252 593 1
252 596 1
252 602 1
252 605 1
252 607 1
252 609 1
252 613 1
252 614 1
252 620 1
252 623 1
252 625 1
252 628 1
252 629 1
252 641 1
252 651 1
252 652 1
252 661 1
252 662 1
252 664 1
252 667 1
252 678 1
252 684 1
252 687 1
252 691 1
253 7 1
253 11 1
253 12 1
253 15 1
253 26 1
253 27 1
253 29 1
253 33 1
253 44 1
253 49 1
253 55 1
253 57 1
253 63 1
253 69 1
253 79 1
253 84 1
253 114 1
253 130 1
253 134 1
253 147 1
253 154 1
253 161 1
253 170 1
253 176 1
253 177 1
253 178 1
253 179 1
253 180 1
253 182 1
253 187 1
253 188 1
253 199 1
253 207 1
253 219 1
253 221 1
253 225 1
253 230 1
253 237 1
253 238 1
253 243 1
253 246 1
253 269 1
253 276 1
253 280 1
253 282 1
253 286 1
253 291 1
253 292 1
253 294 1
253 295 1
253 297 1
253 299 1
253 308 1
253 311 1
253 312 1
253 313 1
253 319 1
253 321 1
253 326 1
253 347 1
253 366 1
253 367 1
253 369 1
253 372 1
253 378 1
253 380 1
253 388 1
253 391 1
253 392 1
253 393 1
253 400 1
253 404 1
253 408 1
253 413 1
253 415 1
253 416 1
253 417 1
253 429 1
253 435 1
253 436 1
253 437 1
253 462 1
253 464 1
253 467 1
253 470 1
253 476 1
253 481 1
253 482 1
253 539 1
253 548 1
253 550 1
253 553 1
253 567 1
253 568 1
253 585 1
253 586 1
253 591 1
253 601 1
253 609 1
253 616 1
253 621 1
253 622 1
253 623 1
253 632 1
253 633 1
253 636 1
253 637 1
253 640 1
253 644 1
253 647 1
253 651 1
253 670 1
253 673 1
253 690 1
253 692 1
254 6 1
254 9 1
254 15 1
254 16 1
254 18 1
254 19 1
254 22 1
254 26 1
254 33 1
254 39 1
254 47 1
254 51 1
254 53 1
254 58 1
254 69 1
254 72 1
254 84 1
254 87 1
254 90 1
254 93 1
254 94 1
254 99 1
254 106 1
254 109 1
254 110 1
254 119 1
254 124 1
254 134 1
254 135 1
254 137 1
254 144 1
254 151 1
254 157 1
254 158 1
254 160 1
254 164 1
254 165 1
254 166 1
254 175 1
254 189 1
254 190 1
254 192 1
254 195 1
254 196 1
254 200 1
254 201 1
254 203 1
254 204 1
254 212 1
254 213 1
254 217 1
254 226 1
254 241 1
254 245 1
254 248 1
254 249 1
254 256 1
254 263 1
254 274 1
254 289 1
254 291 1
254 295 1
254 303 1
254 319 1
254 332 1
254 338 1
254 341 1
254 343 1
254 348 1
254 359 1
254 367 1
254 369 1
254 377 1
254 383 1
254 399 1
254 401 1
254 402 1
254 404 1
254 411 1
254 415 1
254 424 1
254 426 1
254 427 1
254 432 1
254 441 1
254 442 1
254 443 1
254 445 1
254 447 1
254 448 1
254 452 1
254 454 1
254 456 1
254 457 1
254 458 1
254 465 1
254 467 1
254 469 1
254 472 1
254 474 1
254 482 1
254 483 1
254 489 1
254 499 1
254 501 1
254 508 1
254 514 1
254 522 1
254 528 1
254 538 1
254 549 1
254 550 1
254 556 1
254 561 1
254 563 1
254 566 1
254 581 1
254 585 1
254 592 1
254 593 1
254 598 1
254 608 1
254 619 1
254 622 1
254 625 1
254 628 1
254 629 1
254 631 1
254 643 1
254 648 1
254 658 1
254 660 1
254 665 1
254 670 1
254 678 1
254 679 1
254 681 1
254 692 1
254 694 1
254 695 1
254 699 1
254 700 1
255 7 1
255 17 1
255 22 1
255 23 1
255 35 1
255 36 1
255 37 1
255 40 1
255 42 1
255 48 1
255 58 1
255 66 1
255 67 1
255 77 1
255 81 1
255 82 1
255 84 1
255 87 1
255 89 1
255 91 1
255 93 1
255 96 1
255 99 1
255 106 1
255 113 1
255 114 1
255 115 1
255 118 1
255 128 1
255 139 1
255 142 1
255 149 1
255 153 1
255 155 1
255 160 1
255 163 1
255 166 1
255 169 1
255 171 1
255 177 1
255 178 1
255 181 1
255 193 1
255 194 1
255 198 1
255 203 1
255 218 1
255 223 1
255 233 1
255 244 1
255 247 1
255 249 1
255 250 1
255 258 1
255 270 1
255 271 1
255 277 1
255 287 1
255 292 1
255 294 1
255 300 1
255 309 1
255 330 1
255 331 1
255 340 1
255 348 1
255 350 1
255 352 1
255 355 1
255 356 1
255 363 1
255 365 1
255 370 1
255 373 1
255 380 1
255 385 1
255 386 1
255 388 1
255 391 1
255 394 1
255 395 1
255 396 1
255 400 1
255 402 1
255 409 1
255 416 1
255 418 1
255 420 1
255 423 1
255 441 1
255 449 1
255 452 1
255 458 1
255 460 1
255 467 1
255 470 1
255 476 1
255 483 1
255 484 1
255 491 1
255 492 1
255 499 1
255 503 1
255 510 1
255 514 1
255 520 1
255 525 1
255 531 1
255 534 1
255 536 1
255 542 1
255 545 1
255 550 1
255 556 1
255 557 1
255 566 1
255 572 1
255 577 1
255 583 1
255 587 1
255 589 1
255 590 1
255 599 1
255 600 1
255 604 1
255 612 1
255 613 1
255 625 1
255 627 1
255 630 1
255 636 1
255 640 1
255 650 1
255 667 1
255 669 1
255 675 1
255 684 1
255 690 1
255 693 1
255 695 1
256 1 1
256 2 1
256 7 1
256 8 1
256 14 1
256 18 1
256 20 1
256 24 1
256 28 1
256 29 1
256 30 1
256 43 1
256 50 1
256 51 1
256 53 1
256 59 1
256 61 1
256 62 1
256 65 1
256 66 1
256 69 1
256 70 1
256 72 1
256 83 1
256 91 1
256 95 1
256 96 1
256 99 1
256 101 1
256 102 1
256 103 1
256 108 1
256 112 1
256 113 1
256 139 1
256 140 1
256 145 1
256 149 1
256 156 1
256 162 1
256 168 1
256 192 1
256 194 1
256 195 1
256 202 1
256 222 1
256 232 1
256 246 1
256 247 1
256 248 1
256 251 1
256 254 1
256 260 1
256 263 1
256 266 1
256 267 1
256 274 1
256 276 1
256 278 1
256 280 1
256 283 1
256 291 1
256 294 1
256 295 1
256 297 1
256 302 1
256 306 1
256 311 1
256 314 1
256 317 1
256 320 1
256 341 1
256 345 1
256 346 1
256 357 1
256 359 1
256 369 1
256 371 1
256 376 1
256 380 1
256 384 1
256 387 1
256 388 1
256 390 1
256 395 1
256 397 1
256 398 1
256 402 1
256 410 1
256 415 1
256 417 1
256 419 1
256 427 1
256 428 1
256 438 1
256 441 1
256 444 1
256 445 1
256 448 1
256 450 1
256 483 1
256 486 1
256 487 1
256 492 1
256 503 1
256 505 1
256 523 1
256 547 1
256 550 1
256 553 1
256 559 1
256 561 1
256 569 1
256 572 1
256 573 1
256 576 1
256 577 1
256 578 1
256 579 1
256 585 1
256 590 1
256 597 1
256 602 1
256 612 1
256 614 1
256 615 1
256 617 1
256 631 1
256 635 1
256 644 1
256 645 1
256 653 1
256 656 1
256 661 1
256 674 1
256 676 1
256 679 1
256 684 1
256 685 1
256 687 1
256 690 1
256 691 1
256 692 1
256 696 1
257 4 1
257 6 1
257 11 1
257 13 1
257 14 1
257 26 1
257 41 1
257 42 1
257 43 1
257 46 1
257 56 1
257 64 1
257 66 1
257 68 1
257 70 1
257 74 1
257 79 1
257 109 1
257 110 1
257 117 1
257 118 1
257 122 1
257 128 1
257 145 1
257 146 1
257 149 1
257 150 1
257 182 1
257 194 1
257 202 1
257 204 1
257 219 1
257 224 1
257 230 1
257 231 1
257 238 1
257 239 1
257 241 1
257 243 1
257 260 1
257 261 1
257 272 1
257 279 1
257 280 1
257 281 1
257 282 1
257 285 1
257 288 1
257 298 1
257 304 1
257 308 1
257 312 1
257 321 1
257 324 1
257 326 1
257 329 1
257 336 1
257 337 1
257 343 1
257 344 1
257 374 1
257 377 1
257 379 1
257 381 1
257 385 1
257 388 1
257 389 1
257 394 1
257 396 1
257 401 1
257 402 1
257 404 1
257 406 1
257 412 1
257 416 1
257 419 1
257 421 1
257 430 1
257 441 1
257 445 1
257 446 1
257 452 1
257 458 1
257 465 1
257 470 1
257 472 1
257 474 1
257 475 1
257 478 1
257 480 1
257 486 1
257 499 1
257 501 1
257 505 1
257 516 1
257 521 1
257 524 1
257 527 1
257 534 1
257 535 1
257 536 1
257 547 1
257 549 1
257 551 1
257 558 1
257 560 1
257 574 1
257 586 1
257 595 1
257 603 1
257 604 1
257 605 1
257 619 1
257 623 1
257 625 1
257 628 1
257 632 1
257 652 1
257 655 1
257 656 1
257 658 1
257 669 1
257 674 1
257 684 1
257 686 1
257 687 1
257 690 1
257 697 1
257 700 1
258 1 1
258 6 1
258 9 1
258 14 1
258 15 1
258 16 1
258 21 1
258 28 1
258 38 1
258 44 1
258 54 1
258 56 1
258 61 1
258 62 1
258 63 1
258 66 1
258 74 1
258 75 1
258 79 1
258 84 1
258 89 1
258 91 1
258 96 1
258 97 1
258 104 1
258 106 1
258 116 1
258 118 1
258 129 1
258 130 1
258 135 1
258 139 1
258 142 1
258 156 1
258 159 1
258 164 1
258 165 1
258 168 1
258 170 1
258 171 1
258 183 1
258 186 1
258 189 1
258 195 1
258 196 1
258 197 1
258 200 1
258 205 1
258 212 1
258 213 1
258 218 1
258 219 1
258 221 1
258 222 1
258 223 1
258 224 1
258 229 1
258 232 1
258 234 1
258 236 1
258 239 1
258 240 1
258 242 1
258 243 1
258 246 1
258 249 1
258 255 1
258 271 1
258 273 1
258 279 1
258 284 1
258 287 1
258 288 1
258 293 1
258 294 1
258 307 1
258 321 1
258 323 1
258 325 1
258 344 1
258 348 1
258 360 1
258 371 1
258 374 1
258 375 1
258 383 1
258 385 1
258 388 1
258 392 1
258 397 1
258 411 1
258 413 1
258 419 1
258 429 1
258 433 1
258 439 1
258 440 1
258 442 1
258 443 1
258 447 1
258 454 1
258 459 1
258 470 1
258 471 1
258 480 1
258 485 1
258 488 1
258 490 1
258 493 1
258 494 1
258 497 1
258 499 1
258 501 1
258 505 1
258 538 1
258 540 1
258 547 1
258 548 1
258 549 1
258 551 1
258 556 1
258 569 1
258 574 1
258 580 1
258 583 1
258 586 1
258 587 1
258 591 1
258 594 1
258 601 1
258 605 1
258 606 1
258 608 1
258 612 1
258 614 1
258 618 1
258 620 1
258 628 1
258 637 1
258 647 1
258 651 1
258 661 1
258 662 1
258 668 1
258 672 1
258 683 1
258 688 1
258 689 1
258 691 1
259 4 1
259 5 1
259 14 1
259 20 1
259 40 1
259 46 1
259 52 1
259 59 1
259 62 1
259 64 1
259 66 1
259 72 1
259 74 1
259 75 1
259 81 1
259 93 1
259 95 1
259 96 1
259 104 1
259 114 1
259 119 1
259 123 1
259 124 1
259 131 1
259 138 1
259 146 1
259 155 1
259 160 1
259 163 1
259 164 1
259 166 1
259 170 1
259 171 1
259 173 1
259 180 1
259 181 1
259 182 1
259 188 1
259 190 1
259 191 1
259 203 1
259 228 1
259 229 1
259 244 1
259 250 1
259 266 1
259 279 1
259 290 1
259 293 1
259 294 1
259 296 1
259 304 1
259 306 1
259 307 1
259 311 1
259 316 1
259 323 1
259 325 1
259 328 1
259 334 1
259 338 1
259 339 1
259 347 1
259 357 1
259 358 1
259 377 1
259 379 1
259 380 1
259 396 1
259 402 1
259 404 1
259 410 1
259 412 1
259 417 1
259 418 1
259 419 1
259 421 1
259 422 1
259 425 1
259 427 1
259 435 1
259 442 1
259 454 1
259 456 1
259 459 1
259 463 1
259 470 1
259 474 1
259 475 1
259 482 1
259 487 1
259 488 1
259 491 1
259 496 1
259 497 1
259 504 1
259 507 1
259 511 1
259 514 1
259 523 1
259 532 1
259 547 1
259 550 1
259 556 1
259 569 1
259 570 1
259 573 1
259 577 1
259 582 1
259 586 1
259 588 1
259 604 1
259 605 1
259 616 1
259 625 1
259 629 1
259 631 1
259 633 1
259 634 1
259 637 1
259 646 1
259 649 1
259 652 1
259 653 1
259 671 1
259 672 1
259 674 1
259 682 1
259 695 1
259 696 1
259 698 1
260 4 1
260 7 1
260 11 1
260 17 1
260 18 1
260 35 1
260 36 1
260 53 1
260 57 1
260 61 1
260 67 1
260 74 1
260 75 1
260 78 1
260 83 1
260 88 1
260 91 1
260 93 1
260 103 1
260 105 1
260 107 1
260 112 1
260 113 1
260 115 1
260 130 1
260 134 1
260 149 1
260 151 1
260 154 1
260 159 1
260 161 1
260 164 1
260 183 1
260 188 1
260 189 1
260 203 1
260 215 1
260 218 1
260 219 1
260 225 1
260 234 1
260 237 1
260 239 1
260 241 1
260 245 1
260 249 1
260 256 1
260 257 1
260 261 1
260 262 1
260 272 1
260 286 1
260 287 1
260 293 1
260 302 1
260 303 1
260 305 1
260 308 1
260 315 1
260 317 1
260 325 1
260 330 1
260 333 1
260 335 1
260 343 1
260 364 1
260 371 1
260 372 1
260 373 1
260 376 1
260 378 1
260 379 1
260 385 1
260 388 1
260 391 1
260 397 1
260 398 1
260 399 1
260 400 1
260 406 1
260 418 1
260 421 1
260 423 1
260 425 1
260 427 1
260 431 1
260 432 1
260 440 1
260 441 1
260 442 1
260 443 1
260 447 1
260 451 1
260 454 1
260 458 1
260 464 1
260 485 1
260 487 1
260 490 1
260 496 1
260 498 1
260 515 1
260 524 1
260 525 1
260 527 1
260 535 1
260 540 1
260 548 1
260 550 1
260 560 1
260 571 1
260 578 1
260 593 1
260 595 1
260 601 1
260 606 1
260 608 1
260 612 1
260 614 1
260 622 1
260 627 1
260 634 1
260 649 1
260 650 1
260 652 1
260 654 1
260 657 1
260 661 1
260 669 1
260 670 1
260 674 1
260 676 1
260 678 1
260 679 1
260 681 1
260 683 1
260 693 1
260 694 1
260 698 1
260 699 1
261 2 1
261 8 1
261 12 1
261 16 1
261 17 1
261 19 1
261 30 1
261 31 1
261 34 1
261 36 1
261 45 1
261 48 1
261 62 1
261 68 1
261 69 1
261 74 1
261 82 1
261 85 1
261 87 1
261 100 1
261 102 1
261 103 1
261 108 1
261 118 1
261 126 1
261 138 1
261 141 1
261 145 1
261 151 1
261 153 1
261 170 1
261 172 1
261 173 1
261 178 1
261 183 1
261 184 1
261 187 1
261 190 1
261 191 1
261 194 1
261 196 1
261 198 1
261 199 1
261 201 1
261 208 1
261 212 1
261 217 1
261 218 1
261 222 1
261 227 1
261 229 1
261 234 1
261 237 1
261 241 1
261 252 1
261 257 1
261 260 1
261 264 1
261 265 1
261 269 1
261 271 1
261 275 1
261 279 1
261 283 1
261 284 1
261 289 1
261 292 1
261 297 1
261 300 1
261 308 1
261 314 1
261 317 1
261 319 1
261 324 1
261 328 1
261 332 1
261 335 1
261 355 1
261 380 1
261 384 1
261 385 1
261 394 1
261 396 1
261 399 1
261 404 1
261 409 1
261 415 1
261 423 1
261 428 1
261 431 1
261 432 1
261 439 1
261 441 1
261 455 1
261 458 1
261 481 1
261 490 1
261 493 1
261 496 1
261 498 1
261 499 1
261 501 1
261 508 1
261 513 1
261 519 1
261 521 1
261 535 1
261 538 1
261 544 1
261 553 1
261 568 1
261 584 1
261 586 1
261 590 1
261 591 1
261 596 1
261 597 1
261 601 1
261 610 1
261 614 1
261 615 1
261 624 1
261 632 1
261 634 1
261 635 1
261 639 1
261 640 1
261 648 1
261 649 1
261 652 1
261 659 1
261 660 1
261 661 1
261 663 1
261 667 1
261 674 1
261 684 1
262 2 1
262 16 1
262 17 1
262 22 1
262 23 1
262 24 1
262 25 1
262 39 1
262 41 1
262 46 1
262 47 1
262 52 1
262 53 1
262 59 1
262 62 1
262 78 1
262 84 1
262 89 1
262 93 1
262 95 1
262 96 1
262 100 1
262 102 1
262 113 1
262 119 1
262 120 1
262 126 1
262 129 1
262 131 1
262 137 1
262 142 1
262 155 1
262 156 1
262 159 1
262 162 1
262 166 1
262 171 1
262 172 1
262 192 1
262 200 1
262 213 1
262 214 1
262 216 1
262 223 1
262 226 1
262 229 1
262 236 1
262 240 1
262 241 1
262 244 1
262 248 1
262 252 1
262 260 1
262 265 1
262 266 1
262 267 1
262 269 1
262 275 1
262 282 1
262 287 1
262 289 1
262 290 1
262 291 1
262 295 1
262 296 1
262 298 1
262 301 1
262 302 1
262 306 1
262 307 1
262 309 1
262 312 1
262 315 1
262 317 1
262 318 1
262 325 1
262 327 1
262 334 1
262 335 1
262 336 1
262 350 1
262 355 1
262 356 1
262 359 1
262 370 1
262 372 1
262 375 1
262 376 1
262 377 1
262 379 1
262 381 1
262 382 1
262 384 1
262 386 1
262 387 1
262 394 1
262 397 1
262 402 1
262 411 1
262 418 1
262 422 1
262 437 1
262 442 1
262 452 1
262 461 1
262 464 1
262 474 1
262 484 1
262 490 1
262 491 1
262 500 1
262 506 1
262 509 1
262 513 1
262 537 1
262 538 1
262 545 1
262 558 1
262 562 1
262 563 1
262 570 1
262 573 1
262 576 1
262 585 1
262 586 1
262 587 1
262 590 1
262 594 1
262 603 1
262 612 1
262 621 1
262 631 1
262 633 1
262 639 1
262 641 1
262 642 1
262 643 1
262 646 1
262 648 1
262 654 1
262 656 1
262 659 1
262 661 1
262 670 1
262 675 1
262 683 1
262 684 1
262 689 1
262 691 1
262 695 1
262 698 1
263 2 1
263 7 1
263 9 1
263 18 1
263 27 1
263 32 1
263 33 1
263 38 1
263 40 1
263 43 1
263 55 1
263 70 1
263 71 1
263 73 1
263 80 1
263 87 1
263 91 1
263 96 1
263 98 1
263 106 1
263 110 1
263 112 1
263 115 1
263 117 1
263 121 1
263 133 1
263 135 1
263 150 1
263 151 1
263 152 1
263 155 1
263 174 1
263 175 1
263 176 1
263 181 1
263 193 1
263 205 1
263 212 1
263 221 1
263 225 1
263 230 1
263 232 1
263 236 1
263 239 1
263 254 1
263 256 1
263 264 1
263 270 1
263 271 1
263 275 1
263 281 1
263 302 1
263 303 1
263 314 1
263 323 1
263 333 1
263 338 1
263 343 1
263 346 1
263 347 1
263 348 1
263 352 1
263 355 1
263 363 1
263 365 1
263 371 1
263 376 1
263 380 1
263 382 1
263 385 1
263 387 1
263 393 1
263 394 1
263 410 1
263 411 1
263 417 1
263 419 1
263 426 1
263 440 1
263 443 1
263 444 1
263 462 1
263 463 1
263 465 1
263 476 1
263 477 1
263 479 1
263 480 1
263 481 1
263 483 1
263 499 1
263 500 1
263 504 1
263 508 1
263 514 1
263 529 1
263 530 1
263 534 1
263 536 1
263 538 1
263 541 1
263 545 1
263 547 1
263 548 1
263 563 1
263 567 1
263 571 1
263 582 1
263 584 1
263 593 1
263 594 1
263 613 1
263 615 1
263 616 1
263 617 1
263 624 1
263 625 1
263 632 1
263 643 1
263 644 1
263 653 1
263 664 1
263 668 1
263 669 1
263 670 1
263 673 1
263 683 1
263 688 1
263 690 1
263 693 1
264 5 1
264 8 1
264 11 1
264 17 1
264 19 1
264 24 1
264 26 1
264 37 1
264 43 1
264 49 1
264 56 1
264 59 1
264 63 1
264 74 1
264 79 1
264 87 1
264 89 1
264 104 1
264 105 1
264 118 1
264 123 1
264 126 1
264 131 1
264 135 1
264 142 1
264 166 1
264 171 1
264 173 1
264 182 1
264 185 1
264 188 1
264 190 1
264 194 1
264 195 1
264 205 1
264 211 1
264 218 1
264 222 1
264 227 1
264 228 1
264 234 1
264 237 1
264 244 1
264 245 1
264 246 1
264 249 1
264 261 1
264 263 1
264 266 1
264 267 1
264 271 1
264 272 1
264 278 1
264 282 1
264 287 1
264 293 1
264 298 1
264 311 1
264 314 1
264 320 1
264 327 1
264 332 1
264 335 1
264 336 1
264 344 1
264 355 1
264 358 1
264 360 1
264 362 1
264 368 1
264 382 1
264 386 1
264 388 1
264 392 1
264 398 1
264 404 1
264 405 1
264 410 1
264 411 1
264 424 1
264 429 1
264 437 1
264 439 1
264 445 1
264 449 1
264 451 1
264 459 1
264 464 1
264 480 1
264 485 1
264 487 1
264 488 1
264 500 1
264 505 1
264 508 1
264 515 1
264 518 1
264 519 1
264 521 1
264 529 1
264 530 1
264 537 1
264 540 1
264 543 1
264 545 1
264 546 1
264 548 1
264 555 1
264 560 1
264 567 1
264 571 1
264 586 1
264 587 1
264 599 1
264 615 1
264 619 1
264 624 1
264 627 1
264 628 1
264 629 1
264 642 1
264 643 1
264 646 1
264 653 1
264 656 1
264 669 1
264 670 1
264 674 1
264 675 1
264 685 1
265 1 1
265 2 1
265 19 1
265 20 1
265 23 1
265 27 1
265 30 1
265 33 1
265 35 1
265 37 1
265 41 1
265 44 1
265 45 1
265 58 1
265 59 1
265 64 1
265 69 1
265 71 1
265 72 1
265 78 1
265 90 1
265 93 1
265 100 1
265 102 1
265 103 1
265 105 1
265 112 1
265 114 1
265 122 1
265 123 1
265 129 1
265 134 1
265 136 1
265 137 1
265 144 1
265 147 1
265 152 1
265 155 1
265 172 1
265 175 1
265 177 1
265 179 1
265 193 1
265 219 1
265 223 1
265 226 1
265 228 1
265 234 1
265 237 1
265 238 1
265 248 1
265 251 1
265 261 1
265 262 1
265 272 1
265 273 1
265 276 1
265 281 1
265 284 1
265 291 1
265 292 1
265 297 1
265 301 1
265 306 1
265 307 1
265 317 1
265 320 1
265 328 1
265 329 1
265 333 1
265 340 1
265 341 1
265 345 1
265 346 1
265 350 1
265 351 1
265 368 1
265 371 1
265 372 1
265 373 1
265 380 1
265 382 1
265 383 1
265 387 1
265 397 1
265 399 1
265 401 1
265 406 1
265 408 1
265 417 1
265 419 1
265 428 1
265 437 1
265 443 1
265 444 1
265 447 1
265 451 1
265 455 1
265 462 1
265 471 1
265 472 1
265 483 1
265 487 1
265 493 1
265 504 1
265 510 1
265 516 1
265 520 1
265 531 1
265 540 1
265 541 1
265 550 1
265 561 1
265 564 1
265 568 1
265 569 1
265 573 1
265 588 1
265 590 1
265 592 1
265 593 1
265 605 1
265 606 1
265 607 1
265 608 1
265 613 1
265 614 1
265 615 1
265 628 1
265 630 1
265 631 1
265 640 1
265 648 1
265 649 1
265 662 1
265 675 1
265 681 1
265 685 1
265 687 1
265 688 1
265 691 1
265 693 1
265 695 1
265 698 1
265 700 1
266 1 1
266 3 1
266 12 1
266 18 1
266 20 1
266 23 1
266 35 1
266 38 1
266 40 1
266 45 1
266 46 1
266 51 1
266 52 1
266 66 1
266 72 1
266 77 1
266 87 1
266 100 1
266 101 1
266 102 1
266 113 1
266 119 1
266 120 1
266 122 1
266 124 1
266 126 1
266 128 1
266 129 1
266 135 1
266 136 1
266 143 1
266 146 1
266 157 1
266 158 1
266 177 1
266 179 1
266 187 1
266 191 1
266 194 1
266 197 1
266 198 1
266 199 1
266 204 1
266 210 1
266 215 1
266 221 1
266 222 1
266 225 1
266 228 1
266 229 1
266 246 1
266 256 1
266 259 1
266 262 1
266 264 1
266 269 1
266 281 1
266 282 1
266 291 1
266 294 1
266 295 1
266 302 1
266 307 1
266 315 1
266 316 1
266 320 1
266 327 1
266 332 1
266 339 1
266 342 1
266 355 1
266 381 1
266 382 1
266 383 1
266 390 1
266 398 1
266 401 1
266 402 1
266 404 1
266 405 1
266 407 1
266 436 1
266 437 1
266 440 1
266 448 1
266 453 1
266 457 1
266 460 1
266 482 1
266 491 1
266 496 1
266 497 1
266 503 1
266 522 1
266 523 1
266 537 1
266 540 1
266 542 1
266 547 1
266 551 1
266 553 1
266 557 1
266 563 1
266 568 1
266 573 1
266 574 1
266 582 1
266 586 1
266 589 1
266 594 1
266 604 1
266 605 1
266 613 1
266 617 1
266 624 1
266 630 1
266 634 1
266 648 1
266 651 1
266 658 1
266 660 1
266 663 1
266 664 1
266 665 1
266 670 1
266 675 1
266 677 1
266 680 1
266 681 1
266 692 1
266 694 1
266 698 1
266 699 1
267 13 1
267 20 1
267 38 1
267 44 1
267 48 1
267 50 1
267 52 1
267 55 1
267 58 1
267 74 1
267 83 1
267 86 1
267 94 1
267 96 1
267 97 1
267 104 1
267 107 1
267 112 1
267 123 1
267 128 1
267 134 1
267 135 1
267 140 1
267 148 1
267 150 1
267 154 1
267 161 1
267 164 1
267 170 1
267 171 1
267 173 1
267 177 1
267 179 1
267 181 1
267 183 1
267 187 1
267 198 1
267 202 1
267 205 1
267 207 1
267 214 1
267 219 1
267 228 1
267 233 1
267 237 1
267 245 1
267 252 1
267 256 1
267 262 1
267 264 1
267 268 1
267 271 1
267 276 1
267 284 1
267 288 1
267 290 1
267 293 1
267 294 1
267 296 1
267 302 1
267 308 1
267 310 1
267 317 1
267 319 1
267 323 1
267 324 1
267 330 1
267 337 1
267 344 1
267 355 1
267 359 1
267 361 1
267 369 1
267 370 1
267 376 1
267 388 1
267 389 1
267 393 1
267 396 1
267 400 1
267 403 1
267 408 1
267 414 1
267 416 1
267 422 1
267 426 1
267 430 1
267 432 1
267 433 1
267 436 1
267 437 1
267 439 1
267 446 1
267 449 1
267 450 1
267 453 1
267 460 1
267 461 1
267 464 1
267 465 1
267 474 1
267 482 1
267 505 1
267 508 1
267 509 1
267 510 1
267 512 1
267 515 1
267 522 1
267 531 1
267 533 1
267 537 1
267 542 1
267 546 1
267 547 1
267 548 1
267 550 1
267 552 1
267 556 1
267 558 1
267 560 1
267 561 1
267 577 1
267 585 1
267 587 1
267 588 1
267 601 1
267 603 1
267 604 1
267 612 1
267 631 1
267 650 1
267 667 1
267 668 1
267 690 1
267 691 1
267 692 1
267 700 1
268 2 1
268 6 1
268 10 1
268 12 1
268 13 1
268 15 1
268 18 1
268 30 1
268 37 1
268 38 1
268 46 1
268 48 1
268 50 1
268 51 1
268 53 1
268 55 1
268 58 1
268 59 1
268 60 1
268 67 1
268 68 1
268 70 1
268 74 1
268 77 1
268 84 1
268 85 1
268 87 1
268 98 1
268 114 1
268 120 1
268 121 1
268 124 1
268 126 1
268 139 1
268 148 1
268 152 1
268 157 1
268 166 1
268 177 1
268 184 1
268 187 1
268 195 1
268 198 1
268 199 1
268 204 1
268 205 1
268 214 1
268 216 1
268 218 1
268 220 1
268 225 1
268 227 1
268 228 1
268 231 1
268 235 1
268 239 1
268 243 1
268 244 1
268 245 1
268 267 1
268 285 1
268 289 1
268 294 1
268 299 1
268 304 1
268 321 1
268 323 1
268 325 1
268 330 1
268 332 1
268 341 1
268 348 1
268 355 1
268 358 1
268 371 1
268 372 1
268 376 1
268 377 1
268 384 1
268 387 1
268 389 1
268 391 1
268 404 1
268 407 1
268 417 1
268 423 1
268 427 1
268 429 1
268 433 1
268 442 1
268 443 1
268 446 1
268 450 1
268 451 1
268 460 1
268 464 1
268 467 1
268 477 1
268 486 1
268 488 1
268 500 1
268 519 1
268 524 1
268 532 1
268 538 1
268 542 1
268 550 1
268 554 1
268 564 1
268 569 1
268 570 1
268 572 1
268 576 1
268 582 1
268 584 1
268 591 1
268 601 1
268 605 1
268 613 1
268 617 1
268 621 1
268 623 1
268 627 1
268 632 1
268 640 1
268 641 1
268 658 1
268 664 1
268 667 1
268 669 1
268 670 1
268 671 1
268 673 1
268 675 1
268 683 1
268 687 1
268 691 1
268 692 1
268 693 1
268 695 1
268 697 1
268 698 1
268 700 1
269 2 1
269 4 1
269 7 1
269 9 1
269 40 1
269 44 1
269 56 1
269 60 1
269 79 1
269 80 1
269 83 1
269 84 1
269 99 1
269 102 1
269 105 1
269 113 1
269 118 1
269 122 1
269 148 1
269 153 1
269 154 1
269 156 1
269 158 1
269 159 1
269 163 1
269 167 1
269 172 1
269 173 1
269 175 1
269 176 1
269 178 1
269 179 1
269 183 1
269 187 1
269 191 1
269 204 1
269 206 1
269 220 1
269 223 1
269 224 1
269 227 1
269 235 1
269 236 1
269 243 1
269 250 1
269 253 1
269 261 1
269 262 1
269 266 1
269 274 1
269 276 1
269 280 1
269 286 1
269 289 1
269 290 1
269 296 1
269 302 1
269 304 1
269 323 1
269 329 1
269 331 1
269 341 1
269 342 1
269 346 1
269 351 1
269 355 1
269 360 1
269 362 1
269 389 1
269 398 1
269 401 1
269 408 1
269 412 1
269 417 1
269 418 1
269 424 1
269 430 1
269 433 1
269 437 1
269 439 1
269 443 1
269 454 1
269 456 1
269 462 1
269 466 1
269 468 1
269 472 1
269 480 1
269 496 1
269 497 1
269 504 1
269 513 1
269 515 1
269 516 1
269 521 1
269 527 1
269 532 1
269 541 1
269 544 1
269 550 1
269 553 1
269 557 1
269 562 1
269 563 1
269 564 1
269 570 1
269 571 1
269 575 1
269 576 1
269 579 1
269 580 1
269 581 1
269 584 1
269 586 1
269 588 1
269 595 1
269 607 1
269 608 1
269 611 1
269 621 1
269 622 1
269 627 1
269 632 1
269 636 1
269 640 1
269 641 1
269 642 1
269 644 1
269 653 1
269 657 1
269 667 1
269 675 1
269 680 1
269 681 1
269 693 1
270 5 1
270 15 1
270 20 1
270 34 1
270 37 1
270 50 1
270 58 1
270 61 1
270 76 1
270 78 1
270 82 1
270 87 1
270 97 1
270 105 1
270 115 1
270 127 1
270 128 1
270 130 1
270 132 1
270 141 1
270 142 1
270 143 1
270 149 1
270 150 1
270 153 1
270 159 1
270 160 1
270 166 1
270 189 1
270 193 1
270 195 1
270 197 1
270 207 1
270 209 1
270 214 1
270 215 1
270 217 1
270 224 1
270 228 1
270 231 1
270 235 1
270 242 1
270 249 1
270 251 1
270 255 1
270 263 1
270 277 1
270 283 1
270 286 1
270 303 1
270 306 1
270 310 1
270 314 1
270 319 1
270 323 1
270 326 1
270 329 1
270 335 1
270 338 1
270 346 1
270 355 1
270 359 1
270 361 1
270 363 1
270 376 1
270 385 1
270 387 1
270 389 1
270 390 1
270 398 1
270 411 1
270 413 1
270 420 1
270 427 1
270 439 1
270 449 1
270 460 1
270 468 1
270 470 1
270 477 1
270 479 1
270 481 1
270 488 1
270 489 1
270 502 1
270 505 1
270 511 1
270 520 1
270 521 1
270 525 1
270 526 1
270 530 1
270 533 1
270 538 1
270 546 1
270 551 1
270 555 1
270 575 1
270 581 1
270 584 1
270 593 1
270 600 1
270 605 1
270 612 1
270 618 1
270 630 1
270 632 1
270 647 1
270 649 1
270 650 1
270 652 1
270 656 1
270 662 1
270 663 1
270 667 1
270 673 1
270 677 1
270 683 1
270 686 1
270 690 1
270 697 1
270 699 1
270 700 1
271 4 1
271 7 1
271 9 1
271 10 1
271 17 1
271 18 1
271 22 1
271 24 1
271 29 1
271 32 1
271 40 1
271 42 1
271 44 1
271 52 1
271 55 1
271 60 1
271 67 1
271 69 1
271 72 1
271 74 1
271 79 1
271 80 1
271 84 1
271 88 1
271 93 1
271 95 1
271 104 1
271 108 1
271 114 1
271 115 1
271 116 1
271 123 1
271 124 1
271 126 1
271 127 1
271 134 1
271 136 1
271 139 1
271 150 1
271 161 1
271 163 1
271 168 1
271 173 1
271 176 1
271 183 1
271 194 1
271 198 1
271 201 1
271 203 1
271 210 1
271 219 1
271 221 1
271 225 1
271 230 1
271 232 1
271 233 1
271 240 1
271 249 1
271 252 1
271 255 1
271 258 1
271 261 1
271 263 1
271 264 1
271 267 1
271 275 1
271 278 1
271 280 1
271 287 1
271 290 1
271 293 1
271 294 1
271 296 1
271 303 1
271 305 1
271 309 1
271 310 1
271 320 1
271 323 1
271 337 1
271 341 1
271 346 1
271 353 1
271 355 1
271 360 1
271 374 1
271 387 1
271 390 1
271 403 1
271 406 1
271 407 1
271 408 1
271 410 1
271 418 1
271 423 1
271 426 1
271 428 1
271 433 1
271 438 1
271 449 1
271 460 1
271 466 1
271 467 1
271 469 1
271 474 1
271 482 1
271 483 1
271 486 1
271 487 1
271 496 1
271 500 1
271 501 1
271 503 1
271 506 1
271 509 1
271 521 1
271 523 1
271 528 1
271 555 1
271 557 1
271 561 1
271 563 1
271 573 1
271 585 1
271 586 1
271 591 1
271 602 1
271 603 1
271 607 1
271 615 1
271 616 1
271 620 1
271 624 1
271 628 1
271 635 1
271 643 1
271 646 1
271 652 1
271 653 1
271 659 1
271 661 1
271 664 1
271 668 1
271 675 1
271 678 1
271 680 1
271 683 1
271 687 1
271 689 1
272 4 1
272 11 1
272 19 1
272 25 1
272 37 1
272 40 1
272 41 1
272 50 1
272 60 1
272 63 1
272 67 1
272 69 1
272 72 1
272 85 1
272 88 1
272 91 1
272 94 1
272 97 1
272 102 1
272 109 1
272 110 1
272 115 1
272 119 1
272 124 1
272 128 1
272 133 1
272 144 1
272 147 1
272 150 1
272 153 1
272 155 1
272 161 1
272 168 1
272 176 1
272 177 1
272 179 1
272 180 1
272 181 1
272 184 1
272 187 1
272 193 1
272 195 1
272 196 1
272 206 1
272 209 1
272 238 1
272 246 1
272 252 1
272 257 1
272 260 1
272 264 1
272 265 1
272 287 1
272 296 1
272 299 1
272 300 1
272 301 1
272 303 1
272 306 1
272 307 1
272 314 1
272 315 1
272 326 1
272 328 1
272 329 1
272 339 1
272 348 1
272 349 1
272 351 1
272 358 1
272 372 1
272 374 1
272 375 1
272 384 1
272 407 1
272 417 1
272 421 1
272 425 1
272 441 1
272 442 1
272 443 1
272 449 1
272 454 1
272 462 1
272 464 1
272 471 1
272 474 1
272 478 1
272 481 1
272 482 1
272 483 1
272 484 1
272 497 1
272 506 1
272 511 1
272 514 1
272 523 1
272 524 1
272 527 1
272 530 1
272 531 1
272 534 1
272 537 1
272 544 1
272 547 1
272 562 1
272 594 1
272 596 1
272 604 1
272 610 1
272 622 1
272 639 1
272 640 1
272 641 1
272 643 1
272 645 1
272 647 1
272 649 1
272 650 1
272 653 1
272 656 1
272 658 1
272 660 1
272 665 1
272 669 1
272 670 1
272 673 1
272 679 1
272 683 1
272 685 1
272 687 1
273 7 1
273 9 1
273 14 1
273 26 1
273 29 1
273 33 1
273 40 1
273 42 1
273 44 1
273 59 1
273 62 1
273 63 1
273 66 1
273 72 1
273 73 1
273 93 1
273 95 1
273 100 1
273 101 1
273 105 1
273 108 1
273 110 1
273 113 1
273 116 1
273 121 1
273 123 1
273 124 1
273 127 1
273 146 1
273 153 1
273 156 1
273 157 1
273 160 1
273 162 1
273 167 1
273 170 1
273 172 1
273 173 1
273 174 1
273 182 1
273 188 1
273 191 1
273 193 1
273 194 1
273 203 1
273 205 1
273 207 1
273 208 1
273 217 1
273 220 1
273 221 1
273 223 1
273 228 1
273 233 1
273 239 1
273 243 1
273 247 1
273 252 1
273 258 1
273 265 1
273 274 1
273 278 1
273 279 1
273 281 1
273 284 1
273 290 1
273 293 1
273 294 1
273 302 1
273 309 1
273 328 1
273 332 1
273 334 1
273 338 1
273 350 1
273 351 1
273 357 1
273 360 1
273 362 1
273 371 1
273 377 1
273 382 1
273 388 1
273 397 1
273 399 1
273 405 1
273 408 1
273 409 1
273 414 1
273 420 1
273 426 1
273 427 1
273 428 1
273 433 1
273 440 1
273 444 1
273 455 1
273 456 1
273 465 1
273 479 1
273 480 1
273 484 1
273 485 1
273 510 1
273 513 1
273 515 1
273 516 1
273 535 1
273 546 1
273 548 1
273 552 1
273 554 1
273 556 1
273 565 1
273 568 1
273 570 1
273 575 1
273 580 1
273 585 1
273 593 1
273 605 1
273 616 1
273 623 1
273 632 1
273 648 1
273 649 1
273 671 1
273 672 1
273 673 1
273 679 1
273 681 1
273 684 1
273 692 1
273 693 1
273 697 1
274 9 1
274 15 1
274 19 1
274 24 1
274 25 1
274 32 1
274 33 1
274 34 1
274 35 1
274 39 1
274 48 1
274 64 1
274 66 1
274 70 1
274 78 1
274 85 1
274 86 1
274 88 1
274 94 1
274 97 1
274 99 1
274 101 1
274 108 1
274 111 1
274 112 1
274 118 1
274 129 1
274 132 1
274 133 1
274 139 1
274 141 1
274 145 1
274 156 1
274 162 1
274 167 1
274 175 1
274 182 1
274 198 1
274 212 1
274 220 1
274 236 1
274 240 1
274 249 1
274 250 1
274 252 1
274 254 1
274 256 1
274 269 1
274 273 1
274 277 1
274 279 1
274 284 1
274 288 1
274 292 1
274 297 1
274 301 1
274 305 1
274 312 1
274 319 1
274 320 1
274 325 1
274 330 1
274 331 1
274 336 1
274 339 1
274 340 1
274 343 1
274 345 1
274 347 1
274 348 1
274 357 1
274 360 1
274 361 1
274 362 1
274 363 1
274 369 1
274 376 1
274 380 1
274 387 1
274 389 1
274 395 1
274 405 1
274 406 1
274 416 1
274 422 1
274 424 1
274 431 1
274 436 1
274 443 1
274 453 1
274 454 1
274 455 1
274 457 1
274 467 1
274 471 1
274 472 1
274 473 1
274 476 1
274 482 1
274 496 1
274 502 1
274 518 1
274 525 1
274 526 1
274 531 1
274 535 1
274 536 1
274 537 1
274 540 1
274 546 1
274 547 1
274 548 1
274 553 1
274 557 1
274 558 1
274 559 1
274 563 1
274 564 1
274 565 1
274 568 1
274 570 1
274 571 1
274 573 1
274 574 1
274 576 1
274 585 1
274 586 1
274 588 1
274 593 1
274 596 1
274 615 1
274 618 1
274 620 1
274 628 1
274 631 1
274 638 1
274 641 1
274 648 1
274 659 1
274 660 1
274 663 1
274 668 1
274 670 1
274 675 1
274 678 1
274 681 1
274 686 1
274 688 1
274 691 1
274 694 1
275 2 1
275 3 1
275 8 1
275 9 1
275 17 1
275 18 1
275 22 1
275 23 1
275 25 1
275 28 1
275 30 1
275 37 1
275 38 1
275 42 1
275 43 1
275 48 1
275 56 1
275 59 1
275 62 1
275 69 1
275 72 1
275 76 1
275 77 1
275 78 1
275 81 1
275 88 1
275 97 1
275 98 1
275 101 1
275 107 1
275 108 1
275 109 1
275 114 1
275 127 1
275 132 1
275 133 1
275 136 1
275 142 1
275 145 1
275 149 1
275 150 1
275 156 1
275 163 1
275 167 1
275 170 1
275 175 1
275 178 1
275 188 1
275 191 1
275 200 1
275 203 1
275 204 1
275 207 1
275 209 1
275 215 1
275 230 1
275 246 1
275 252 1
275 261 1
275 262 1
275 263 1
275 271 1
275 288 1
275 289 1
275 290 1
275 294 1
275 302 1
275 306 1
275 313 1
275 318 1
275 324 1
275 328 1
275 334 1
275 335 1
275 336 1
275 341 1
275 345 1
275 346 1
275 350 1
275 352 1
275 359 1
275 363 1
275 370 1
275 385 1
275 388 1
275 391 1
275 394 1
275 395 1
275 399 1
275 408 1
275 412 1
275 416 1
275 417 1
275 428 1
275 429 1
275 432 1
275 438 1
275 443 1
275 444 1
275 445 1
275 452 1
275 454 1
275 458 1
275 466 1
275 470 1
275 471 1
275 476 1
275 480 1
275 492 1
275 495 1
275 498 1
275 500 1
275 503 1
275 507 1
275 520 1
275 524 1
275 543 1
275 544 1
275 552 1
275 557 1
275 566 1
275 568 1
275 571 1
275 575 1
275 584 1
275 589 1
275 591 1
275 596 1
275 601 1
275 603 1
275 613 1
275 616 1
275 626 1
275 629 1
275 638 1
275 639 1
275 651 1
275 656 1
275 659 1
275 661 1
275 679 1
275 688 1
275 695 1
275 698 1
275 699 1
276 3 1
276 5 1
276 7 1
276 11 1
276 15 1
276 18 1
276 19 1
276 22 1
276 25 1
276 27 1
276 40 1
276 47 1
276 50 1
276 57 1
276 59 1
276 64 1
276 68 1
276 69 1
276 71 1
276 75 1
276 76 1
276 84 1
276 85 1
276 86 1
276 87 1
276 88 1
276 97 1
276 103 1
276 109 1
276 111 1
276 113 1
276 115 1
276 116 1
276 117 1
276 118 1
276 123 1
276 135 1
276 139 1
276 140 1
276 143 1
276 146 1
276 149 1
276 150 1
276 156 1
276 163 1
276 168 1
276 171 1
276 172 1
276 179 1
276 181 1
276 187 1
276 192 1
276 200 1
276 203 1
276 209 1
276 212 1
276 218 1
276 225 1
276 229 1
276 232 1
276 233 1
276 234 1
276 236 1
276 238 1
276 242 1
276 248 1
276 253 1
276 256 1
276 265 1
276 267 1
276 269 1
276 282 1
276 289 1
276 296 1
276 298 1
276 305 1
276 306 1
276 310 1
276 312 1
276 318 1
276 323 1
276 326 1
276 337 1
276 342 1
276 346 1
276 348 1
276 352 1
276 355 1
276 360 1
276 361 1
276 364 1
276 365 1
276 366 1
276 368 1
276 373 1
276 379 1
276 396 1
276 401 1
276 402 1
276 417 1
276 418 1
276 425 1
276 430 1
276 435 1
276 436 1
276 438 1
276 443 1
276 445 1
276 446 1
276 449 1
276 477 1
276 491 1
276 504 1
276 505 1
276 509 1
276 521 1
276 537 1
276 539 1
276 543 1
276 546 1
276 550 1
276 563 1
276 569 1
276 572 1
276 577 1
276 583 1
276 585 1
276 587 1
276 592 1
276 593 1
276 594 1
276 595 1
276 598 1
276 599 1
276 603 1
276 604 1
276 605 1
276 615 1
276 618 1
276 619 1
276 620 1
276 622 1
276 627 1
276 629 1
276 633 1
276 634 1
276 637 1
276 640 1
276 646 1
276 647 1
276 650 1
276 661 1
276 666 1
276 668 1
276 671 1
276 672 1
276 673 1
276 677 1
276 685 1
276 686 1
276 691 1
276 694 1
276 698 1
277 1 1
277 3 1
277 8 1
277 11 1
277 13 1
277 20 1
277 23 1
277 24 1
277 33 1
277 39 1
277 43 1
277 51 1
277 52 1
277 54 1
277 59 1
277 63 1
277 68 1
277 71 1
277 74 1
277 80 1
277 81 1
277 92 1
277 94 1
277 96 1
277 103 1
277 106 1
277 110 1
277 114 1
277 124 1
277 131 1
277 132 1
277 137 1
277 152 1
277 155 1
277 157 1
277 158 1
277 159 1
277 164 1
277 167 1
277 172 1
277 174 1
277 178 1
277 181 1
277 185 1
277 186 1
277 192 1
277 193 1
277 201 1
277 219 1
277 220 1
277 222 1
277 228 1
277 230 1
277 235 1
277 236 1
277 237 1
277 241 1
277 246 1
277 248 1
277 250 1
277 252 1
277 255 1
277 270 1
277 274 1
277 295 1
277 296 1
277 297 1
277 300 1
277 310 1
277 324 1
277 325 1
277 328 1
277 332 1
277 333 1
277 334 1
277 363 1
277 365 1
277 367 1
277 368 1
277 371 1
277 384 1
277 394 1
277 397 1
277 398 1
277 406 1
277 409 1
277 410 1
277 416 1
277 421 1
277 422 1
277 425 1
277 438 1
277 440 1
277 442 1
277 444 1
277 450 1
277 457 1
277 459 1
277 463 1
277 467 1
277 473 1
277 477 1
277 484 1
277 498 1
277 500 1
277 519 1
277 520 1
277 521 1
277 524 1
277 525 1
277 528 1
277 534 1
277 537 1
277 539 1
277 543 1
277 544 1
277 546 1
277 551 1
277 555 1
277 557 1
277 562 1
277 564 1
277 568 1
277 574 1
277 575 1
277 577 1
277 581 1
277 582 1
277 583 1
277 589 1
277 590 1
277 593 1
277 595 1
277 598 1
277 606 1
277 607 1
277 612 1
277 616 1
277 623 1
277 639 1
277 644 1
277 649 1
277 652 1
277 659 1
277 671 1
277 675 1
277 677 1
277 678 1
277 683 1
277 691 1
277 695 1
277 696 1
278 2 1
278 6 1
278 16 1
278 19 1
278 33 1
278 39 1
278 42 1
278 43 1
278 51 1
278 52 1
278 73 1
278 74 1
278 75 1
278 80 1
278 87 1
278 96 1
278 100 1
278 101 1
278 118 1
278 119 1
278 127 1
278 132 1
278 137 1
278 139 1
278 140 1
278 144 1
278 153 1
278 158 1
278 159 1
278 165 1
278 175 1
278 179 1
278 182 1
278 188 1
278 193 1
278 197 1
278 202 1
278 204 1
278 206 1
278 216 1
278 222 1
278 227 1
278 231 1
278 233 1
278 237 1
278 239 1
278 242 1
278 256 1
278 264 1
278 271 1
278 273 1
278 280 1
278 288 1
278 292 1
278 301 1
278 303 1
278 318 1
278 321 1
278 322 1
278 323 1
278 324 1
278 326 1
278 327 1
278 331 1
278 332 1
278 334 1
278 354 1
278 355 1
278 356 1
278 374 1
278 376 1
278 378 1
278 384 1
278 385 1
278 389 1
278 394 1
278 400 1
278 402 1
278 407 1
278 414 1
278 415 1
278 421 1
278 423 1
278 425 1
278 432 1
278 456 1
278 458 1
278 459 1
278 464 1
278 465 1
278 466 1
278 467 1
278 474 1
278 478 1
278 492 1
278 493 1
278 497 1
278 501 1
278 504 1
278 510 1
278 533 1
278 534 1
278 536 1
278 542 1
278 549 1
278 557 1
278 558 1
278 565 1
278 567 1
278 568 1
278 570 1
278 573 1
278 577 1
278 578 1
278 579 1
278 583 1
278 586 1
278 597 1
278 598 1
278 599 1
278 630 1
278 635 1
278 642 1
278 647 1
278 652 1
278 654 1
278 655 1
278 657 1
278 665 1
278 676 1
278 680 1
278 688 1
278 689 1
279 4 1
279 11 1
279 13 1
279 21 1
279 26 1
279 28 1
279 29 1
279 30 1
279 36 1
279 38 1
279 39 1
279 42 1
279 46 1
279 47 1
279 59 1
279 61 1
279 70 1
279 72 1
279 73 1
279 79 1
279 85 1
279 89 1
279 90 1
279 115 1
279 128 1
279 130 1
279 131 1
279 134 1
279 137 1
279 142 1
279 145 1
279 151 1
279 154 1
279 168 1
279 188 1
279 193 1
279 196 1
279 207 1
279 215 1
279 227 1
279 228 1
279 237 1
279 240 1
279 241 1
279 244 1
279 252 1
279 257 1
279 258 1
279 259 1
279 261 1
279 273 1
279 274 1
279 289 1
279 302 1
279 303 1
279 310 1
279 319 1
279 327 1
279 332 1
279 337 1
279 339 1
279 345 1
279 347 1
279 348 1
279 351 1
279 357 1
279 360 1
279 361 1
279 370 1
279 376 1
279 390 1
279 400 1
279 406 1
279 409 1
279 411 1
279 423 1
279 424 1
279 431 1
279 438 1
279 440 1
279 446 1
279 452 1
279 459 1
279 460 1
279 467 1
279 474 1
279 475 1
279 496 1
279 498 1
279 504 1
279 506 1
279 511 1
279 523 1
279 537 1
279 541 1
279 543 1
279 555 1
279 561 1
279 566 1
279 567 1
279 571 1
279 581 1
279 586 1
279 598 1
279 599 1
279 601 1
279 610 1
279 618 1
279 624 1
279 626 1
279 639 1
279 641 1
279 645 1
279 650 1
279 653 1
279 661 1
279 671 1
279 672 1
279 682 1
279 684 1
279 689 1
279 695 1
279 698 1
280 1 1
280 6 1
280 15 1
280 33 1
280 37 1
280 40 1
280 41 1
280 58 1
280 60 1
280 64 1
280 66 1
280 70 1
280 72 1
280 81 1
280 92 1
280 98 1
280 99 1
280 101 1
280 102 1
280 112 1
280 114 1
280 115 1
280 116 1
280 121 1
280 132 1
280 136 1
280 137 1
280 149 1
280 153 1
280 154 1
280 161 1
280 177 1
280 179 1
280 180 1
280 182 1
280 186 1
280 191 1
280 195 1
280 196 1
280 206 1
280 218 1
280 227 1
280 232 1
280 238 1
280 244 1
280 248 1
280 253 1
280 256 1
280 257 1
280 269 1
280 271 1
280 278 1
280 289 1
280 292 1
280 301 1
280 305 1
280 314 1
280 318 1
280 321 1
280 324 1
280 330 1
280 337 1
280 343 1
280 349 1
280 351 1
280 352 1
280 353 1
280 355 1
280 367 1
280 371 1
280 374 1
280 375 1
280 376 1
280 380 1
280 382 1
280 386 1
280 404 1
280 405 1
280 407 1
280 421 1
280 427 1
280 428 1
280 433 1
280 435 1
280 438 1
280 441 1
280 442 1
280 444 1
280 445 1
280 446 1
280 450 1
280 455 1
280 463 1
280 471 1
280 475 1
280 481 1
280 482 1
280 495 1
280 500 1
280 507 1
280 522 1
280 523 1
280 532 1
280 547 1
280 553 1
280 554 1
280 562 1
280 565 1
280 569 1
280 573 1
280 575 1
280 583 1
280 588 1
280 601 1
280 605 1
280 609 1
280 611 1
280 614 1
280 617 1
280 618 1
280 621 1
280 622 1
280 623 1
280 625 1
280 629 1
280 656 1
280 661 1
280 668 1
280 669 1
280 672 1
280 676 1
280 679 1
280 682 1
280 686 1
280 697 1
281 1 1
281 11 1
281 23 1
281 31 1
281 32 1
281 42 1
281 49 1
281 57 1
281 63 1
281 65 1
281 78 1
281 81 1
281 84 1
281 97 1
281 98 1
281 116 1
281 119 1
281 122 1
281 125 1
281 136 1
281 141 1
281 152 1
281 154 1
281 155 1
281 159 1
281 163 1
281 175 1
281 184 1
281 189 1
281 191 1
281 193 1
281 196 1
281 202 1
281 206 1
281 210 1
281 219 1
281 220 1
281 222 1
281 227 1
281 237 1
281 257 1
281 263 1
281 265 1
281 266 1
281 273 1
281 285 1
281 288 1
281 294 1
281 300 1
281 301 1
281 304 1
281 309 1
281 311 1
281 313 1
281 320 1
281 326 1
281 341 1
281 342 1
281 347 1
281 355 1
281 360 1
281 363 1
281 365 1
281 373 1
281 383 1
281 385 1
281 388 1
281 394 1
281 397 1
281 401 1
281 406 1
281 408 1
281 422 1
281 433 1
281 437 1
281 439 1
281 440 1
281 444 1
281 455 1
281 460 1
281 461 1
281 468 1
281 475 1
281 478 1
281 482 1
281 485 1
281 490 1
281 498 1
281 499 1
281 503 1
281 507 1
281 516 1
281 518 1
281 520 1
281 526 1
281 538 1
281 543 1
281 547 1
281 548 1
281 560 1
281 572 1
281 574 1
281 577 1
281 582 1
281 585 1
281 590 1
281 596 1
281 597 1
281 598 1
281 603 1
281 610 1
281 616 1
281 617 1
281 618 1
281 633 1
281 642 1
281 645 1
281 649 1
281 655 1
281 657 1
281 660 1
281 662 1
281 663 1
281 669 1
281 675 1
281 680 1
281 689 1
281 696 1
281 698 1
282 13 1
282 23 1
282 28 1
282 44 1
282 48 1
282 51 1
282 53 1
282 58 1
282 64 1
282 70 1
282 72 1
282 93 1
282 105 1
282 106 1
282 114 1
282 118 1
282 120 1
282 121 1
282 123 1
282 124 1
282 126 1
282 142 1
282 143 1
282 148 1
282 151 1
282 155 1
282 156 1
282 160 1
282 168 1
282 169 1
282 174 1
282 175 1
282 176 1
282 177 1
282 183 1
282 205 1
282 209 1
282 210 1
282 213 1
282 217 1
282 221 1
282 222 1
282 229 1
282 231 1
282 235 1
282 245 1
282 249 1
282 253 1
282 257 1
282 262 1
282 264 1
282 266 1
282 276 1
282 285 1
282 291 1
282 314 1
282 320 1
282 322 1
282 327 1
282 344 1
282 350 1
282 357 1
282 358 1
282 360 1
282 361 1
282 362 1
282 365 1
282 377 1
282 386 1
282 388 1
282 397 1
282 401 1
282 404 1
282 407 1
282 411 1
282 414 1
282 417 1
282 429 1
282 431 1
282 432 1
282 440 1
282 455 1
282 457 1
282 461 1
282 465 1
282 466 1
282 470 1
282 475 1
282 481 1
282 483 1
282 489 1
282 495 1
282 502 1
282 505 1
282 516 1
282 524 1
282 525 1
282 528 1
282 531 1
282 532 1
282 535 1
282 537 1
282 539 1
282 545 1
282 556 1
282 573 1
282 575 1
282 579 1
282 592 1
282 600 1
282 605 1
282 612 1
282 614 1
282 623 1
282 626 1
282 629 1
282 642 1
282 650 1
282 654 1
282 660 1
282 661 1
282 664 1
282 666 1
282 668 1
282 691 1
282 692 1
282 697 1
282 698 1
283 1 1
283 4 1
283 5 1
283 23 1
283 26 1
283 28 1
283 32 1
283 33 1
283 35 1
283 49 1
283 52 1
283 55 1
283 56 1
283 67 1
283 69 1
283 72 1
283 76 1
283 79 1
283 81 1
283 98 1
283 100 1
283 104 1
283 116 1
283 135 1
283 136 1
283 138 1
283 141 1
283 144 1
283 148 1
283 151 1
283 152 1
283 158 1
283 160 1
283 162 1
283 165 1
283 169 1
283 171 1
283 174 1
283 177 1
283 178 1
283 180 1
283 187 1
283 193 1
283 194 1
283 207 1
283 209 1
283 228 1
283 231 1
283 242 1
283 256 1
283 261 1
283 270 1
283 292 1
283 295 1
283 298 1
283 304 1
283 310 1
283 311 1
283 312 1
283 320 1
283 321 1
283 335 1
283 336 1
283 358 1
283 363 1
283 364 1
283 369 1
283 370 1
283 380 1
283 381 1
283 389 1
283 392 1
283 395 1
283 397 1
283 398 1
283 400 1
283 404 1
283 415 1
283 426 1
283 429 1
283 432 1
283 433 1
283 435 1
283 436 1
283 439 1
283 445 1
283 447 1
283 449 1
283 452 1
283 454 1
283 457 1
283 465 1
283 468 1
283 469 1
283 472 1
283 476 1
283 483 1
283 492 1
283 501 1
283 502 1
283 530 1
283 533 1
283 537 1
283 539 1
283 551 1
283 553 1
283 564 1
283 582 1
283 583 1
283 585 1
283 593 1
283 594 1
283 598 1
283 605 1
283 608 1
283 614 1
283 615 1
283 619 1
283 625 1
283 630 1
283 636 1
283 638 1
283 641 1
283 650 1
283 655 1
283 663 1
283 666 1
283 679 1
283 683 1
283 684 1
283 686 1
283 687 1
283 689 1
283 691 1
283 692 1
283 694 1
283 698 1
284 6 1
284 24 1
284 27 1
284 31 1
284 40 1
284 47 1
284 60 1
284 61 1
284 63 1
284 69 1
284 73 1
284 77 1
284 80 1
284 81 1
284 82 1
284 88 1
284 91 1
284 97 1
284 102 1
284 103 1
284 105 1
284 108 1
284 111 1
284 136 1
284 137 1
284 141 1
284 143 1
284 154 1
284 158 1
284 160 1
284 164 1
284 171 1
284 176 1
284 180 1
284 188 1
284 197 1
284 198 1
284 204 1
284 211 1
284 216 1
284 217 1
284 220 1
284 226 1
284 227 1
284 231 1
284 233 1
284 238 1
284 246 1
284 258 1
284 261 1
284 265 1
284 267 1
284 273 1
284 274 1
284 292 1
284 300 1
284 306 1
284 307 1
284 309 1
284 316 1
284 322 1
284 323 1
284 329 1
284 334 1
284 342 1
284 343 1
284 355 1
284 370 1
284 373 1
284 375 1
284 378 1
284 382 1
284 386 1
284 388 1
284 392 1
284 396 1
284 399 1
284 405 1
284 412 1
284 418 1
284 419 1
284 425 1
284 427 1
284 428 1
284 437 1
284 445 1
284 461 1
284 466 1
284 471 1
284 473 1
284 480 1
284 483 1
284 488 1
284 489 1
284 495 1
284 497 1
284 503 1
284 523 1
284 525 1
284 531 1
284 532 1
284 533 1
284 534 1
284 540 1
284 543 1
284 554 1
284 558 1
284 566 1
284 579 1
284 580 1
284 588 1
284 596 1
284 600 1
284 602 1
284 603 1
284 607 1
284 613 1
284 618 1
284 626 1
284 627 1
284 633 1
284 636 1
284 641 1
284 642 1
284 644 1
284 646 1
284 651 1
284 653 1
284 657 1
284 659 1
284 668 1
284 672 1
284 674 1
284 675 1
284 680 1
284 687 1
284 689 1
285 1 1
285 2 1
285 3 1
285 20 1
285 22 1
285 33 1
285 34 1
285 40 1
285 41 1
285 43 1
285 45 1
285 52 1
285 55 1
285 57 1
285 58 1
285 60 1
285 78 1
285 90 1
285 91 1
285 92 1
285 95 1
285 99 1
285 104 1
285 112 1
285 113 1
285 116 1
285 130 1
285 139 1
285 153 1
285 169 1
285 174 1
285 177 1
285 185 1
285 191 1
285 194 1
285 205 1
285 208 1
285 215 1
285 231 1
285 238 1
285 244 1
285 251 1
285 257 1
285 268 1
285 281 1
285 282 1
285 288 1
285 290 1
285 297 1
285 309 1
285 310 1
285 315 1
285 317 1
285 318 1
285 320 1
285 321 1
285 322 1
285 341 1
285 345 1
285 347 1
285 352 1
285 362 1
285 367 1
285 368 1
285 370 1
285 377 1
285 379 1
285 380 1
285 387 1
285 401 1
285 402 1
285 407 1
285 410 1
285 413 1
285 415 1
285 417 1
285 421 1
285 434 1
285 436 1
285 439 1
285 443 1
285 447 1
285 449 1
285 459 1
285 461 1
285 463 1
285 471 1
285 472 1
285 479 1
285 482 1
285 488 1
285 489 1
285 490 1
285 494 1
285 512 1
285 516 1
285 518 1
285 524 1
285 537 1
285 538 1
285 539 1
285 541 1
285 543 1
285 563 1
285 572 1
285 576 1
285 578 1
285 581 1
285 582 1
285 591 1
285 599 1
285 604 1
285 611 1
285 615 1
285 616 1
285 619 1
285 621 1
285 628 1
285 633 1
285 638 1
285 639 1
285 643 1
285 648 1
285 653 1
285 660 1
285 662 1
285 663 1
285 668 1
285 673 1
285 678 1
285 697 1
286 1 1
286 3 1
286 7 1
286 8 1
286 16 1
286 18 1
286 20 1
286 24 1
286 27 1
286 28 1
286 29 1
286 37 1
286 40 1
286 41 1
286 42 1
286 47 1
286 48 1
286 57 1
286 59 1
286 60 1
286 62 1
286 63 1
286 68 1
286 76 1
286 78 1
286 81 1
286 82 1
286 83 1
286 85 1
286 88 1
286 90 1
286 103 1
286 105 1
286 106 1
286 117 1
286 118 1
286 127 1
286 128 1
286 129 1
286 132 1
286 133 1
286 138 1
286 141 1
286 142 1
286 146 1
286 152 1
286 156 1
286 160 1
286 162 1
286 171 1
286 176 1
286 177 1
286 178 1
286 180 1
286 181 1
286 182 1
286 184 1
286 187 1
286 193 1
286 196 1
286 203 1
286 206 1
286 211 1
286 212 1
286 213 1
286 216 1
286 219 1
286 229 1
286 232 1
286 233 1
286 239 1
286 244 1
286 245 1
286 251 1
286 253 1
286 260 1
286 269 1
286 270 1
286 287 1
286 296 1
286 300 1
286 301 1
286 306 1
286 308 1
286 314 1
286 315 1
286 317 1
286 319 1
286 324 1
286 326 1
286 328 1
286 329 1
286 333 1
286 342 1
286 343 1
286 353 1
286 357 1
286 360 1
286 362 1
286 369 1
286 376 1
286 378 1
286 383 1
286 386 1
286 391 1
286 402 1
286 405 1
286 407 1
286 408 1
286 412 1
286 414 1
286 424 1
286 425 1
286 426 1
286 428 1
286 431 1
286 433 1
286 447 1
286 451 1
286 453 1
286 459 1
286 461 1
286 469 1
286 476 1
286 479 1
286 492 1
286 500 1
286 503 1
286 507 1
286 510 1
286 513 1
286 514 1
286 517 1
286 522 1
286 526 1
286 534 1
286 535 1
286 537 1
286 542 1
286 545 1
286 557 1
286 563 1
286 565 1
286 569 1
286 570 1
286 576 1
286 594 1
286 595 1
286 597 1
286 598 1
286 607 1
286 615 1
286 619 1
286 620 1
286 621 1
286 623 1
286 624 1
286 636 1
286 637 1
286 638 1
286 650 1
286 651 1
286 653 1
286 654 1
286 657 1
286 658 1
286 665 1
286 666 1
286 673 1
286 676 1
286 679 1
286 683 1
286 685 1
286 691 1
286 693 1
286 695 1
286 697 1
286 698 1
287 19 1
287 23 1
287 24 1
287 30 1
287 33 1
287 42 1
287 46 1
287 53 1
287 57 1
287 63 1
287 68 1
287 71 1
287 73 1
287 79 1
287 89 1
287 91 1
287 96 1
287 102 1
287 108 1
287 115 1
287 118 1
287 119 1
287 125 1
287 127 1
287 128 1
287 129 1
287 133 1
287 135 1
287 137 1
287 141 1
287 152 1
287 165 1
287 169 1
287 185 1
287 191 1
287 194 1
287 201 1
287 208 1
287 214 1
287 217 1
287 220 1
287 222 1
287 255 1
287 258 1
287 260 1
287 262 1
287 264 1
287 271 1
287 272 1
287 286 1
287 291 1
287 292 1
287 293 1
287 299 1
287 300 1
287 304 1
287 309 1
287 311 1
287 314 1
287 319 1
287 321 1
287 322 1
287 342 1
287 343 1
287 351 1
287 352 1
287 358 1
287 361 1
287 364 1
287 365 1
287 367 1
287 373 1
287 379 1
287 380 1
287 382 1
287 385 1
287 391 1
287 396 1
287 409 1
287 412 1
287 414 1
287 418 1
287 419 1
287 420 1
287 423 1
287 424 1
287 430 1
287 432 1
287 434 1
287 440 1
287 451 1
287 457 1
287 462 1
287 466 1
287 467 1
287 470 1
287 474 1
287 480 1
287 483 1
287 486 1
287 487 1
287 488 1
287 489 1
287 497 1
287 505 1
287 514 1
287 518 1
287 520 1
287 523 1
287 527 1
287 546 1
287 550 1
287 551 1
287 554 1
287 555 1
287 558 1
287 561 1
287 568 1
287 570 1
287 576 1
287 582 1
287 583 1
287 584 1
287 585 1
287 590 1
287 593 1
287 594 1
287 598 1
287 604 1
287 605 1
287 607 1
287 612 1
287 621 1
287 626 1
287 637 1
287 638 1
287 641 1
287 644 1
287 649 1
287 655 1
287 662 1
287 663 1
287 664 1
287 670 1
287 671 1
287 678 1
287 679 1
287 686 1
287 690 1
287 691 1
287 692 1
287 700 1
288 3 1
288 10 1
288 14 1
288 17 1
288 21 1
288 28 1
288 32 1
288 37 1
288 44 1
288 53 1
288 54 1
288 55 1
288 56 1
288 57 1
288 75 1
288 78 1
288 89 1
288 93 1
288 95 1
288 97 1
288 100 1
288 101 1
288 104 1
288 114 1
288 118 1
288 124 1
288 134 1
288 142 1
288 143 1
288 150 1
288 152 1
288 157 1
288 159 1
288 169 1
288 174 1
288 177 1
288 181 1
288 187 1
288 188 1
288 191 1
288 194 1
288 200 1
288 203 1
288 207 1
288 232 1
288 237 1
288 238 1
288 239 1
288 240 1
288 242 1
288 247 1
288 248 1
288 257 1
288 258 1
288 267 1
288 274 1
288 275 1
288 278 1
288 281 1
288 285 1
288 290 1
288 295 1
288 300 1
288 310 1
288 322 1
288 329 1
288 334 1
288 345 1
288 346 1
288 354 1
288 358 1
288 359 1
288 360 1
288 362 1
288 367 1
288 376 1
288 378 1
288 381 1
288 384 1
288 388 1
288 393 1
288 415 1
288 418 1
288 431 1
288 436 1
288 441 1
288 442 1
288 443 1
288 448 1
288 452 1
288 456 1
288 458 1
288 459 1
288 460 1
288 464 1
288 468 1
288 479 1
288 482 1
288 483 1
288 486 1
288 489 1
288 491 1
288 497 1
288 499 1
288 503 1
288 504 1
288 509 1
288 518 1
288 522 1
288 535 1
288 537 1
288 546 1
288 558 1
288 570 1
288 572 1
288 573 1
288 583 1
288 585 1
288 591 1
288 597 1
288 598 1
288 604 1
288 610 1
288 624 1
288 631 1
288 636 1
288 641 1
288 647 1
288 653 1
288 655 1
288 656 1
288 658 1
288 663 1
288 666 1
288 670 1
288 675 1
288 676 1
288 682 1
288 697 1
288 699 1
289 8 1
289 13 1
289 19 1
289 21 1
289 22 1
289 24 1
289 34 1
289 39 1
289 42 1
289 48 1
289 49 1
289 55 1
289 61 1
289 74 1
289 81 1
289 82 1
289 90 1
289 95 1
289 112 1
289 136 1
289 138 1
289 154 1
289 155 1
289 160 1
289 163 1
289 194 1
289 195 1
289 197 1
289 200 1
289 203 1
289 208 1
289 209 1
289 214 1
289 219 1
289 228 1
289 229 1
289 230 1
289 232 1
289 233 1
289 236 1
289 237 1
289 240 1
289 241 1
289 254 1
289 261 1
289 262 1
289 268 1
289 269 1
289 275 1
289 276 1
289 279 1
289 280 1
289 293 1
289 297 1
289 298 1
289 323 1
289 325 1
289 333 1
289 338 1
289 344 1
289 359 1
289 361 1
289 370 1
289 371 1
289 383 1
289 389 1
289 392 1
289 394 1
289 403 1
289 404 1
289 411 1
289 412 1
289 414 1
289 417 1
289 424 1
289 435 1
289 438 1
289 443 1
289 449 1
289 450 1
289 453 1
289 454 1
289 457 1
289 464 1
289 468 1
289 477 1
289 482 1
289 487 1
289 489 1
289 499 1
289 506 1
289 507 1
289 508 1
289 512 1
289 515 1
289 517 1
289 523 1
289 526 1
289 535 1
289 539 1
289 540 1
289 549 1
289 552 1
289 558 1
289 578 1
289 586 1
289 591 1
289 592 1
289 595 1
289 596 1
289 599 1
289 609 1
289 611 1
289 612 1
289 613 1
289 614 1
289 630 1
289 633 1
289 650 1
289 652 1
289 654 1
289 658 1
289 666 1
289 667 1
289 668 1
289 673 1
289 680 1
289 687 1
289 694 1
289 695 1
289 698 1
289 699 1
290 1 1
290 2 1
290 3 1
290 5 1
290 18 1
290 19 1
290 20 1
290 34 1
290 35 1
290 53 1
290 57 1
290 58 1
290 62 1
290 68 1
290 69 1
290 72 1
290 73 1
290 85 1
290 86 1
290 88 1
290 90 1
290 112 1
290 116 1
290 118 1
290 121 1
290 122 1
290 127 1
290 129 1
290 131 1
290 140 1
290 145 1
290 150 1
290 154 1
290 155 1
290 156 1
290 158 1
290 160 1
290 161 1
290 173 1
290 176 1
290 188 1
290 189 1
290 195 1
290 198 1
290 201 1
290 206 1
290 209 1
290 217 1
290 221 1
290 226 1
290 245 1
290 248 1
290 250 1
290 252 1
290 259 1
290 262 1
290 267 1
290 269 1
290 271 1
290 273 1
290 275 1
290 285 1
290 288 1
290 293 1
290 307 1
290 314 1
290 319 1
290 329 1
290 330 1
290 336 1
290 341 1
290 342 1
290 343 1
290 347 1
290 348 1
290 349 1
290 358 1
290 360 1
290 362 1
290 367 1
290 371 1
290 373 1
290 376 1
290 378 1
290 382 1
290 386 1
290 390 1
290 406 1
290 409 1
290 411 1
290 417 1
290 418 1
290 424 1
290 429 1
290 438 1
290 440 1
290 445 1
290 447 1
290 452 1
290 453 1
290 461 1
290 464 1
290 470 1
290 474 1
290 477 1
290 478 1
290 479 1
290 485 1
290 486 1
290 489 1
290 497 1
290 503 1
290 520 1
290 528 1
290 531 1
290 536 1
290 542 1
290 545 1
290 550 1
290 551 1
290 552 1
290 553 1
290 558 1
290 566 1
290 567 1
290 593 1
290 603 1
290 605 1
290 606 1
290 612 1
290 615 1
290 617 1
290 619 1
290 621 1
290 644 1
290 654 1
290 657 1
290 659 1
290 675 1
290 692 1
290 693 1
290 699 1
291 5 1
291 6 1
291 19 1
291 25 1
291 39 1
291 47 1
291 49 1
291 67 1
291 70 1
291 71 1
291 73 1
291 80 1
291 81 1
291 88 1
291 99 1
291 105 1
291 107 1
291 114 1
291 117 1
291 123 1
291 133 1
291 135 1
291 141 1
291 146 1
291 151 1
291 154 1
291 164 1
291 165 1
291 167 1
291 176 1
291 178 1
291 179 1
291 180 1
291 184 1
291 190 1
291 191 1
291 193 1
291 195 1
291 196 1
291 202 1
291 203 1
291 206 1
291 211 1
291 217 1
291 219 1
291 235 1
291 248 1
291 249 1
291 250 1
291 253 1
291 254 1
291 256 1
291 262 1
291 265 1
291 266 1
291 282 1
291 287 1
291 293 1
291 297 1
291 300 1
291 302 1
291 312 1
291 320 1
291 322 1
291 323 1
291 326 1
291 330 1
291 332 1
291 337 1
291 340 1
291 351 1
291 354 1
291 357 1
291 370 1
291 371 1
291 374 1
291 375 1
291 379 1
291 381 1
291 392 1
291 396 1
291 412 1
291 416 1
291 423 1
291 424 1
291 451 1
291 454 1
291 467 1
291 469 1
291 470 1
291 471 1
291 474 1
291 478 1
291 479 1
291 484 1
291 496 1
291 500 1
291 505 1
291 512 1
291 534 1
291 537 1
291 553 1
291 557 1
291 558 1
291 590 1
291 593 1
291 595 1
291 608 1
291 617 1
291 618 1
291 623 1
291 628 1
291 630 1
291 636 1
291 637 1
291 642 1
291 643 1
291 644 1
291 650 1
291 657 1
291 660 1
291 661 1
291 669 1
291 671 1
291 674 1
291 680 1
291 690 1
291 691 1
291 695 1
291 696 1
291 698 1
292 6 1
292 9 1
292 21 1
292 22 1
292 39 1
292 45 1
292 47 1
292 49 1
292 54 1
292 57 1
292 67 1
292 73 1
292 91 1
292 99 1
292 105 1
292 109 1
292 116 1
292 124 1
292 130 1
292 136 1
292 137 1
292 138 1
292 140 1
292 144 1
292 149 1
292 153 1
292 156 1
292 157 1
292 160 1
292 164 1
292 169 1
292 173 1
292 178 1
292 179 1
292 182 1
292 192 1
292 193 1
292 194 1
292 201 1
292 205 1
292 208 1
292 214 1
292 216 1
292 219 1
292 221 1
292 224 1
292 226 1
292 227 1
292 229 1
292 232 1
292 233 1
292 234 1
292 239 1
292 245 1
292 252 1
292 253 1
292 255 1
292 261 1
292 265 1
292 274 1
292 278 1
292 280 1
292 283 1
292 284 1
292 287 1
292 298 1
292 299 1
292 301 1
292 318 1
292 320 1
292 322 1
292 331 1
292 347 1
292 352 1
292 364 1
292 367 1
292 391 1
292 394 1
292 396 1
292 398 1
292 399 1
292 407 1
292 409 1
292 411 1
292 412 1
292 413 1
292 414 1
292 421 1
292 429 1
292 433 1
292 435 1
292 439 1
292 440 1
292 454 1
292 455 1
292 459 1
292 461 1
292 467 1
292 473 1
292 474 1
292 495 1
292 506 1
292 525 1
292 534 1
292 540 1
292 546 1
292 551 1
292 564 1
292 576 1
292 581 1
292 585 1
292 596 1
292 600 1
292 605 1
292 613 1
292 624 1
292 626 1
292 640 1
292 646 1
292 648 1
292 653 1
292 656 1
292 664 1
292 665 1
292 670 1
292 672 1
292 674 1
292 675 1
292 677 1
292 678 1
292 679 1
292 681 1
292 683 1
292 688 1
292 694 1
292 699 1
293 1 1
293 4 1
293 7 1
293 9 1
293 11 1
293 12 1
293 16 1
293 18 1
293 20 1
293 23 1
293 26 1
293 33 1
293 38 1
293 39 1
293 40 1
293 42 1
293 43 1
293 55 1
293 56 1
293 59 1
293 63 1
293 67 1
293 69 1
293 76 1
293 90 1
293 94 1
293 107 1
293 110 1
293 111 1
293 112 1
293 113 1
293 122 1
293 128 1
293 129 1
293 137 1
293 145 1
293 146 1
293 153 1
293 173 1
293 178 1
293 179 1
293 181 1
293 185 1
293 194 1
293 202 1
293 214 1
293 217 1
293 224 1
293 227 1
293 236 1
293 240 1
293 250 1
293 251 1
293 258 1
293 259 1
293 260 1
293 264 1
293 267 1
293 271 1
293 273 1
293 287 1
293 289 1
293 290 1
293 291 1
293 298 1
293 302 1
293 307 1
293 314 1
293 318 1
293 323 1
293 332 1
293 333 1
293 336 1
293 340 1
293 341 1
293 342 1
293 348 1
293 351 1
293 355 1
293 359 1
293 365 1
293 374 1
293 378 1
293 381 1
293 383 1
293 384 1
293 389 1
293 399 1
293 400 1
293 404 1
293 407 1
293 408 1
293 409 1
293 410 1
293 415 1
293 418 1
293 420 1
293 421 1
293 423 1
293 424 1
293 425 1
293 426 1
293 428 1
293 438 1
293 444 1
293 447 1
293 460 1
293 465 1
293 483 1
293 490 1
293 498 1
293 499 1
293 502 1
293 504 1
293 510 1
293 517 1
293 519 1
293 520 1
293 521 1
293 528 1
293 530 1
293 533 1
293 538 1
293 545 1
293 553 1
293 566 1
293 571 1
293 572 1
293 581 1
293 584 1
293 593 1
293 600 1
293 601 1
293 603 1
293 604 1
293 607 1
293 608 1
293 610 1
293 620 1
293 625 1
293 644 1
293 645 1
293 651 1
293 661 1
293 664 1
293 665 1
293 668 1
293 669 1
293 673 1
293 677 1
293 682 1
293 685 1
293 687 1
293 697 1
294 14 1
294 15 1
294 17 1
294 19 1
294 22 1
294 25 1
294 28 1
294 30 1
294 41 1
294 47 1
294 62 1
294 67 1
294 68 1
294 73 1
294 76 1
294 96 1
294 98 1
294 103 1
294 115 1
294 118 1
294 121 1
294 132 1
294 133 1
294 135 1
294 139 1
294 140 1
294 141 1
294 143 1
294 146 1
294 147 1
294 153 1
294 154 1
294 158 1
294 160 1
294 170 1
294 171 1
294 177 1
294 191 1
294 196 1
294 201 1
294 204 1
294 214 1
294 228 1
294 235 1
294 238 1
294 241 1
294 242 1
294 244 1
294 253 1
294 255 1
294 256 1
294 258 1
294 259 1
294 266 1
294 267 1
294 268 1
294 271 1
294 273 1
294 275 1
294 281 1
294 295 1
294 303 1
294 306 1
294 312 1
294 314 1
294 316 1
294 319 1
294 326 1
294 331 1
294 335 1
294 343 1
294 345 1
294 346 1
294 349 1
294 351 1
294 361 1
294 370 1
294 375 1
294 381 1
294 386 1
294 389 1
294 391 1
294 392 1
294 408 1
294 409 1
294 412 1
294 417 1
294 426 1
294 428 1
294 434 1
294 435 1
294 444 1
294 446 1
294 447 1
294 449 1
294 450 1
294 455 1
294 456 1
294 464 1
294 469 1
294 470 1
294 472 1
294 473 1
294 476 1
294 486 1
294 492 1
294 495 1
294 498 1
294 501 1
294 503 1
294 506 1
294 507 1
294 518 1
294 519 1
294 523 1
294 526 1
294 541 1
294 542 1
294 549 1
294 550 1
294 552 1
294 564 1
294 566 1
294 567 1
294 569 1
294 580 1
294 583 1
294 603 1
294 607 1
294 613 1
294 614 1
294 626 1
294 630 1
294 632 1
294 643 1
294 655 1
294 663 1
294 673 1
294 677 1
294 680 1
294 693 1
294 697 1
295 3 1
295 4 1
295 16 1
295 17 1
295 27 1
295 33 1
295 42 1
295 67 1
295 72 1
295 75 1
295 79 1
295 82 1
295 84 1
295 89 1
295 102 1
295 108 1
295 109 1
295 114 1
295 119 1
295 124 1
295 127 1
295 134 1
295 139 1
295 148 1
295 149 1
295 152 1
295 153 1
295 157 1
295 159 1
295 160 1
295 162 1
295 169 1
295 173 1
295 182 1
295 187 1
295 191 1
295 198 1
295 199 1
295 200 1
295 207 1
295 217 1
295 224 1
295 231 1
295 233 1
295 238 1
295 242 1
295 243 1
295 253 1
295 254 1
295 256 1
295 262 1
295 266 1
295 277 1
295 283 1
295 288 1
295 294 1
295 300 1
295 334 1
295 335 1
295 344 1
295 358 1
295 365 1
295 367 1
295 387 1
295 388 1
295 390 1
295 392 1
295 399 1
295 401 1
295 402 1
295 410 1
295 411 1
295 434 1
295 437 1
295 438 1
295 447 1
295 448 1
295 464 1
295 471 1
295 472 1
295 482 1
295 498 1
295 499 1
295 503 1
295 513 1
295 516 1
295 523 1
295 524 1
295 529 1
295 535 1
295 536 1
295 546 1
295 556 1
295 580 1
295 588 1
295 597 1
295 600 1
295 602 1
295 609 1
295 610 1
295 612 1
295 613 1
295 618 1
295 619 1
295 621 1
295 624 1
295 625 1
295 627 1
295 629 1
295 643 1
295 644 1
295 647 1
295 656 1
295 662 1
295 664 1
295 665 1
295 670 1
295 673 1
295 674 1
295 691 1
295 693 1
295 695 1
295 698 1
296 7 1
296 8 1
296 12 1
296 24 1
296 27 1
296 37 1
296 38 1
296 40 1
296 41 1
296 44 1
296 51 1
296 53 1
296 54 1
296 59 1
296 63 1
296 70 1
296 75 1
296 78 1
296 79 1
296 86 1
296 88 1
296 96 1
296 101 1
296 107 1
296 117 1
296 119 1
296 123 1
296 126 1
296 128 1
296 134 1
296 139 1
296 141 1
296 144 1
296 148 1
296 154 1
296 163 1
296 165 1
296 173 1
296 174 1
296 189 1
296 191 1
296 199 1
296 201 1
296 208 1
296 211 1
296 215 1
296 221 1
296 228 1
296 229 1
296 237 1
296 239 1
296 240 1
296 242 1
296 247 1
296 251 1
296 252 1
296 259 1
296 262 1
296 267 1
296 269 1
296 271 1
296 272 1
296 276 1
296 277 1
296 286 1
296 303 1
296 304 1
296 307 1
296 317 1
296 324 1
296 325 1
296 327 1
296 328 1
296 330 1
296 331 1
296 339 1
296 347 1
296 359 1
296 370 1
296 372 1
296 375 1
296 376 1
296 378 1
296 379 1
296 394 1
296 401 1
296 404 1
296 406 1
296 413 1
296 415 1
296 416 1
296 429 1
296 431 1
296 437 1
296 438 1
296 443 1
296 457 1
296 459 1
296 460 1
296 461 1
296 463 1
296 464 1
296 471 1
296 477 1
296 478 1
296 482 1
296 500 1
296 510 1
296 513 1
296 521 1
296 527 1
296 546 1
296 550 1
296 552 1
296 557 1
296 561 1
296 565 1
296 566 1
296 571 1
296 573 1
296 590 1
296 593 1
296 596 1
296 617 1
296 619 1
296 636 1
296 649 1
296 652 1
296 659 1
296 669 1
296 679 1
296 685 1
296 688 1
296 690 1
297 9 1
297 15 1
297 36 1
297 40 1
297 46 1
297 62 1
297 64 1
297 65 1
297 71 1
297 76 1
297 81 1
297 83 1
297 84 1
297 88 1
297 102 1
297 104 1
297 110 1
297 113 1
297 116 1
297 120 1
297 129 1
297 136 1
297 140 1
297 144 1
297 145 1
297 148 1
297 152 1
297 155 1
297 160 1
297 171 1
297 175 1
297 180 1
297 188 1
297 199 1
297 200 1
297 202 1
297 203 1
297 213 1
297 230 1
297 235 1
297 236 1
297 240 1
297 245 1
297 246 1
297 250 1
297 253 1
297 256 1
297 261 1
297 265 1
297 274 1
297 277 1
297 285 1
297 289 1
297 291 1
297 303 1
297 304 1
297 307 1
297 309 1
297 317 1
297 319 1
297 321 1
297 338 1
297 356 1
297 362 1
297 364 1
297 371 1
297 381 1
297 387 1
297 389 1
297 396 1
297 402 1
297 404 1
297 405 1
297 417 1
297 418 1
297 428 1
297 430 1
297 436 1
297 445 1
297 447 1
297 454 1
297 461 1
297 465 1
297 469 1
297 473 1
297 474 1
297 475 1
297 490 1
297 497 1
297 499 1
297 501 1
297 527 1
297 531 1
297 537 1
297 540 1
297 544 1
297 559 1
297 563 1
297 564 1
297 568 1
297 579 1
297 583 1
297 584 1
297 589 1
297 594 1
297 598 1
297 634 1
297 648 1
297 659 1
297 669 1
297 672 1
297 674 1
297 678 1
297 679 1
297 680 1
297 681 1
297 687 1
297 691 1
297 694 1
297 698 1
298 6 1
298 15 1
298 17 1
298 19 1
298 22 1
298 26 1
298 30 1
298 31 1
298 32 1
298 38 1
298 41 1
298 46 1
298 51 1
298 78 1
298 79 1
298 88 1
298 90 1
298 110 1
298 118 1
298 122 1
298 124 1
298 126 1
298 127 1
298 132 1
298 139 1
298 141 1
298 143 1
298 144 1
298 146 1
298 154 1
298 158 1
298 173 1
298 174 1
298 180 1
298 185 1
298 191 1
298 192 1
298 195 1
298 198 1
298 200 1
298 204 1
298 211 1
298 219 1
298 224 1
298 230 1
298 235 1
298 237 1
298 239 1
298 240 1
298 241 1
298 247 1
298 251 1
298 257 1
298 262 1
298 264 1
298 276 1
298 283 1
298 289 1
298 292 1
298 293 1
298 299 1
298 303 1
298 308 1
298 310 1
298 340 1
298 341 1
298 348 1
298 349 1
298 354 1
298 358 1
298 361 1
298 362 1
298 364 1
298 366 1
298 369 1
298 374 1
298 386 1
298 387 1
298 397 1
298 398 1
298 403 1
298 404 1
298 405 1
298 409 1
298 413 1
298 429 1
298 433 1
298 445 1
298 455 1
298 461 1
298 479 1
298 489 1
298 491 1
298 512 1
298 514 1
298 516 1
298 523 1
298 533 1
298 536 1
298 538 1
298 539 1
298 540 1
298 542 1
298 546 1
298 549 1
298 551 1
298 552 1
298 553 1
298 555 1
298 559 1
298 563 1
298 566 1
298 568 1
298 579 1
298 587 1
298 593 1
298 597 1
298 603 1
298 617 1
298 627 1
298 628 1
298 639 1
298 657 1
298 660 1
298 663 1
298 664 1
298 665 1
298 667 1
298 670 1
298 681 1
298 694 1
299 11 1
299 14 1
299 21 1
299 26 1
299 32 1
299 37 1
299 38 1
299 41 1
299 43 1
299 49 1
299 54 1
299 70 1
299 71 1
299 72 1
299 73 1
299 75 1
299 76 1
299 82 1
299 84 1
299 91 1
299 92 1
299 99 1
299 101 1
299 104 1
299 107 1
299 110 1
299 111 1
299 135 1
299 143 1
299 160 1
299 164 1
299 166 1
299 169 1
299 180 1
299 185 1
299 193 1
299 201 1
299 205 1
299 211 1
299 218 1
299 225 1
299 228 1
299 236 1
299 244 1
299 253 1
299 268 1
299 272 1
299 287 1
299 292 1
299 298 1
299 306 1
299 310 1
299 322 1
299 323 1
299 329 1
299 336 1
299 340 1
299 348 1
299 350 1
299 356 1
299 380 1
299 390 1
299 394 1
299 396 1
299 399 1
299 410 1
299 426 1
299 441 1
299 442 1
299 446 1
299 455 1
299 457 1
299 460 1
299 473 1
299 476 1
299 482 1
299 484 1
299 494 1
299 496 1
299 508 1
299 510 1
299 513 1
299 516 1
299 520 1
299 537 1
299 541 1
299 549 1
299 552 1
299 553 1
299 554 1
299 555 1
299 557 1
299 560 1
299 566 1
299 570 1
299 572 1
299 579 1
299 589 1
299 598 1
299 608 1
299 620 1
299 624 1
299 639 1
299 647 1
299 649 1
299 655 1
299 656 1
299 660 1
299 665 1
299 667 1
299 677 1
299 689 1
299 690 1
300 5 1
300 19 1
300 20 1
300 26 1
300 31 1
300 37 1
300 48 1
300 59 1
300 64 1
300 68 1
300 72 1
300 76 1
300 77 1
300 78 1
300 79 1
300 81 1
300 86 1
300 88 1
300 89 1
300 93 1
300 95 1
300 96 1
300 97 1
300 98 1
300 102 1
300 108 1
300 121 1
300 124 1
300 127 1
300 129 1
300 138 1
300 140 1
300 141 1
300 144 1
300 168 1
300 173 1
300 176 1
300 178 1
300 182 1
300 184 1
300 185 1
300 186 1
300 189 1
300 194 1
300 201 1
300 214 1
300 218 1
300 220 1
300 228 1
300 232 1
300 252 1
300 255 1
300 261 1
300 272 1
300 277 1
300 281 1
300 284 1
300 286 1
300 287 1
300 288 1
300 291 1
300 295 1
300 302 1
300 305 1
300 309 1
300 311 1
300 324 1
300 332 1
300 333 1
300 336 1
300 342 1
300 348 1
300 349 1
300 351 1
300 354 1
300 356 1
300 369 1
300 382 1
300 387 1
300 390 1
300 404 1
300 410 1
300 416 1
300 418 1
300 420 1
300 437 1
300 440 1
300 442 1
300 461 1
300 466 1
300 475 1
300 482 1
300 487 1
300 489 1
300 492 1
300 493 1
300 494 1
300 495 1
300 496 1
300 497 1
300 504 1
300 508 1
300 525 1
300 528 1
300 530 1
300 532 1
300 536 1
300 537 1
300 540 1
300 541 1
300 544 1
300 549 1
300 551 1
300 557 1
300 559 1
300 560 1
300 569 1
300 570 1
300 572 1
300 573 1
300 586 1
300 589 1
300 590 1
300 592 1
300 597 1
300 602 1
300 604 1
300 605 1
300 617 1
300 620 1
300 622 1
300 626 1
300 636 1
300 641 1
300 642 1
300 656 1
300 663 1
300 666 1
300 669 1
300 672 1
300 673 1
300 681 1
300 685 1
300 690 1
300 697 1
300 698 1
300 700 1
301 2 1
301 3 1
301 5 1
301 10 1
301 20 1
301 21 1
301 23 1
301 26 1
301 28 1
301 38 1
301 44 1
301 49 1
301 60 1
301 62 1
301 67 1
301 68 1
301 73 1
301 77 1
301 78 1
301 82 1
301 83 1
301 88 1
301 97 1
301 98 1
301 108 1
301 113 1
301 125 1
301 127 1
301 143 1
301 147 1
301 152 1
301 153 1
301 160 1
301 166 1
301 170 1
301 177 1
301 182 1
301 185 1
301 188 1
301 191 1
301 193 1
301 200 1
301 204 1
301 206 1
301 210 1
301 217 1
301 218 1
301 219 1
301 220 1
301 228 1
301 230 1
301 231 1
301 232 1
301 235 1
301 237 1
301 242 1
301 243 1
301 245 1
301 246 1
301 262 1
301 265 1
301 272 1
301 274 1
301 278 1
301 280 1
301 281 1
301 286 1
301 292 1
301 308 1
301 309 1
301 313 1
301 314 1
301 317 1
301 321 1
301 324 1
301 330 1
301 331 1
301 334 1
301 337 1
301 341 1
301 350 1
301 351 1
301 357 1
301 370 1
301 371 1
301 373 1
301 375 1
301 389 1
301 390 1
301 395 1
301 401 1
301 403 1
301 404 1
301 412 1
301 421 1
301 433 1
301 436 1
301 439 1
301 451 1
301 457 1
301 462 1
301 465 1
301 466 1
301 473 1
301 476 1
301 479 1
301 483 1
301 491 1
301 498 1
301 499 1
301 510 1
301 512 1
301 513 1
301 514 1
301 517 1
301 519 1
301 531 1
301 532 1
301 534 1
301 537 1
301 543 1
301 547 1
301 549 1
301 555 1
301 559 1
301 564 1
301 566 1
301 572 1
301 576 1
301 578 1
301 587 1
301 593 1
301 600 1
301 601 1
301 603 1
301 605 1
301 615 1
301 617 1
301 625 1
301 629 1
301 639 1
301 642 1
301 647 1
301 654 1
301 655 1
301 656 1
301 657 1
301 673 1
301 681 1
301 682 1
301 683 1
301 686 1
301 689 1
301 695 1
301 696 1
301 697 1
302 3 1
302 4 1
302 5 1
302 10 1
302 14 1
302 26 1
302 37 1
302 45 1
302 49 1
302 54 1
302 61 1
302 79 1
302 92 1
302 97 1
302 103 1
302 113 1
302 121 1
302 128 1
302 130 1
302 131 1
302 132 1
302 133 1
302 140 1
302 142 1
302 143 1
302 147 1
302 158 1
302 160 1
302 161 1
302 166 1
302 175 1
302 190 1
302 191 1
302 196 1
302 197 1
302 206 1
302 210 1
302 218 1
302 221 1
302 225 1
302 232 1
302 242 1
302 243 1
302 244 1
302 246 1
302 256 1
302 260 1
302 262 1
302 263 1
302 266 1
302 267 1
302 269 1
302 273 1
302 275 1
302 279 1
302 291 1
302 293 1
302 300 1
302 310 1
302 311 1
302 315 1
302 322 1
302 323 1
302 330 1
302 344 1
302 348 1
302 351 1
302 355 1
302 368 1
302 375 1
302 395 1
302 400 1
302 402 1
302 406 1
302 411 1
302 414 1
302 415 1
302 426 1
302 432 1
302 442 1
302 448 1
302 449 1
302 457 1
302 468 1
302 469 1
302 473 1
302 474 1
302 477 1
302 486 1
302 487 1
302 493 1
302 497 1
302 500 1
302 506 1
302 514 1
302 533 1
302 539 1
302 542 1
302 548 1
302 550 1
302 554 1
302 555 1
302 569 1
302 571 1
302 572 1
302 573 1
302 582 1
302 588 1
302 595 1
302 598 1
302 600 1
302 601 1
302 604 1
302 605 1
302 610 1
302 615 1
302 622 1
302 624 1
302 627 1
302 629 1
302 633 1
302 642 1
302 645 1
302 649 1
302 653 1
302 662 1
302 676 1
302 677 1
302 682 1
302 683 1
302 697 1
303 2 1
303 9 1
303 14 1
303 18 1
303 24 1
303 30 1
303 31 1
303 36 1
303 39 1
303 41 1
303 59 1
303 61 1
303 62 1
303 73 1
303 79 1
303 86 1
303 90 1
303 91 1
303 93 1
303 94 1
303 96 1
303 103 1
303 116 1
303 119 1
303 120 1
303 122 1
303 123 1
303 125 1
303 126 1
303 131 1
303 139 1
303 140 1
303 141 1
303 148 1
303 154 1
303 159 1
303 171 1
303 178 1
303 179 1
303 180 1
303 183 1
303 188 1
303 191 1
303 202 1
303 207 1
303 219 1
303 222 1
303 230 1
303 231 1
303 233 1
303 236 1
303 241 1
303 243 1
303 245 1
303 248 1
303 254 1
303 260 1
303 263 1
303 270 1
303 271 1
303 272 1
303 278 1
303 279 1
303 294 1
303 296 1
303 297 1
303 298 1
303 313 1
303 315 1
303 331 1
303 333 1
303 337 1
303 342 1
303 349 1
303 355 1
303 360 1
303 367 1
303 379 1
303 384 1
303 386 1
303 393 1
303 396 1
303 402 1
303 413 1
303 414 1
303 417 1
303 425 1
303 429 1
303 430 1
303 432 1
303 434 1
303 445 1
303 451 1
303 452 1
303 459 1
303 470 1
303 473 1
303 479 1
303 483 1
303 489 1
303 510 1
303 516 1
303 534 1
303 540 1
303 543 1
303 548 1
303 551 1
303 552 1
303 558 1
303 560 1
303 576 1
303 581 1
303 583 1
303 587 1
303 590 1
303 596 1
303 597 1
303 599 1
303 604 1
303 616 1
303 631 1
303 635 1
303 636 1
303 637 1
303 640 1
303 642 1
303 644 1
303 646 1
303 653 1
303 659 1
303 663 1
303 671 1
303 676 1
303 683 1
303 688 1
303 689 1
303 690 1
303 693 1
303 696 1
303 697 1
304 3 1
304 7 1
304 8 1
304 19 1
304 22 1
304 30 1
304 32 1
304 35 1
304 36 1
304 37 1
304 40 1
304 46 1
304 47 1
304 49 1
304 54 1
304 56 1
304 57 1
304 62 1
304 77 1
304 98 1
304 100 1
304 101 1
304 111 1
304 113 1
304 120 1
304 121 1
304 128 1
304 134 1
304 138 1
304 144 1
304 149 1
304 154 1
304 155 1
304 165 1
304 168 1
304 171 1
304 173 1
304 177 1
304 178 1
304 180 1
304 184 1
304 192 1
304 203 1
304 207 1
304 214 1
304 220 1
304 225 1
304 226 1
304 228 1
304 237 1
304 257 1
304 259 1
304 268 1
304 269 1
304 281 1
304 283 1
304 287 1
304 296 1
304 297 1
304 312 1
304 319 1
304 320 1
304 325 1
304 341 1
304 343 1
304 344 1
304 347 1
304 358 1
304 364 1
304 367 1
304 368 1
304 370 1
304 381 1
304 384 1
304 386 1
304 392 1
304 393 1
304 394 1
304 395 1
304 400 1
304 405 1
304 406 1
304 409 1
304 413 1
304 415 1
304 416 1
304 418 1
304 422 1
304 427 1
304 433 1
304 434 1
304 436 1
304 442 1
304 444 1
304 445 1
304 454 1
304 457 1
304 458 1
304 462 1
304 471 1
304 482 1
304 489 1
304 495 1
304 497 1
304 498 1
304 502 1
304 503 1
304 506 1
304 521 1
304 533 1
304 536 1
304 537 1
304 544 1
304 550 1
304 552 1
304 555 1
304 562 1
304 564 1
304 566 1
304 573 1
304 574 1
304 580 1
304 581 1
304 584 1
304 589 1
304 594 1
304 598 1
304 599 1
304 600 1
304 603 1
304 616 1
304 617 1
304 618 1
304 622 1
304 623 1
304 624 1
304 634 1
304 649 1
304 651 1
304 652 1
304 653 1
304 657 1
304 660 1
304 666 1
304 669 1
304 670 1
304 674 1
304 675 1
304 686 1
304 687 1
304 688 1
304 695 1
304 697 1
305 4 1
305 6 1
305 10 1
305 31 1
305 32 1
305 34 1
305 35 1
305 44 1
305 48 1
305 49 1
305 50 1
305 60 1
305 64 1
305 70 1
305 75 1
305 76 1
305 78 1
305 79 1
305 86 1
305 87 1
305 92 1
305 104 1
305 105 1
305 108 1
305 111 1
305 116 1
305 118 1
305 135 1
305 137 1
305 141 1
305 143 1
305 145 1
305 167 1
305 174 1
305 178 1
305 183 1
305 189 1
305 193 1
305 194 1
305 197 1
305 200 1
305 208 1
305 219 1
305 222 1
305 227 1
305 239 1
305 240 1
305 241 1
305 242 1
305 247 1
305 249 1
305 252 1
305 260 1
305 271 1
305 274 1
305 276 1
305 280 1
305 300 1
305 306 1
305 307 1
305 316 1
305 321 1
305 322 1
305 324 1
305 335 1
305 340 1
305 342 1
305 349 1
305 353 1
305 354 1
305 357 1
305 358 1
305 359 1
305 363 1
305 364 1
305 367 1
305 368 1
305 371 1
305 372 1
305 381 1
305 383 1
305 387 1
305 388 1
305 394 1
305 395 1
305 399 1
305 414 1
305 417 1
305 427 1
305 429 1
305 436 1
305 440 1
305 442 1
305 448 1
305 450 1
305 460 1
305 463 1
305 468 1
305 471 1
305 475 1
305 480 1
305 481 1
305 494 1
305 496 1
305 503 1
305 508 1
305 513 1
305 516 1
305 523 1
305 524 1
305 530 1
305 534 1
305 536 1
305 538 1
305 539 1
305 544 1
305 549 1
305 551 1
305 560 1
305 572 1
305 581 1
305 582 1
305 591 1
305 607 1
305 608 1
305 609 1
305 610 1
305 612 1
305 617 1
305 624 1
305 627 1
305 633 1
305 638 1
305 643 1
305 654 1
305 655 1
305 659 1
305 673 1
305 674 1
305 676 1
305 680 1
305 695 1
306 2 1
306 4 1
306 12 1
306 20 1
306 21 1
306 27 1
306 28 1
306 29 1
306 30 1
306 53 1
306 67 1
306 75 1
306 88 1
306 89 1
306 93 1
306 98 1
306 101 1
306 103 1
306 110 1
306 113 1
306 116 1
306 125 1
306 126 1
306 129 1
306 134 1
306 135 1
306 136 1
306 138 1
306 149 1
306 155 1
306 157 1
306 162 1
306 165 1
306 166 1
306 173 1
306 179 1
306 186 1
306 194 1
306 205 1
306 208 1
306 216 1
306 218 1
306 225 1
306 229 1
306 230 1
306 243 1
306 256 1
306 259 1
306 262 1
306 265 1
306 270 1
306 272 1
306 275 1
306 276 1
306 284 1
306 286 1
306 294 1
306 299 1
306 305 1
306 314 1
306 322 1
306 327 1
306 331 1
306 334 1
306 341 1
306 344 1
306 350 1
306 358 1
306 362 1
306 367 1
306 369 1
306 373 1
306 379 1
306 380 1
306 388 1
306 401 1
306 406 1
306 409 1
306 415 1
306 416 1
306 419 1
306 423 1
306 425 1
306 428 1
306 433 1
306 443 1
306 447 1
306 451 1
306 453 1
306 463 1
306 466 1
306 469 1
306 473 1
306 475 1
306 479 1
306 482 1
306 483 1
306 488 1
306 492 1
306 494 1
306 499 1
306 500 1
306 512 1
306 516 1
306 517 1
306 520 1
306 529 1
306 532 1
306 533 1
306 534 1
306 541 1
306 542 1
306 551 1
306 553 1
306 557 1
306 560 1
306 561 1
306 562 1
306 564 1
306 570 1
306 575 1
306 582 1
306 592 1
306 594 1
306 600 1
306 601 1
306 615 1
306 622 1
306 623 1
306 629 1
306 637 1
306 638 1
306 644 1
306 653 1
306 654 1
306 657 1
306 669 1
306 675 1
306 677 1
306 683 1
306 684 1
306 694 1
306 696 1
306 698 1
306 699 1
307 7 1
307 19 1
307 25 1
307 32 1
307 33 1
307 35 1
307 36 1
307 40 1
307 49 1
307 50 1
307 54 1
307 57 1
307 61 1
307 64 1
307 65 1
307 67 1
307 84 1
307 86 1
307 93 1
307 95 1
307 99 1
307 101 1
307 104 1
307 105 1
307 116 1
307 123 1
307 134 1
307 135 1
307 150 1
307 158 1
307 161 1
307 163 1
307 165 1
307 166 1
307 171 1
307 172 1
307 176 1
307 188 1
307 200 1
307 203 1
307 206 1
307 212 1
307 214 1
307 216 1
307 223 1
307 224 1
307 226 1
307 229 1
307 233 1
307 241 1
307 242 1
307 252 1
307 258 1
307 259 1
307 262 1
307 265 1
307 266 1
307 272 1
307 284 1
307 290 1
307 293 1
307 296 1
307 297 1
307 305 1
307 309 1
307 324 1
307 330 1
307 335 1
307 337 1
307 345 1
307 346 1
307 349 1
307 362 1
307 368 1
307 370 1
307 374 1
307 376 1
307 385 1
307 394 1
307 397 1
307 401 1
307 408 1
307 415 1
307 417 1
307 418 1
307 420 1
307 425 1
307 428 1
307 429 1
307 431 1
307 432 1
307 442 1
307 447 1
307 449 1
307 454 1
307 458 1
307 482 1
307 483 1
307 491 1
307 499 1
307 500 1
307 512 1
307 523 1
307 524 1
307 525 1
307 527 1
307 530 1
307 531 1
307 540 1
307 546 1
307 547 1
307 550 1
307 554 1
307 560 1
307 574 1
307 575 1
307 578 1
307 581 1
307 582 1
307 588 1
307 589 1
307 590 1
307 593 1
307 594 1
307 598 1
307 599 1
307 616 1
307 617 1
307 621 1
307 622 1
307 623 1
307 631 1
307 638 1
307 640 1
307 647 1
307 657 1
307 662 1
307 664 1
307 666 1
307 669 1
307 670 1
307 676 1
307 690 1
307 694 1
308 6 1
308 13 1
308 23 1
308 27 1
308 35 1
308 58 1
308 62 1
308 63 1
308 70 1
308 72 1
308 75 1
308 76 1
308 78 1
308 84 1
308 91 1
308 101 1
308 117 1
308 120 1
308 126 1
308 150 1
308 152 1
308 155 1
308 163 1
308 165 1
308 176 1
308 177 1
308 178 1
308 182 1
308 185 1
308 189 1
308 198 1
308 199 1
308 204 1
308 209 1
308 214 1
308 217 1
308 222 1
308 225 1
308 228 1
308 230 1
308 239 1
308 244 1
308 253 1
308 257 1
308 260 1
308 261 1
308 267 1
308 286 1
308 298 1
308 301 1
308 326 1
308 331 1
308 338 1
308 339 1
308 347 1
308 348 1
308 350 1
308 351 1
308 359 1
308 363 1
308 371 1
308 373 1
308 382 1
308 384 1
308 393 1
308 400 1
308 402 1
308 403 1
308 406 1
308 410 1
308 420 1
308 444 1
308 452 1
308 454 1
308 461 1
308 463 1
308 466 1
308 471 1
308 481 1
308 483 1
308 487 1
308 521 1
308 530 1
308 534 1
308 536 1
308 539 1
308 544 1
308 546 1
308 547 1
308 550 1
308 556 1
308 559 1
308 564 1
308 566 1
308 568 1
308 577 1
308 586 1
308 587 1
308 590 1
308 600 1
308 602 1
308 606 1
308 607 1
308 608 1
308 609 1
308 610 1
308 612 1
308 615 1
308 628 1
308 640 1
308 646 1
308 651 1
308 657 1
308 664 1
308 667 1
308 677 1
308 680 1
308 690 1
308 693 1
308 695 1
308 697 1
309 7 1
309 8 1
309 10 1
309 14 1
309 27 1
309 35 1
309 39 1
309 41 1
309 43 1
309 49 1
309 61 1
309 70 1
309 82 1
309 83 1
309 89 1
309 94 1
309 95 1
309 98 1
309 102 1
309 109 1
309 117 1
309 118 1
309 125 1
309 132 1
309 150 1
309 152 1
309 159 1
309 164 1
309 165 1
309 171 1
309 188 1
309 192 1
309 203 1
309 207 1
309 208 1
309 217 1
309 227 1
309 228 1
309 230 1
309 252 1
309 255 1
309 262 1
309 271 1
309 273 1
309 281 1
309 284 1
309 285 1
309 287 1
309 297 1
309 300 1
309 301 1
309 307 1
309 322 1
309 328 1
309 334 1
309 339 1
309 341 1
309 358 1
309 359 1
309 363 1
309 366 1
309 388 1
309 390 1
309 399 1
309 408 1
309 412 1
309 413 1
309 415 1
309 416 1
309 424 1
309 426 1
309 430 1
309 440 1
309 445 1
309 451 1
309 455 1
309 457 1
309 459 1
309 465 1
309 470 1
309 475 1
309 476 1
309 480 1
309 481 1
309 490 1
309 492 1
309 502 1
309 508 1
309 516 1
309 518 1
309 521 1
309 539 1
309 546 1
309 550 1
309 557 1
309 558 1
309 559 1
309 560 1
309 568 1
309 586 1
309 587 1
309 589 1
309 594 1
309 595 1
309 596 1
309 603 1
309 608 1
309 609 1
309 617 1
309 620 1
309 626 1
309 630 1
309 638 1
309 639 1
309 645 1
309 657 1
309 658 1
309 667 1
309 668 1
309 671 1
309 677 1
309 681 1
309 683 1
309 684 1
309 685 1
309 694 1
309 699 1
310 2 1
310 5 1
310 8 1
310 14 1
310 17 1
310 18 1
310 20 1
310 22 1
310 24 1
310 26 1
310 33 1
310 46 1
310 49 1
310 50 1
310 51 1
310 52 1
310 53 1
310 55 1
310 58 1
310 59 1
310 61 1
310 62 1
310 64 1
310 67 1
310 72 1
310 79 1
310 87 1
310 92 1
310 93 1
310 104 1
310 106 1
310 107 1
310 111 1
310 115 1
310 118 1
310 130 1
310 135 1
310 136 1
310 137 1
310 138 1
310 146 1
310 153 1
310 154 1
310 155 1
310 157 1
310 159 1
310 163 1
310 176 1
310 179 1
310 181 1
310 182 1
310 186 1
310 198 1
310 202 1
310 206 1
310 207 1
310 209 1
310 212 1
310 214 1
310 216 1
310 220 1
310 223 1
310 233 1
310 234 1
310 238 1
310 239 1
310 246 1
310 247 1
310 248 1
310 252 1
310 267 1
310 270 1
310 271 1
310 276 1
310 277 1
310 279 1
310 283 1
310 285 1
310 288 1
310 298 1
310 299 1
310 302 1
310 312 1
310 313 1
310 314 1
310 319 1
310 334 1
310 339 1
310 357 1
310 360 1
310 363 1
310 372 1
310 377 1
310 380 1
310 382 1
310 385 1
310 409 1
310 416 1
310 420 1
310 425 1
310 426 1
310 429 1
310 438 1
310 440 1
310 441 1
310 442 1
310 451 1
310 452 1
310 456 1
310 464 1
310 471 1
310 477 1
310 481 1
310 483 1
310 489 1
310 492 1
310 504 1
310 510 1
310 517 1
310 522 1
310 523 1
310 525 1
310 530 1
310 540 1
310 550 1
310 557 1
310 560 1
310 564 1
310 565 1
310 572 1
310 573 1
310 582 1
310 583 1
310 586 1
310 591 1
310 592 1
310 594 1
310 599 1
310 601 1
310 606 1
310 610 1
310 618 1
310 621 1
310 623 1
310 624 1
310 629 1
310 632 1
310 635 1
310 651 1
310 660 1
310 661 1
310 667 1
310 670 1
310 674 1
310 677 1
310 679 1
310 680 1
310 684 1
310 687 1
310 697 1
311 3 1
311 28 1
311 29 1
311 33 1
311 35 1
311 36 1
311 62 1
311 63 1
311 66 1
311 76 1
311 78 1
311 92 1
311 101 1
311 103 1
311 105 1
311 114 1
311 124 1
311 132 1
311 138 1
311 143 1
311 144 1
311 159 1
311 162 1
311 164 1
311 167 1
311 168 1
311 180 1
311 187 1
311 192 1
311 194 1
311 204 1
311 211 1
311 212 1
311 215 1
311 217 1
311 220 1
311 221 1
311 231 1
311 234 1
311 237 1
311 238 1
311 239 1
311 250 1
311 253 1
311 256 1
311 259 1
311 264 1
311 281 1
311 283 1
311 287 1
311 300 1
311 302 1
311 314 1
311 319 1
311 330 1
311 333 1
311 334 1
311 336 1
311 345 1
311 353 1
311 363 1
311 374 1
311 384 1
311 385 1
311 386 1
311 390 1
311 395 1
311 397 1
311 414 1
311 416 1
311 419 1
311 425 1
311 450 1
311 456 1
311 468 1
311 469 1
311 474 1
311 475 1
311 479 1
311 480 1
311 481 1
311 482 1
311 491 1
311 494 1
311 497 1
311 503 1
311 514 1
311 522 1
311 524 1
311 526 1
311 529 1
311 536 1
311 549 1
311 558 1
311 561 1
311 567 1
311 571 1
311 585 1
311 587 1
311 589 1
311 592 1
311 603 1
311 604 1
311 611 1
311 615 1
311 629 1
311 630 1
311 631 1
311 632 1
311 646 1
311 651 1
311 655 1
311 661 1
311 662 1
311 669 1
311 671 1
311 672 1
311 681 1
311 688 1
311 693 1
311 694 1
311 697 1
312 1 1
312 2 1
312 5 1
312 12 1
312 15 1
312 18 1
312 25 1
312 27 1
312 33 1
312 41 1
312 45 1
312 55 1
312 57 1
312 61 1
312 70 1
312 73 1
312 75 1
312 85 1
312 88 1
312 91 1
312 104 1
312 107 1
312 109 1
312 115 1
312 127 1
312 130 1
312 131 1
312 132 1
312 134 1
312 136 1
312 147 1
312 159 1
312 163 1
312 168 1
312 173 1
312 179 1
312 181 1
312 183 1
312 185 1
312 189 1
312 190 1
312 195 1
312 199 1
312 211 1
312 220 1
312 221 1
312 224 1
312 226 1
312 234 1
312 238 1
312 239 1
312 242 1
312 250 1
312 253 1
312 257 1
312 262 1
312 274 1
312 276 1
312 283 1
312 291 1
312 294 1
312 304 1
312 310 1
312 317 1
312 324 1
312 327 1
312 336 1
312 338 1
312 339 1
312 343 1
312 344 1
312 349 1
312 352 1
312 360 1
312 362 1
312 372 1
312 379 1
312 380 1
312 381 1
312 385 1
312 400 1
312 402 1
312 404 1
312 405 1
312 417 1
312 419 1
312 434 1
312 435 1
312 441 1
312 443 1
312 453 1
312 456 1
312 461 1
312 465 1
312 471 1
312 478 1
312 482 1
312 483 1
312 484 1
312 491 1
312 494 1
312 504 1
312 522 1
312 527 1
312 529 1
312 530 1
312 532 1
312 534 1
312 537 1
312 544 1
312 547 1
312 549 1
312 550 1
312 556 1
312 559 1
312 561 1
312 571 1
312 572 1
312 573 1
312 578 1
312 582 1
312 583 1
312 585 1
312 590 1
312 597 1
312 603 1
312 605 1
312 615 1
312 619 1
312 621 1
312 634 1
312 638 1
312 639 1
312 642 1
312 643 1
312 653 1
312 655 1
312 656 1
312 661 1
312 663 1
312 665 1
312 666 1
312 671 1
312 675 1
312 681 1
312 685 1
312 691 1
312 697 1
313 31 1
313 40 1
313 52 1
313 57 1
313 61 1
313 62 1
313 75 1
313 77 1
313 80 1
313 85 1
313 91 1
313 95 1
313 97 1
313 101 1
313 104 1
313 106 1
313 108 1
313 114 1
313 122 1
313 123 1
313 125 1
313 132 1
313 133 1
313 137 1
313 138 1
313 149 1
313 158 1
313 160 1
313 167 1
313 169 1
313 171 1
313 176 1
313 179 1
313 180 1
313 198 1
313 203 1
313 204 1
313 221 1
313 235 1
313 239 1
313 240 1
313 241 1
313 242 1
313 243 1
313 244 1
313 253 1
313 275 1
313 281 1
313 301 1
313 303 1
313 310 1
313 316 1
313 320 1
313 324 1
313 329 1
313 333 1
313 334 1
313 336 1
313 339 1
313 344 1
313 346 1
313 349 1
313 354 1
313 359 1
313 360 1
313 363 1
313 364 1
313 378 1
313 381 1
313 383 1
313 388 1
313 390 1
313 392 1
313 403 1
313 411 1
313 414 1
313 416 1
313 423 1
313 425 1
313 426 1
313 433 1
313 445 1
313 460 1
313 463 1
313 471 1
313 475 1
313 480 1
313 481 1
313 482 1
313 485 1
313 487 1
313 499 1
313 503 1
313 512 1
313 519 1
313 525 1
313 528 1
313 545 1
313 549 1
313 557 1
313 559 1
313 560 1
313 563 1
313 566 1
313 568 1
313 576 1
313 585 1
313 592 1
313 609 1
313 614 1
313 619 1
313 621 1
313 626 1
313 627 1
313 632 1
313 634 1
313 635 1
313 654 1
313 660 1
313 665 1
313 668 1
313 673 1
313 692 1
314 1 1
314 2 1
314 8 1
314 9 1
314 15 1
314 20 1
314 24 1
314 36 1
314 39 1
314 49 1
314 52 1
314 58 1
314 61 1
314 66 1
314 67 1
314 68 1
314 74 1
314 81 1
314 82 1
314 88 1
314 94 1
314 96 1
314 100 1
314 105 1
314 109 1
314 110 1
314 114 1
314 120 1
314 124 1
314 125 1
314 131 1
314 138 1
314 143 1
314 144 1
314 150 1
314 155 1
314 159 1
314 162 1
314 164 1
314 166 1
314 167 1
314 169 1
314 180 1
314 184 1
314 187 1
314 188 1
314 195 1
314 203 1
314 210 1
314 214 1
314 215 1
314 228 1
314 230 1
314 243 1
314 244 1
314 256 1
314 261 1
314 263 1
314 264 1
314 270 1
314 272 1
314 280 1
314 282 1
314 286 1
314 287 1
314 290 1
314 293 1
314 294 1
314 301 1
314 306 1
314 310 1
314 311 1
314 323 1
314 331 1
314 337 1
314 339 1
314 340 1
314 347 1
314 352 1
314 355 1
314 361 1
314 364 1
314 369 1
314 373 1
314 378 1
314 386 1
314 390 1
314 397 1
314 408 1
314 412 1
314 413 1
314 424 1
314 442 1
314 446 1
314 448 1
314 453 1
314 457 1
314 460 1
314 461 1
314 463 1
314 470 1
314 472 1
314 473 1
314 474 1
314 475 1
314 493 1
314 494 1
314 500 1
314 505 1
314 508 1
314 524 1
314 530 1
314 532 1
314 534 1
314 545 1
314 546 1
314 566 1
314 571 1
314 580 1
314 581 1
314 584 1
314 585 1
314 587 1
314 614 1
314 624 1
314 625 1
314 627 1
314 628 1
314 640 1
314 655 1
314 663 1
314 666 1
314 670 1
314 674 1
314 681 1
314 699 1
315 4 1
315 8 1
315 9 1
315 27 1
315 29 1
315 31 1
315 34 1
315 39 1
315 46 1
315 49 1
315 60 1
315 61 1
315 73 1
315 78 1
315 79 1
315 80 1
315 84 1
315 90 1
315 92 1
315 95 1
315 98 1
315 116 1
315 118 1
315 127 1
315 129 1
315 137 1
315 142 1
315 145 1
315 146 1
315 161 1
315 181 1
315 192 1
315 194 1
315 200 1
315 214 1
315 221 1
315 228 1
315 229 1
315 236 1
315 260 1
315 262 1
315 266 1
315 272 1
315 285 1
315 286 1
315 302 1
315 303 1
315 316 1
315 320 1
315 322 1
315 323 1
315 326 1
315 327 1
315 339 1
315 340 1
315 341 1
315 350 1
315 356 1
315 360 1
315 362 1
315 366 1
315 374 1
315 375 1
315 380 1
315 389 1
315 395 1
315 404 1
315 406 1
315 409 1
315 410 1
315 414 1
315 423 1
315 426 1
315 437 1
315 441 1
315 447 1
315 450 1
315 464 1
315 465 1
315 475 1
315 479 1
315 481 1
315 484 1
315 491 1
315 493 1
315 499 1
315 502 1
315 505 1
315 508 1
315 517 1
315 529 1
315 530 1
315 531 1
315 540 1
315 541 1
315 554 1
315 561 1
315 562 1
315 570 1
315 572 1
315 586 1
315 593 1
315 595 1
315 597 1
315 598 1
315 602 1
315 603 1
315 604 1
315 605 1
315 615 1
315 618 1
315 645 1
315 651 1
315 667 1
315 673 1
315 675 1
315 677 1
315 683 1
315 685 1
315 695 1
315 696 1
316 3 1
316 9 1
316 16 1
316 19 1
316 23 1
316 36 1
316 61 1
316 62 1
316 67 1
316 71 1
316 77 1
316 78 1
316 82 1
316 86 1
316 93 1
316 100 1
316 105 1
316 108 1
316 116 1
316 120 1
316 129 1
316 138 1
316 140 1
316 144 1
316 153 1
316 158 1
316 173 1
316 176 1
316 182 1
316 184 1
316 193 1
316 196 1
316 197 1
316 200 1
316 202 1
316 206 1
316 212 1
316 214 1
316 215 1
316 216 1
316 219 1
316 226 1
316 227 1
316 228 1
316 231 1
316 236 1
316 244 1
316 259 1
316 266 1
316 284 1
316 294 1
316 305 1
316 313 1
316 315 1
316 319 1
316 321 1
316 324 1
316 325 1
316 343 1
316 344 1
316 348 1
316 350 1
316 353 1
316 355 1
316 367 1
316 369 1
316 373 1
316 375 1
316 377 1
316 379 1
316 383 1
316 387 1
316 414 1
316 421 1
316 425 1
316 444 1
316 447 1
316 449 1
316 450 1
316 452 1
316 454 1
316 455 1
316 460 1
316 464 1
316 477 1
316 480 1
316 481 1
316 489 1
316 491 1
316 513 1
316 520 1
316 532 1
316 544 1
316 545 1
316 559 1
316 561 1
316 562 1
316 564 1
316 597 1
316 600 1
316 601 1
316 604 1
316 606 1
316 615 1
316 619 1
316 620 1
316 621 1
316 622 1
316 627 1
316 633 1
316 634 1
316 645 1
316 647 1
316 654 1
316 659 1
316 661 1
316 665 1
316 671 1
316 678 1
316 687 1
317 2 1
317 15 1
317 20 1
317 24 1
317 25 1
317 30 1
317 37 1
317 56 1
317 59 1
317 72 1
317 105 1
317 119 1
317 121 1
317 124 1
317 128 1
317 144 1
317 148 1
317 149 1
317 152 1
317 163 1
317 165 1
317 169 1
317 176 1
317 180 1
317 183 1
317 193 1
317 200 1
317 212 1
317 219 1
317 221 1
317 224 1
317 228 1
317 234 1
317 235 1
317 237 1
317 238 1
317 239 1
317 245 1
317 246 1
317 247 1
317 252 1
317 256 1
317 260 1
317 261 1
317 262 1
317 265 1
317 267 1
317 285 1
317 286 1
317 296 1
317 297 1
317 301 1
317 312 1
317 322 1
317 331 1
317 333 1
317 339 1
317 350 1
317 360 1
317 361 1
317 370 1
317 375 1
317 378 1
317 390 1
317 393 1
317 395 1
317 396 1
317 405 1
317 407 1
317 413 1
317 434 1
317 436 1
317 439 1
317 441 1
317 442 1
317 445 1
317 447 1
317 456 1
317 457 1
317 458 1
317 462 1
317 471 1
317 484 1
317 488 1
317 489 1
317 497 1
317 498 1
317 499 1
317 500 1
317 504 1
317 506 1
317 510 1
317 511 1
317 514 1
317 515 1
317 516 1
317 524 1
317 526 1
317 528 1
317 536 1
317 543 1
317 564 1
317 590 1
317 595 1
317 606 1
317 611 1
317 612 1
317 617 1
317 619 1
317 624 1
317 631 1
317 637 1
317 642 1
317 655 1
317 663 1
317 677 1
317 679 1
317 682 1
317 684 1
317 686 1
317 689 1
317 693 1
318 1 1
318 2 1
318 14 1
318 24 1
318 38 1
318 39 1
318 45 1
318 47 1
318 54 1
318 56 1
318 59 1
318 65 1
318 67 1
318 69 1
318 76 1
318 81 1
318 84 1
318 94 1
318 95 1
318 96 1
318 99 1
318 100 1
318 108 1
318 116 1
318 125 1
318 131 1
318 138 1
318 152 1
318 164 1
318 166 1
318 168 1
318 182 1
318 185 1
318 189 1
318 203 1
318 204 1
318 212 1
318 218 1
318 228 1
318 234 1
318 236 1
318 240 1
318 243 1
318 249 1
318 250 1
318 251 1
318 262 1
318 275 1
318 276 1
318 278 1
318 280 1
318 285 1
318 292 1
318 293 1
318 319 1
318 327 1
318 333 1
318 334 1
318 337 1
318 340 1
318 344 1
318 369 1
318 371 1
318 381 1
318 382 1
318 384 1
318 385 1
318 387 1
318 388 1
318 394 1
318 395 1
318 401 1
318 403 1
318 407 1
318 411 1
318 412 1
318 414 1
318 419 1
318 424 1
318 428 1
318 439 1
318 443 1
318 446 1
318 467 1
318 470 1
318 472 1
318 478 1
318 489 1
318 491 1
318 493 1
318 501 1
318 502 1
318 503 1
318 516 1
318 530 1
318 536 1
318 542 1
318 544 1
318 548 1
318 549 1
318 555 1
318 557 1
318 558 1
318 559 1
318 564 1
318 567 1
318 580 1
318 585 1
318 598 1
318 601 1
318 602 1
318 608 1
318 614 1
318 616 1
318 620 1
318 623 1
318 626 1
318 628 1
318 630 1
318 639 1
318 652 1
318 654 1
318 655 1
318 663 1
318 670 1
318 674 1
318 679 1
318 681 1
318 685 1
318 686 1
318 687 1
318 689 1
318 696 1
319 8 1
319 16 1
319 19 1
319 20 1
319 23 1
319 24 1
319 26 1
319 27 1
319 28 1
319 30 1
319 36 1
319 37 1
319 41 1
319 44 1
319 49 1
319 50 1
319 52 1
319 59 1
319 60 1
319 62 1
319 66 1
319 69 1
319 98 1
319 99 1
319 103 1
319 105 1
319 109 1
319 111 1
319 129 1
319 131 1
319 139 1
319 152 1
319 158 1
319 160 1
319 175 1
319 179 1
319 190 1
319 196 1
319 197 1
319 203 1
319 207 1
319 227 1
319 232 1
319 238 1
319 247 1
319 253 1
319 254 1
319 261 1
319 267 1
319 270 1
319 274 1
319 279 1
319 286 1
319 287 1
319 290 1
319 294 1
319 297 1
319 304 1
319 310 1
319 311 1
319 316 1
319 318 1
319 320 1
319 324 1
319 341 1
319 343 1
319 349 1
319 351 1
319 356 1
319 358 1
319 360 1
319 362 1
319 367 1
319 369 1
319 387 1
319 399 1
319 401 1
319 404 1
319 408 1
319 411 1
319 413 1
319 414 1
319 415 1
319 423 1
319 427 1
319 431 1
319 435 1
319 437 1
319 444 1
319 445 1
319 451 1
319 453 1
319 465 1
319 466 1
319 467 1
319 472 1
319 478 1
319 479 1
319 480 1
319 488 1
319 489 1
319 496 1
319 499 1
319 515 1
319 520 1
319 526 1
319 531 1
319 534 1
319 540 1
319 541 1
319 542 1
319 558 1
319 560 1
319 570 1
319 576 1
319 584 1
319 586 1
319 589 1
319 590 1
319 600 1
319 608 1
319 610 1
319 615 1
319 622 1
319 626 1
319 634 1
319 635 1
319 645 1
319 651 1
319 653 1
319 657 1
319 658 1
319 660 1
319 664 1
319 666 1
319 675 1
319 676 1
319 681 1
319 685 1
319 687 1
319 688 1
319 692 1
319 694 1
319 696 1
320 7 1
320 8 1
320 16 1
320 20 1
320 24 1
320 34 1
320 36 1
320 39 1
320 44 1
320 50 1
320 52 1
320 54 1
320 62 1
320 64 1
320 66 1
320 70 1
320 75 1
320 91 1
320 95 1
320 104 1
320 106 1
320 117 1
320 120 1
320 121 1
320 126 1
320 129 1
320 131 1
320 134 1
320 147 1
320 151 1
320 152 1
320 155 1
320 165 1
320 169 1
320 171 1
320 174 1
320 176 1
320 178 1
320 180 1
320 186 1
320 207 1
320 210 1
320 215 1
320 217 1
320 225 1
320 232 1
320 233 1
320 235 1
320 236 1
320 246 1
320 249 1
320 250 1
320 256 1
320 264 1
320 265 1
320 266 1
320 271 1
320 274 1
320 281 1
320 282 1
320 283 1
320 285 1
320 291 1
320 292 1
320 304 1
320 313 1
320 315 1
320 319 1
320 323 1
320 326 1
320 327 1
320 329 1
320 336 1
320 341 1
320 363 1
320 365 1
320 367 1
320 369 1
320 381 1
320 388 1
320 394 1
320 395 1
320 399 1
320 405 1
320 416 1
320 424 1
320 431 1
320 434 1
320 441 1
320 445 1
320 449 1
320 453 1
320 460 1
320 469 1
320 471 1
320 472 1
320 473 1
320 475 1
320 477 1
320 480 1
320 496 1
320 500 1
320 515 1
320 516 1
320 525 1
320 527 1
320 534 1
320 539 1
320 540 1
320 556 1
320 558 1
320 560 1
320 566 1
320 570 1
320 578 1
320 579 1
320 588 1
320 589 1
320 591 1
320 614 1
320 621 1
320 637 1
320 642 1
320 653 1
320 657 1
320 666 1
320 671 1
320 693 1
320 696 1
320 697 1
320 699 1
320 700 1
321 2 1
321 5 1
321 13 1
321 16 1
321 17 1
321 24 1
321 25 1
321 28 1
321 30 1
321 31 1
321 32 1
321 34 1
321 35 1
321 37 1
321 42 1
321 48 1
321 62 1
321 63 1
321 86 1
321 89 1
321 95 1
321 98 1
321 100 1
321 101 1
321 104 1
321 120 1
321 123 1
321 125 1
321 129 1
321 139 1
321 140 1
321 142 1
321 143 1
321 145 1
321 156 1
321 157 1
321 158 1
321 160 1
321 175 1
321 177 1
321 182 1
321 187 1
321 188 1
321 190 1
321 197 1
321 201 1
321 202 1
321 209 1
321 232 1
321 233 1
321 236 1
321 237 1
321 251 1
321 253 1
321 257 1
321 258 1
321 268 1
321 278 1
321 280 1
321 283 1
321 285 1
321 287 1
321 297 1
321 301 1
321 305 1
321 316 1
321 323 1
321 324 1
321 326 1
321 331 1
321 350 1
321 354 1
321 380 1
321 382 1
321 385 1
321 386 1
321 390 1
321 392 1
321 394 1
321 407 1
321 420 1
321 421 1
321 423 1
321 428 1
321 440 1
321 449 1
321 452 1
321 453 1
321 455 1
321 457 1
321 463 1
321 468 1
321 480 1
321 481 1
321 482 1
321 485 1
321 486 1
321 488 1
321 492 1
321 499 1
321 505 1
321 506 1
321 514 1
321 516 1
321 537 1
321 542 1
321 558 1
321 563 1
321 566 1
321 576 1
321 583 1
321 584 1
321 597 1
321 599 1
321 601 1
321 610 1
321 613 1
321 627 1
321 628 1
321 630 1
321 631 1
321 634 1
321 637 1
321 642 1
321 643 1
321 655 1
321 658 1
321 663 1
321 666 1
321 669 1
321 681 1
321 685 1
321 691 1
321 692 1
321 700 1
322 9 1
322 11 1
322 15 1
322 16 1
322 20 1
322 22 1
322 30 1
322 34 1
322 39 1
322 40 1
322 44 1
322 45 1
322 49 1
322 61 1
322 63 1
322 74 1
322 77 1
322 82 1
322 85 1
322 86 1
322 95 1
322 98 1
322 103 1
322 105 1
322 107 1
322 111 1
322 115 1
322 116 1
322 123 1
322 124 1
322 127 1
322 131 1
322 141 1
322 148 1
322 149 1
322 153 1
322 155 1
322 157 1
322 161 1
322 173 1
322 177 1
322 180 1
322 188 1
322 203 1
322 210 1
322 212 1
322 217 1
322 218 1
322 231 1
322 239 1
322 242 1
322 243 1
322 246 1
322 278 1
322 282 1
322 284 1
322 285 1
322 287 1
322 288 1
322 291 1
322 292 1
322 299 1
322 302 1
322 305 1
322 306 1
322 309 1
322 315 1
322 317 1
322 335 1
322 336 1
322 339 1
322 345 1
322 346 1
322 349 1
322 352 1
322 357 1
322 360 1
322 362 1
322 382 1
322 384 1
322 385 1
322 395 1
322 419 1
322 427 1
322 433 1
322 437 1
322 439 1
322 444 1
322 448 1
322 457 1
322 479 1
322 487 1
322 490 1
322 498 1
322 501 1
322 508 1
322 518 1
322 530 1
322 536 1
322 541 1
322 549 1
322 560 1
322 567 1
322 568 1
322 574 1
322 578 1
322 582 1
322 584 1
322 592 1
322 596 1
322 597 1
322 598 1
322 600 1
322 601 1
322 605 1
322 607 1
322 615 1
322 617 1
322 631 1
322 633 1
322 635 1
322 636 1
322 639 1
322 641 1
322 651 1
322 653 1
322 656 1
322 657 1
322 658 1
322 661 1
322 666 1
322 671 1
322 672 1
322 673 1
322 686 1
322 688 1
322 692 1
322 695 1
322 697 1
322 699 1
323 1 1
323 3 1
323 10 1
323 23 1
323 36 1
323 37 1
323 39 1
323 45 1
323 46 1
323 48 1
323 54 1
323 56 1
323 58 1
323 69 1
323 85 1
323 87 1
323 96 1
323 98 1
323 101 1
323 103 1
323 107 1
323 109 1
323 111 1
323 113 1
323 119 1
323 123 1
323 124 1
323 135 1
323 137 1
323 139 1
323 140 1
323 143 1
323 147 1
323 150 1
323 169 1
323 170 1
323 172 1
323 173 1
323 180 1
323 186 1
323 200 1
323 204 1
323 222 1
323 225 1
323 243 1
323 252 1
323 258 1
323 259 1
323 263 1
323 267 1
323 268 1
323 269 1
323 270 1
323 271 1
323 276 1
323 278 1
323 284 1
323 289 1
323 291 1
323 293 1
323 299 1
323 302 1
323 314 1
323 315 1
323 320 1
323 321 1
323 325 1
323 326 1
323 328 1
323 330 1
323 332 1
323 333 1
323 337 1
323 346 1
323 350 1
323 352 1
323 355 1
323 359 1
323 370 1
323 371 1
323 382 1
323 390 1
323 393 1
323 396 1
323 397 1
323 398 1
323 400 1
323 408 1
323 414 1
323 417 1
323 418 1
323 419 1
323 421 1
323 423 1
323 438 1
323 451 1
323 453 1
323 455 1
323 463 1
323 465 1
323 468 1
323 472 1
323 476 1
323 477 1
323 492 1
323 493 1
323 496 1
323 500 1
323 505 1
323 506 1
323 508 1
323 515 1
323 523 1
323 525 1
323 526 1
323 530 1
323 539 1
323 542 1
323 544 1
323 547 1
323 548 1
323 549 1
323 553 1
323 563 1
323 565 1
323 576 1
323 585 1
323 588 1
323 589 1
323 593 1
323 594 1
323 607 1
323 609 1
323 611 1
323 614 1
323 618 1
323 626 1
323 632 1
323 633 1
323 634 1
323 638 1
323 639 1
323 648 1
323 651 1
323 654 1
323 659 1
323 663 1
323 665 1
323 674 1
323 680 1
323 685 1
323 689 1
324 1 1
324 3 1
324 6 1
324 8 1
324 9 1
324 12 1
324 14 1
324 25 1
324 43 1
324 49 1
324 56 1
324 66 1
324 72 1
324 73 1
324 81 1
324 85 1
324 86 1
324 89 1
324 93 1
324 98 1
324 100 1
324 107 1
324 108 1
324 113 1
324 118 1
324 124 1
324 127 1
324 128 1
324 129 1
324 131 1
324 132 1
324 133 1
324 155 1
324 159 1
324 163 1
324 167 1
324 169 1
324 172 1
324 173 1
324 178 1
324 181 1
324 186 1
324 203 1
324 206 1
324 208 1
324 214 1
324 215 1
324 216 1
324 220 1
324 235 1
324 236 1
324 241 1
324 242 1
324 252 1
324 257 1
324 261 1
324 267 1
324 275 1
324 277 1
324 278 1
324 280 1
324 286 1
324 296 1
324 300 1
324 301 1
324 305 1
324 307 1
324 312 1
324 313 1
324 316 1
324 319 1
324 321 1
324 333 1
324 339 1
324 342 1
324 350 1
324 352 1
324 358 1
324 365 1
324 368 1
324 375 1
324 377 1
324 380 1
324 382 1
324 410 1
324 411 1
324 413 1
324 415 1
324 419 1
324 421 1
324 424 1
324 427 1
324 428 1
324 439 1
324 442 1
324 443 1
324 446 1
324 458 1
324 464 1
324 468 1
324 469 1
324 476 1
324 480 1
324 482 1
324 483 1
324 484 1
324 485 1
324 490 1
324 496 1
324 497 1
324 499 1
324 501 1
324 502 1
324 504 1
324 510 1
324 513 1
324 514 1
324 519 1
324 526 1
324 532 1
324 534 1
324 537 1
324 540 1
324 557 1
324 559 1
324 562 1
324 567 1
324 572 1
324 574 1
324 577 1
324 579 1
324 580 1
324 584 1
324 588 1
324 595 1
324 604 1
324 605 1
324 608 1
324 610 1
324 611 1
324 618 1
324 623 1
324 634 1
324 640 1
324 655 1
324 657 1
324 658 1
324 662 1
324 665 1
324 674 1
324 681 1
324 690 1
324 692 1
324 694 1
324 696 1
325 4 1
325 5 1
325 8 1
325 10 1
325 19 1
325 30 1
325 31 1
325 48 1
325 53 1
325 69 1
325 71 1
325 72 1
325 75 1
325 78 1
325 89 1
325 95 1
325 96 1
325 100 1
325 107 1
325 108 1
325 110 1
325 117 1
325 118 1
325 123 1
325 129 1
325 135 1
325 136 1
325 137 1
325 139 1
325 140 1
325 145 1
325 147 1
325 149 1
325 153 1
325 158 1
325 169 1
325 177 1
325 183 1
325 185 1
325 186 1
325 194 1
325 201 1
325 207 1
325 209 1
325 215 1
325 216 1
325 223 1
325 225 1
325 226 1
325 231 1
325 232 1
325 238 1
325 242 1
325 250 1
325 258 1
325 259 1
325 260 1
325 262 1
325 268 1
325 274 1
325 277 1
325 289 1
325 296 1
325 304 1
325 316 1
325 323 1
325 326 1
325 335 1
325 342 1
325 347 1
325 356 1
325 360 1
325 375 1
325 377 1
325 389 1
325 390 1
325 394 1
325 400 1
325 401 1
325 406 1
325 407 1
325 408 1
325 412 1
325 418 1
325 432 1
325 450 1
325 452 1
325 457 1
325 458 1
325 464 1
325 482 1
325 483 1
325 484 1
325 485 1
325 496 1
325 498 1
325 504 1
325 505 1
325 518 1
325 520 1
325 527 1
325 538 1
325 539 1
325 540 1
325 550 1
325 573 1
325 574 1
325 583 1
325 585 1
325 587 1
325 598 1
325 600 1
325 604 1
325 607 1
325 616 1
325 623 1
325 628 1
325 629 1
325 637 1
325 638 1
325 643 1
325 644 1
325 651 1
325 657 1
325 668 1
325 669 1
325 670 1
325 674 1
325 681 1
325 695 1
325 697 1
326 3 1
326 23 1
326 30 1
326 32 1
326 35 1
326 38 1
326 44 1
326 45 1
326 47 1
326 50 1
326 51 1
326 55 1
326 58 1
326 66 1
326 86 1
326 95 1
326 97 1
326 99 1
326 101 1
326 102 1
326 103 1
326 105 1
326 110 1
326 111 1
326 116 1
326 117 1
326 122 1
326 127 1
326 131 1
326 134 1
326 138 1
326 140 1
326 145 1
326 146 1
326 159 1
326 169 1
326 172 1
326 178 1
326 179 1
326 180 1
326 181 1
326 190 1
326 193 1
326 195 1
326 197 1
326 198 1
326 204 1
326 205 1
326 216 1
326 218 1
326 221 1
326 222 1
326 227 1
326 236 1
326 249 1
326 253 1
326 257 1
326 270 1
326 272 1
326 276 1
326 278 1
326 281 1
326 286 1
326 291 1
326 294 1
326 308 1
326 315 1
326 320 1
326 321 1
326 323 1
326 325 1
326 335 1
326 347 1
326 350 1
326 351 1
326 353 1
326 362 1
326 364 1
326 367 1
326 374 1
326 375 1
326 377 1
326 387 1
326 388 1
326 390 1
326 391 1
326 394 1
326 396 1
326 398 1
326 401 1
326 403 1
326 405 1
326 419 1
326 420 1
326 427 1
326 437 1
326 440 1
326 443 1
326 444 1
326 445 1
326 451 1
326 454 1
326 461 1
326 466 1
326 467 1
326 468 1
326 469 1
326 473 1
326 474 1
326 479 1
326 485 1
326 491 1
326 500 1
326 503 1
326 507 1
326 510 1
326 511 1
326 521 1
326 540 1
326 541 1
326 542 1
326 543 1
326 544 1
326 546 1
326 554 1
326 559 1
326 561 1
326 566 1
326 575 1
326 576 1
326 590 1
326 599 1
326 600 1
326 605 1
326 607 1
326 608 1
326 610 1
326 612 1
326 614 1
326 616 1
326 621 1
326 622 1
326 626 1
326 634 1
326 650 1
326 659 1
326 664 1
326 670 1
326 672 1
326 685 1
326 686 1
326 691 1
326 697 1
326 698 1
327 2 1
327 21 1
327 29 1
327 32 1
327 36 1
327 40 1
327 43 1
327 44 1
327 46 1
327 52 1
327 54 1
327 55 1
327 58 1
327 60 1
327 61 1
327 66 1
327 70 1
327 95 1
327 108 1
327 115 1
327 120 1
327 128 1
327 134 1
327 136 1
327 145 1
327 147 1
327 150 1
327 164 1
327 165 1
327 167 1
327 177 1
327 178 1
327 180 1
327 199 1
327 210 1
327 224 1
327 232 1
327 233 1
327 235 1
327 240 1
327 246 1
327 249 1
327 262 1
327 264 1
327 266 1
327 278 1
327 279 1
327 282 1
327 296 1
327 306 1
327 312 1
327 315 1
327 318 1
327 320 1
327 328 1
327 339 1
327 341 1
327 343 1
327 347 1
327 348 1
327 354 1
327 358 1
327 360 1
327 363 1
327 370 1
327 372 1
327 376 1
327 377 1
327 386 1
327 389 1
327 393 1
327 394 1
327 396 1
327 409 1
327 412 1
327 434 1
327 438 1
327 440 1
327 454 1
327 457 1
327 458 1
327 460 1
327 462 1
327 465 1
327 474 1
327 480 1
327 482 1
327 488 1
327 494 1
327 507 1
327 513 1
327 514 1
327 519 1
327 523 1
327 526 1
327 529 1
327 531 1
327 546 1
327 549 1
327 554 1
327 555 1
327 558 1
327 561 1
327 565 1
327 568 1
327 573 1
327 580 1
327 585 1
327 586 1
327 590 1
327 606 1
327 616 1
327 617 1
327 621 1
327 622 1
327 624 1
327 625 1
327 626 1
327 633 1
327 644 1
327 655 1
327 656 1
327 664 1
327 673 1
327 677 1
327 689 1
327 690 1
328 3 1
328 5 1
328 8 1
328 10 1
328 15 1
328 17 1
328 21 1
328 23 1
328 26 1
328 29 1
328 36 1
328 42 1
328 48 1
328 55 1
328 61 1
328 69 1
328 77 1
328 94 1
328 107 1
328 109 1
328 111 1
328 130 1
328 137 1
328 138 1
328 141 1
328 143 1
328 149 1
328 162 1
328 163 1
328 167 1
328 168 1
328 174 1
328 181 1
328 185 1
328 190 1
328 196 1
328 200 1
328 201 1
328 203 1
328 209 1
328 219 1
328 229 1
328 230 1
328 232 1
328 234 1
328 236 1
328 241 1
328 242 1
328 244 1
328 250 1
328 259 1
328 261 1
328 265 1
328 272 1
328 273 1
328 275 1
328 277 1
328 286 1
328 296 1
328 309 1
328 323 1
328 327 1
328 330 1
328 333 1
328 336 1
328 340 1
328 342 1
328 345 1
328 347 1
328 349 1
328 356 1
328 360 1
328 366 1
328 369 1
328 376 1
328 377 1
328 382 1
328 383 1
328 387 1
328 389 1
328 402 1
328 404 1
328 411 1
328 414 1
328 427 1
328 433 1
328 444 1
328 445 1
328 450 1
328 461 1
328 463 1
328 471 1
328 472 1
328 493 1
328 496 1
328 501 1
328 502 1
328 503 1
328 504 1
328 514 1
328 522 1
328 525 1
328 531 1
328 534 1
328 537 1
328 540 1
328 545 1
328 546 1
328 548 1
328 553 1
328 556 1
328 561 1
328 565 1
328 567 1
328 569 1
328 576 1
328 577 1
328 579 1
328 586 1
328 591 1
328 596 1
328 597 1
328 604 1
328 607 1
328 614 1
328 616 1
328 627 1
328 628 1
328 639 1
328 642 1
328 648 1
328 658 1
328 665 1
328 670 1
328 672 1
328 676 1
328 680 1
328 685 1
328 686 1
328 687 1
328 689 1
328 693 1
328 697 1
329 5 1
329 8 1
329 13 1
329 15 1
329 27 1
329 40 1
329 41 1
329 46 1
329 51 1
329 61 1
329 64 1
329 66 1
329 72 1
329 77 1
329 78 1
329 97 1
329 98 1
329 107 1
329 109 1
329 110 1
329 115 1
329 116 1
329 123 1
329 131 1
329 133 1
329 138 1
329 139 1
329 145 1
329 146 1
329 148 1
329 155 1
329 158 1
329 159 1
329 164 1
329 171 1
329 181 1
329 199 1
329 200 1
329 201 1
329 203 1
329 206 1
329 211 1
329 213 1
329 215 1
329 226 1
329 228 1
329 231 1
329 237 1
329 238 1
329 257 1
329 265 1
329 269 1
329 270 1
329 272 1
329 284 1
329 286 1
329 288 1
329 290 1
329 299 1
329 313 1
329 320 1
329 347 1
329 348 1
329 359 1
329 361 1
329 363 1
329 368 1
329 373 1
329 378 1
329 389 1
329 393 1
329 395 1
329 401 1
329 402 1
329 406 1
329 412 1
329 417 1
329 421 1
329 425 1
329 429 1
329 436 1
329 437 1
329 439 1
329 441 1
329 452 1
329 460 1
329 462 1
329 465 1
329 471 1
329 472 1
329 480 1
329 487 1
329 491 1
329 496 1
329 507 1
329 508 1
329 512 1
329 514 1
329 515 1
329 519 1
329 520 1
329 524 1
329 532 1
329 541 1
329 551 1
329 552 1
329 571 1
329 574 1
329 575 1
329 576 1
329 578 1
329 593 1
329 598 1
329 601 1
329 602 1
329 613 1
329 616 1
329 617 1
329 631 1
329 650 1
329 653 1
329 654 1
329 656 1
329 665 1
329 668 1
329 680 1
329 681 1
329 682 1
329 688 1
329 692 1
330 3 1
330 7 1
330 26 1
330 27 1
330 30 1
330 39 1
330 47 1
330 51 1
330 60 1
330 62 1
330 70 1
330 74 1
330 75 1
330 79 1
330 85 1
330 87 1
330 89 1
330 95 1
330 105 1
330 108 1
330 116 1
330 123 1
330 134 1
330 135 1
330 139 1
330 146 1
330 148 1
330 152 1
330 153 1
330 154 1
330 159 1
330 160 1
330 164 1
330 167 1
330 171 1
330 172 1
330 173 1
330 174 1
330 179 1
330 197 1
330 198 1
330 205 1
330 207 1
330 215 1
330 216 1
330 225 1
330 226 1
330 227 1
330 232 1
330 238 1
330 239 1
330 244 1
330 246 1
330 247 1
330 248 1
330 250 1
330 251 1
330 255 1
330 260 1
330 267 1
330 268 1
330 274 1
330 280 1
330 290 1
330 291 1
330 296 1
330 301 1
330 302 1
330 307 1
330 311 1
330 323 1
330 328 1
330 332 1
330 338 1
330 341 1
330 345 1
330 351 1
330 360 1
330 366 1
330 369 1
330 370 1
330 373 1
330 380 1
330 381 1
330 392 1
330 394 1
330 402 1
330 411 1
330 421 1
330 426 1
330 427 1
330 433 1
330 442 1
330 445 1
330 448 1
330 449 1
330 451 1
330 457 1
330 458 1
330 462 1
330 464 1
330 475 1
330 477 1
330 480 1
330 481 1
330 483 1
330 486 1
330 490 1
330 492 1
330 496 1
330 503 1
330 512 1
330 520 1
330 527 1
330 528 1
330 564 1
330 566 1
330 568 1
330 574 1
330 578 1
330 597 1
330 603 1
330 606 1
330 608 1
330 614 1
330 619 1
330 621 1
330 622 1
330 627 1
330 635 1
330 640 1
330 648 1
330 656 1
330 662 1
330 673 1
330 678 1
330 683 1
330 685 1
330 688 1
330 689 1
330 691 1
330 697 1
331 4 1
331 6 1
331 10 1
331 17 1
331 22 1
331 24 1
331 37 1
331 39 1
331 47 1
331 54 1
331 55 1
331 59 1
331 62 1
331 86 1
331 89 1
331 100 1
331 105 1
331 111 1
331 116 1
331 123 1
331 124 1
331 128 1
331 129 1
331 130 1
331 134 1
331 141 1
331 150 1
331 173 1
331 175 1
331 177 1
331 179 1
331 189 1
331 201 1
331 206 1
331 211 1
331 217 1
331 218 1
331 220 1
331 225 1
331 241 1
331 250 1
331 255 1
331 269 1
331 274 1
331 278 1
331 292 1
331 294 1
331 296 1
331 301 1
331 303 1
331 306 1
331 308 1
331 314 1
331 317 1
331 321 1
331 338 1
331 341 1
331 343 1
331 346 1
331 351 1
331 352 1
331 355 1
331 363 1
331 364 1
331 368 1
331 369 1
331 374 1
331 375 1
331 376 1
331 378 1
331 381 1
331 388 1
331 401 1
331 404 1
331 405 1
331 414 1
331 415 1
331 419 1
331 422 1
331 433 1
331 441 1
331 443 1
331 447 1
331 449 1
331 453 1
331 455 1
331 458 1
331 459 1
331 468 1
331 470 1
331 472 1
331 481 1
331 496 1
331 497 1
331 499 1
331 503 1
331 506 1
331 516 1
331 529 1
331 535 1
331 542 1
331 544 1
331 549 1
331 551 1
331 568 1
331 570 1
331 574 1
331 575 1
331 585 1
331 589 1
331 591 1
331 593 1
331 602 1
331 619 1
331 627 1
331 631 1
331 644 1
331 645 1
331 648 1
331 649 1
331 653 1
331 655 1
331 676 1
331 680 1
331 691 1
331 693 1
331 698 1
332 11 1
332 12 1
332 13 1
332 20 1
332 23 1
332 24 1
332 26 1
332 29 1
332 31 1
332 33 1
332 49 1
332 52 1
332 56 1
332 58 1
332 64 1
332 69 1
332 79 1
332 82 1
332 83 1
332 87 1
332 89 1
332 101 1
332 105 1
332 106 1
332 110 1
332 114 1
332 115 1
332 116 1
332 118 1
332 119 1
332 137 1
332 139 1
332 145 1
332 149 1
332 155 1
332 166 1
332 168 1
332 170 1
332 180 1
332 182 1
332 183 1
332 186 1
332 205 1
332 210 1
332 214 1
332 221 1
332 223 1
332 230 1
332 232 1
332 235 1
332 240 1
332 242 1
332 244 1
332 245 1
332 249 1
332 252 1
332 254 1
332 261 1
332 264 1
332 266 1
332 268 1
332 273 1
332 277 1
332 278 1
332 279 1
332 291 1
332 293 1
332 300 1
332 323 1
332 330 1
332 348 1
332 351 1
332 353 1
332 359 1
332 361 1
332 363 1
332 367 1
332 368 1
332 371 1
332 372 1
332 381 1
332 382 1
332 384 1
332 387 1
332 391 1
332 393 1
332 395 1
332 404 1
332 410 1
332 411 1
332 414 1
332 416 1
332 423 1
332 428 1
332 429 1
332 431 1
332 435 1
332 446 1
332 449 1
332 453 1
332 455 1
332 457 1
332 459 1
332 460 1
332 463 1
332 477 1
332 484 1
332 489 1
332 493 1
332 500 1
332 503 1
332 508 1
332 522 1
332 523 1
332 528 1
332 529 1
332 530 1
332 532 1
332 536 1
332 542 1
332 543 1
332 544 1
332 569 1
332 572 1
332 594 1
332 595 1
332 598 1
332 600 1
332 605 1
332 608 1
332 612 1
332 613 1
332 615 1
332 617 1
332 624 1
332 633 1
332 636 1
332 637 1
332 641 1
332 643 1
332 653 1
332 655 1
332 666 1
332 668 1
332 674 1
332 679 1
332 687 1
332 694 1
333 2 1
333 9 1
333 13 1
333 14 1
333 20 1
333 31 1
333 44 1
333 47 1
333 50 1
333 57 1
333 59 1
333 63 1
333 67 1
333 70 1
333 72 1
333 75 1
333 77 1
333 80 1
333 84 1
333 92 1
333 100 1
333 101 1
333 120 1
333 130 1
333 133 1
333 134 1
333 140 1
333 157 1
333 160 1
333 168 1
333 176 1
333 182 1
333 184 1
333 190 1
333 193 1
333 199 1
333 205 1
333 207 1
333 214 1
333 219 1
333 220 1
333 225 1
333 234 1
333 245 1
333 252 1
333 260 1
333 263 1
333 265 1
333 277 1
333 286 1
333 289 1
333 293 1
333 300 1
333 303 1
333 311 1
333 313 1
333 317 1
333 318 1
333 323 1
333 324 1
333 328 1
333 344 1
333 345 1
333 350 1
333 354 1
333 367 1
333 378 1
333 390 1
333 392 1
333 395 1
333 408 1
333 411 1
333 425 1
333 429 1
333 431 1
333 435 1
333 442 1
333 444 1
333 450 1
333 453 1
333 457 1
333 471 1
333 473 1
333 474 1
333 477 1
333 486 1
333 493 1
333 500 1
333 509 1
333 511 1
333 514 1
333 520 1
333 525 1
333 533 1
333 535 1
333 538 1
333 543 1
333 546 1
333 547 1
333 550 1
333 556 1
333 560 1
333 565 1
333 566 1
333 576 1
333 582 1
333 585 1
333 586 1
333 588 1
333 604 1
333 610 1
333 612 1
333 613 1
333 617 1
333 621 1
333 628 1
333 629 1
333 631 1
333 635 1
333 637 1
333 641 1
333 643 1
333 644 1
333 647 1
333 650 1
333 651 1
333 652 1
333 657 1
333 659 1
333 661 1
333 677 1
333 683 1
334 4 1
334 7 1
334 12 1
334 17 1
334 20 1
334 23 1
334 26 1
334 28 1
334 32 1
334 34 1
334 42 1
334 45 1
334 46 1
334 49 1
334 62 1
334 67 1
334 68 1
334 71 1
334 76 1
334 79 1
334 81 1
334 82 1
334 95 1
334 104 1
334 108 1
334 110 1
334 113 1
334 120 1
334 128 1
334 134 1
334 136 1
334 140 1
334 146 1
334 147 1
334 148 1
334 151 1
334 152 1
334 158 1
334 170 1
334 180 1
334 182 1
334 184 1
334 187 1
334 197 1
334 199 1
334 200 1
334 202 1
334 204 1
334 220 1
334 221 1
334 223 1
334 224 1
334 226 1
334 232 1
334 236 1
334 243 1
334 245 1
334 259 1
334 262 1
334 273 1
334 275 1
334 277 1
334 278 1
334 284 1
334 288 1
334 295 1
334 301 1
334 306 1
334 309 1
334 310 1
334 311 1
334 313 1
334 318 1
334 335 1
334 339 1
334 340 1
334 348 1
334 353 1
334 354 1
334 355 1
334 358 1
334 360 1
334 371 1
334 375 1
334 377 1
334 378 1
334 402 1
334 409 1
334 414 1
334 415 1
334 435 1
334 439 1
334 442 1
334 443 1
334 446 1
334 458 1
334 469 1
334 474 1
334 476 1
334 477 1
334 478 1
334 485 1
334 486 1
334 487 1
334 491 1
334 508 1
334 512 1
334 522 1
334 527 1
334 533 1
334 541 1
334 546 1
334 547 1
334 560 1
334 563 1
334 569 1
334 570 1
334 571 1
334 581 1
334 585 1
334 586 1
334 590 1
334 591 1
334 594 1
334 599 1
334 616 1
334 623 1
334 624 1
334 625 1
334 631 1
334 649 1
334 650 1
334 651 1
334 655 1
334 658 1
334 666 1
334 669 1
334 671 1
334 672 1
334 673 1
334 690 1
334 692 1
334 693 1
334 697 1
334 700 1
335 4 1
335 6 1
335 22 1
335 24 1
335 34 1
335 39 1
335 46 1
335 47 1
335 48 1
335 60 1
335 65 1
335 66 1
335 69 1
335 75 1
335 91 1
335 103 1
335 106 1
335 111 1
335 115 1
335 128 1
335 129 1
335 133 1
335 134 1
335 139 1
335 143 1
335 156 1
335 161 1
335 162 1
335 167 1
335 173 1
335 189 1
335 191 1
335 195 1
335 196 1
335 204 1
335 213 1
335 216 1
335 220 1
335 222 1
335 227 1
335 243 1
335 251 1
335 260 1
335 261 1
335 262 1
335 264 1
335 270 1
335 275 1
335 283 1
335 294 1
335 295 1
335 305 1
335 307 1
335 322 1
335 325 1
335 326 1
335 334 1
335 338 1
335 339 1
335 360 1
335 370 1
335 372 1
335 376 1
335 382 1
335 394 1
335 414 1
335 420 1
335 422 1
335 424 1
335 425 1
335 429 1
335 446 1
335 447 1
335 449 1
335 451 1
335 456 1
335 459 1
335 462 1
335 464 1
335 467 1
335 473 1
335 478 1
335 482 1
335 483 1
335 505 1
335 512 1
335 520 1
335 528 1
335 532 1
335 534 1
335 536 1
335 539 1
335 547 1
335 564 1
335 583 1
335 594 1
335 598 1
335 603 1
335 607 1
335 608 1
335 614 1
335 625 1
335 633 1
335 636 1
335 644 1
335 645 1
335 661 1
335 667 1
335 673 1
335 676 1
335 677 1
335 679 1
335 680 1
335 681 1
335 683 1
335 684 1
335 690 1
335 691 1
335 692 1
336 6 1
336 20 1
336 31 1
336 32 1
336 50 1
336 55 1
336 56 1
336 58 1
336 60 1
336 64 1
336 66 1
336 68 1
336 70 1
336 72 1
336 76 1
336 92 1
336 95 1
336 98 1
336 99 1
336 100 1
336 103 1
336 110 1
336 111 1
336 112 1
336 117 1
336 119 1
336 120 1
336 126 1
336 130 1
336 134 1
336 136 1
336 137 1
336 140 1
336 145 1
336 153 1
336 157 1
336 160 1
336 166 1
336 169 1
336 170 1
336 171 1
336 177 1
336 211 1
336 215 1
336 216 1
336 225 1
336 228 1
336 239 1
336 245 1
336 246 1
336 250 1
336 251 1
336 257 1
336 262 1
336 264 1
336 274 1
336 275 1
336 283 1
336 290 1
336 293 1
336 299 1
336 300 1
336 311 1
336 312 1
336 313 1
336 320 1
336 322 1
336 328 1
336 337 1
336 338 1
336 343 1
336 356 1
336 358 1
336 365 1
336 369 1
336 382 1
336 386 1
336 391 1
336 392 1
336 397 1
336 398 1
336 403 1
336 409 1
336 410 1
336 415 1
336 416 1
336 422 1
336 428 1
336 435 1
336 436 1
336 437 1
336 439 1
336 441 1
336 447 1
336 453 1
336 456 1
336 457 1
336 465 1
336 468 1
336 473 1
336 477 1
336 479 1
336 489 1
336 493 1
336 500 1
336 505 1
336 506 1
336 514 1
336 515 1
336 519 1
336 528 1
336 529 1
336 531 1
336 532 1
336 544 1
336 553 1
336 556 1
336 560 1
336 562 1
336 571 1
336 578 1
336 585 1
336 586 1
336 591 1
336 599 1
336 605 1
336 611 1
336 612 1
336 622 1
336 624 1
336 630 1
336 631 1
336 639 1
336 646 1
336 648 1
336 649 1
336 650 1
336 661 1
336 664 1
336 666 1
336 668 1
336 675 1
336 677 1
336 678 1
336 679 1
336 684 1
336 685 1
336 687 1
336 691 1
336 694 1
336 697 1
337 3 1
337 9 1
337 12 1
337 25 1
337 26 1
337 28 1
337 31 1
337 44 1
337 59 1
337 60 1
337 64 1
337 65 1
337 80 1
337 81 1
337 82 1
337 85 1
337 88 1
337 91 1
337 92 1
337 114 1
337 117 1
337 118 1
337 119 1
337 123 1
337 128 1
337 129 1
337 137 1
337 141 1
337 142 1
337 143 1
337 145 1
337 147 1
337 149 1
337 162 1
337 170 1
337 172 1
337 173 1
337 174 1
337 178 1
337 207 1
337 208 1
337 213 1
337 215 1
337 220 1
337 227 1
337 228 1
337 230 1
337 232 1
337 235 1
337 237 1
337 240 1
337 241 1
337 246 1
337 249 1
337 257 1
337 267 1
337 271 1
337 276 1
337 279 1
337 280 1
337 291 1
337 301 1
337 303 1
337 307 1
337 314 1
337 318 1
337 323 1
337 336 1
337 354 1
337 357 1
337 360 1
337 362 1
337 366 1
337 373 1
337 374 1
337 379 1
337 393 1
337 396 1
337 398 1
337 401 1
337 403 1
337 414 1
337 419 1
337 420 1
337 427 1
337 430 1
337 432 1
337 433 1
337 435 1
337 436 1
337 437 1
337 445 1
337 446 1
337 452 1
337 454 1
337 471 1
337 472 1
337 474 1
337 477 1
337 480 1
337 481 1
337 488 1
337 497 1
337 498 1
337 499 1
337 502 1
337 503 1
337 516 1
337 517 1
337 520 1
337 522 1
337 537 1
337 540 1
337 544 1
337 547 1
337 557 1
337 562 1
337 567 1
337 568 1
337 569 1
337 582 1
337 587 1
337 596 1
337 601 1
337 603 1
337 604 1
337 618 1
337 621 1
337 623 1
337 628 1
337 630 1
337 632 1
337 633 1
337 636 1
337 637 1
337 644 1
337 645 1
337 651 1
337 663 1
337 679 1
337 680 1
337 681 1
337 683 1
337 687 1
337 692 1
337 700 1
338 9 1
338 10 1
338 13 1
338 30 1
338 32 1
338 37 1
338 40 1
338 53 1
338 55 1
338 59 1
338 61 1
338 63 1
338 65 1
338 68 1
338 69 1
338 90 1
338 92 1
338 104 1
338 108 1
338 113 1
338 114 1
338 115 1
338 119 1
338 123 1
338 124 1
338 127 1
338 129 1
338 134 1
338 138 1
338 142 1
338 145 1
338 148 1
338 151 1
338 155 1
338 157 1
338 160 1
338 161 1
338 166 1
338 168 1
338 169 1
338 179 1
338 181 1
338 205 1
338 212 1
338 214 1
338 218 1
338 219 1
338 221 1
338 227 1
338 231 1
338 234 1
338 240 1
338 241 1
338 246 1
338 251 1
338 254 1
338 259 1
338 263 1
338 270 1
338 273 1
338 289 1
338 297 1
338 308 1
338 312 1
338 330 1
338 331 1
338 335 1
338 336 1
338 341 1
338 347 1
338 376 1
338 377 1
338 378 1
338 379 1
338 385 1
338 386 1
338 394 1
338 400 1
338 401 1
338 403 1
338 404 1
338 407 1
338 409 1
338 418 1
338 422 1
338 424 1
338 430 1
338 434 1
338 451 1
338 455 1
338 457 1
338 459 1
338 463 1
338 466 1
338 469 1
338 471 1
338 476 1
338 494 1
338 501 1
338 513 1
338 514 1
338 515 1
338 520 1
338 524 1
338 526 1
338 528 1
338 539 1
338 545 1
338 548 1
338 550 1
338 554 1
338 556 1
338 557 1
338 588 1
338 598 1
338 599 1
338 602 1
338 605 1
338 607 1
338 609 1
338 612 1
338 615 1
338 619 1
338 624 1
338 626 1
338 630 1
338 639 1
338 641 1
338 643 1
338 645 1
338 650 1
338 660 1
338 670 1
338 673 1
338 676 1
338 677 1
338 680 1
338 683 1
338 686 1
338 691 1
339 2 1
339 7 1
339 15 1
339 16 1
339 18 1
339 20 1
339 29 1
339 30 1
339 33 1
339 34 1
339 39 1
339 43 1
339 45 1
339 47 1
339 48 1
339 49 1
339 50 1
339 52 1
339 56 1
339 67 1
339 68 1
339 71 1
339 75 1
339 78 1
339 81 1
339 86 1
339 98 1
339 105 1
339 106 1
339 109 1
339 110 1
339 124 1
339 125 1
339 126 1
339 140 1
339 148 1
339 152 1
339 154 1
339 157 1
339 159 1
339 163 1
339 171 1
339 175 1
339 177 1
339 178 1
339 183 1
339 193 1
339 196 1
339 198 1
339 201 1
339 205 1
339 206 1
339 210 1
339 213 1
339 214 1
339 218 1
339 221 1
339 224 1
339 232 1
339 237 1
339 240 1
339 259 1
339 266 1
339 272 1
339 274 1
339 279 1
339 296 1
339 308 1
339 309 1
339 310 1
339 312 1
339 313 1
339 314 1
339 315 1
339 317 1
339 322 1
339 324 1
339 327 1
339 334 1
339 335 1
339 348 1
339 349 1
339 354 1
339 356 1
339 366 1
339 369 1
339 378 1
339 383 1
339 384 1
339 397 1
339 398 1
339 399 1
339 412 1
339 416 1
339 421 1
339 425 1
339 430 1
339 436 1
339 438 1
339 442 1
339 444 1
339 451 1
339 452 1
339 454 1
339 457 1
339 464 1
339 468 1
339 476 1
339 478 1
339 481 1
339 485 1
339 487 1
339 491 1
339 493 1
339 498 1
339 505 1
339 506 1
339 520 1
339 521 1
339 530 1
339 531 1
339 537 1
339 551 1
339 557 1
339 567 1
339 568 1
339 573 1
339 577 1
339 581 1
339 582 1
339 585 1
339 590 1
339 592 1
339 598 1
339 600 1
339 613 1
339 616 1
339 619 1
339 632 1
339 637 1
339 638 1
339 639 1
339 640 1
339 647 1
339 650 1
339 658 1
339 664 1
339 665 1
339 672 1
339 680 1
339 686 1
339 694 1
339 695 1
339 700 1
340 5 1
340 7 1
340 10 1
340 12 1
340 16 1
340 21 1
340 22 1
340 33 1
340 34 1
340 38 1
340 39 1
340 41 1
340 42 1
340 52 1
340 70 1
340 71 1
340 74 1
340 78 1
340 81 1
340 85 1
340 88 1
340 94 1
340 98 1
340 99 1
340 101 1
340 115 1
340 118 1
340 120 1
340 126 1
340 131 1
340 136 1
340 137 1
340 139 1
340 144 1
340 160 1
340 168 1
340 179 1
340 180 1
340 201 1
340 220 1
340 241 1
340 255 1
340 265 1
340 274 1
340 291 1
340 293 1
340 298 1
340 299 1
340 305 1
340 314 1
340 315 1
340 318 1
340 328 1
340 334 1
340 343 1
340 345 1
340 358 1
340 367 1
340 371 1
340 373 1
340 387 1
340 393 1
340 396 1
340 398 1
340 402 1
340 406 1
340 407 1
340 409 1
340 410 1
340 417 1
340 427 1
340 428 1
340 433 1
340 442 1
340 443 1
340 449 1
340 453 1
340 460 1
340 469 1
340 474 1
340 475 1
340 478 1
340 479 1
340 490 1
340 492 1
340 496 1
340 498 1
340 500 1
340 501 1
340 502 1
340 512 1
340 516 1
340 517 1
340 519 1
340 523 1
340 529 1
340 533 1
340 535 1
340 539 1
340 554 1
340 556 1
340 565 1
340 574 1
340 575 1
340 581 1
340 584 1
340 585 1
340 589 1
340 595 1
340 597 1
340 602 1
340 603 1
340 611 1
340 612 1
340 613 1
340 621 1
340 623 1
340 627 1
340 629 1
340 631 1
340 632 1
340 633 1
340 635 1
340 637 1
340 641 1
340 646 1
340 649 1
340 656 1
340 657 1
340 661 1
340 662 1
340 665 1
340 674 1
340 678 1
340 681 1
340 690 1
340 693 1
340 696 1
341 5 1
341 13 1
341 20 1
341 23 1
341 26 1
341 28 1
341 30 1
341 32 1
341 54 1
341 67 1
341 70 1
341 78 1
341 83 1
341 97 1
341 98 1
341 99 1
341 102 1
341 104 1
341 111 1
341 115 1
341 116 1
341 117 1
341 119 1
341 122 1
341 126 1
341 129 1
341 130 1
341 142 1
341 146 1
341 155 1
341 159 1
341 169 1
341 175 1
341 180 1
341 198 1
341 201 1
341 202 1
341 203 1
341 205 1
341 206 1
341 208 1
341 211 1
341 215 1
341 216 1
341 217 1
341 219 1
341 222 1
341 223 1
341 224 1
341 238 1
341 245 1
341 248 1
341 249 1
341 250 1
341 251 1
341 254 1
341 256 1
341 265 1
341 268 1
341 269 1
341 271 1
341 275 1
341 281 1
341 285 1
341 290 1
341 293 1
341 298 1
341 301 1
341 304 1
341 306 1
341 309 1
341 315 1
341 319 1
341 320 1
341 327 1
341 330 1
341 331 1
341 338 1
341 351 1
341 353 1
341 356 1
341 357 1
341 370 1
341 379 1
341 381 1
341 382 1
341 384 1
341 386 1
341 392 1
341 399 1
341 402 1
341 403 1
341 407 1
341 408 1
341 418 1
341 421 1
341 426 1
341 427 1
341 428 1
341 435 1
341 436 1
341 453 1
341 458 1
341 464 1
341 465 1
341 473 1
341 475 1
341 477 1
341 478 1
341 483 1
341 487 1
341 496 1
341 499 1
341 503 1
341 508 1
341 514 1
341 515 1
341 522 1
341 531 1
341 541 1
341 544 1
341 546 1
341 552 1
341 557 1
341 562 1
341 564 1
341 565 1
341 566 1
341 569 1
341 571 1
341 573 1
341 574 1
341 575 1
341 581 1
341 583 1
341 607 1
341 609 1
341 613 1
341 616 1
341 629 1
341 631 1
341 640 1
341 663 1
341 664 1
341 667 1
341 670 1
341 671 1
341 673 1
341 678 1
341 680 1
341 681 1
341 685 1
341 687 1
341 695 1
341 696 1
341 700 1
342 1 1
342 6 1
342 17 1
342 18 1
342 25 1
342 39 1
342 40 1
342 42 1
342 45 1
342 47 1
342 48 1
342 49 1
342 50 1
342 53 1
342 54 1
342 57 1
342 63 1
342 66 1
342 69 1
342 72 1
342 99 1
342 102 1
342 107 1
342 111 1
342 113 1
342 115 1
342 117 1
342 122 1
342 131 1
342 143 1
342 151 1
342 153 1
342 155 1
342 158 1
342 163 1
342 166 1
342 168 1
342 187 1
342 189 1
342 190 1
342 204 1
342 210 1
342 218 1
342 219 1
342 227 1
342 228 1
342 230 1
342 237 1
342 244 1
342 266 1
342 269 1
342 276 1
342 281 1
342 284 1
342 286 1
342 287 1
342 290 1
342 293 1
342 300 1
342 303 1
342 305 1
342 324 1
342 325 1
342 328 1
342 352 1
342 353 1
342 357 1
342 358 1
342 361 1
342 368 1
342 372 1
342 379 1
342 382 1
342 383 1
342 394 1
342 402 1
342 410 1
342 414 1
342 428 1
342 431 1
342 434 1
342 440 1
342 442 1
342 447 1
342 449 1
342 451 1
342 471 1
342 473 1
342 482 1
342 491 1
342 493 1
342 494 1
342 496 1
342 497 1
342 498 1
342 503 1
342 507 1
342 512 1
342 513 1
342 519 1
342 525 1
342 532 1
342 533 1
342 535 1
342 540 1
342 543 1
342 545 1
342 550 1
342 552 1
342 555 1
342 559 1
342 565 1
342 566 1
342 567 1
342 573 1
342 574 1
342 575 1
342 587 1
342 591 1
342 595 1
342 598 1
342 602 1
342 604 1
342 615 1
342 632 1
342 639 1
342 641 1
342 652 1
342 653 1
342 654 1
342 689 1
342 693 1
342 695 1
343 1 1
343 20 1
343 23 1
343 24 1
343 27 1
343 34 1
343 43 1
343 46 1
343 49 1
343 50 1
343 60 1
343 62 1
343 72 1
343 93 1
343 98 1
343 101 1
343 105 1
343 107 1
343 109 1
343 111 1
343 112 1
343 127 1
343 133 1
343 136 1
343 146 1
343 150 1
343 151 1
343 155 1
343 164 1
343 169 1
343 174 1
343 181 1
343 184 1
343 185 1
343 190 1
343 193 1
343 196 1
343 199 1
343 200 1
343 205 1
343 206 1
343 248 1
343 254 1
343 257 1
343 260 1
343 263 1
343 274 1
343 280 1
343 284 1
343 286 1
343 287 1
343 290 1
343 294 1
343 304 1
343 312 1
343 316 1
343 319 1
343 327 1
343 331 1
343 336 1
343 340 1
343 346 1
343 349 1
343 353 1
343 354 1
343 361 1
343 362 1
343 363 1
343 368 1
343 371 1
343 372 1
343 374 1
343 379 1
343 382 1
343 388 1
343 389 1
343 390 1
343 395 1
343 397 1
343 407 1
343 414 1
343 424 1
343 434 1
343 439 1
343 445 1
343 446 1
343 451 1
343 456 1
343 462 1
343 465 1
343 471 1
343 473 1
343 485 1
343 488 1
343 499 1
343 500 1
343 501 1
343 513 1
343 518 1
343 525 1
343 530 1
343 532 1
343 535 1
343 537 1
343 541 1
343 542 1
343 545 1
343 546 1
343 552 1
343 558 1
343 566 1
343 570 1
343 571 1
343 573 1
343 576 1
343 583 1
343 589 1
343 599 1
343 609 1
343 613 1
343 616 1
343 625 1
343 633 1
343 640 1
343 642 1
343 644 1
343 650 1
343 652 1
343 653 1
343 663 1
343 664 1
343 667 1
343 672 1
343 674 1
343 676 1
343 684 1
343 688 1
343 691 1
343 692 1
343 695 1
343 698 1
344 4 1
344 12 1
344 17 1
344 33 1
344 35 1
344 40 1
344 45 1
344 48 1
344 54 1
344 57 1
344 65 1
344 67 1
344 69 1
344 71 1
344 72 1
344 83 1
344 85 1
344 93 1
344 105 1
344 113 1
344 115 1
344 121 1
344 123 1
344 128 1
344 131 1
344 135 1
344 137 1
344 144 1
344 162 1
344 170 1
344 172 1
344 174 1
344 177 1
344 182 1
344 184 1
344 187 1
344 188 1
344 192 1
344 199 1
344 200 1
344 205 1
344 210 1
344 216 1
344 222 1
344 225 1
344 231 1
344 234 1
344 240 1
344 249 1
344 250 1
344 257 1
344 258 1
344 264 1
344 267 1
344 282 1
344 289 1
344 295 1
344 302 1
344 304 1
344 306 1
344 312 1
344 313 1
344 316 1
344 318 1
344 333 1
344 350 1
344 355 1
344 361 1
344 371 1
344 372 1
344 376 1
344 377 1
344 382 1
344 390 1
344 397 1
344 399 1
344 400 1
344 406 1
344 408 1
344 413 1
344 418 1
344 420 1
344 422 1
344 431 1
344 432 1
344 436 1
344 442 1
344 448 1
344 463 1
344 465 1
344 467 1
344 468 1
344 476 1
344 477 1
344 478 1
344 481 1
344 491 1
344 503 1
344 505 1
344 506 1
344 511 1
344 516 1
344 520 1
344 521 1
344 525 1
344 527 1
344 529 1
344 531 1
344 536 1
344 545 1
344 555 1
344 556 1
344 558 1
344 561 1
344 579 1
344 580 1
344 584 1
344 589 1
344 593 1
344 595 1
344 599 1
344 606 1
344 617 1
344 619 1
344 622 1
344 623 1
344 625 1
344 631 1
344 636 1
344 641 1
344 660 1
344 662 1
344 664 1
344 670 1
344 678 1
344 685 1
344 691 1
344 692 1
344 695 1
344 696 1
345 11 1
345 23 1
345 25 1
345 32 1
345 49 1
345 52 1
345 57 1
345 58 1
345 60 1
345 80 1
345 93 1
345 94 1
345 106 1
345 108 1
345 115 1
345 118 1
345 122 1
345 124 1
345 128 1
345 129 1
345 133 1
345 139 1
345 144 1
345 147 1
345 148 1
345 150 1
345 158 1
345 159 1
345 163 1
345 176 1
345 181 1
345 186 1
345 192 1
345 194 1
345 196 1
345 197 1
345 208 1
345 210 1
345 211 1
345 216 1
345 219 1
345 220 1
345 221 1
345 227 1
345 230 1
345 241 1
345 246 1
345 248 1
345 256 1
345 265 1
345 274 1
345 275 1
345 279 1
345 285 1
345 288 1
345 294 1
345 307 1
345 311 1
345 322 1
345 328 1
345 330 1
345 333 1
345 340 1
345 366 1
345 374 1
345 379 1
345 383 1
345 385 1
345 391 1
345 392 1
345 394 1
345 400 1
345 402 1
345 408 1
345 409 1
345 410 1
345 411 1
345 414 1
345 416 1
345 432 1
345 434 1
345 439 1
345 442 1
345 448 1
345 453 1
345 454 1
345 456 1
345 457 1
345 461 1
345 475 1
345 480 1
345 486 1
345 488 1
345 490 1
345 491 1
345 492 1
345 496 1
345 499 1
345 503 1
345 506 1
345 508 1
345 510 1
345 520 1
345 522 1
345 528 1
345 531 1
345 532 1
345 533 1
345 536 1
345 559 1
345 586 1
345 588 1
345 594 1
345 601 1
345 604 1
345 615 1
345 618 1
345 619 1
345 626 1
345 636 1
345 642 1
345 648 1
345 650 1
345 663 1
345 669 1
345 676 1
345 685 1
345 687 1
345 693 1
346 5 1
346 13 1
346 19 1
346 31 1
346 36 1
346 41 1
346 42 1
346 43 1
346 49 1
346 60 1
346 64 1
346 73 1
346 76 1
346 81 1
346 87 1
346 89 1
346 95 1
346 97 1
346 110 1
346 112 1
346 113 1
346 126 1
346 127 1
346 132 1
346 139 1
346 143 1
346 148 1
346 166 1
346 170 1
346 175 1
346 189 1
346 196 1
346 199 1
346 200 1
346 207 1
346 209 1
346 210 1
346 213 1
346 215 1
346 216 1
346 217 1
346 219 1
346 225 1
346 228 1
346 229 1
346 241 1
346 248 1
346 251 1
346 256 1
346 263 1
346 265 1
346 269 1
346 270 1
346 271 1
346 275 1
346 276 1
346 288 1
346 294 1
346 307 1
346 313 1
346 322 1
346 323 1
346 331 1
346 343 1
346 355 1
346 360 1
346 368 1
346 369 1
346 379 1
346 390 1
346 396 1
346 400 1
346 401 1
346 405 1
346 406 1
346 411 1
346 416 1
346 420 1
346 423 1
346 426 1
346 436 1
346 444 1
346 445 1
346 446 1
346 448 1
346 449 1
346 452 1
346 456 1
346 462 1
346 463 1
346 471 1
346 473 1
346 475 1
346 477 1
346 481 1
346 482 1
346 490 1
346 494 1
346 497 1
346 502 1
346 505 1
346 506 1
346 509 1
346 513 1
346 521 1
346 523 1
346 528 1
346 530 1
346 531 1
346 532 1
346 553 1
346 554 1
346 560 1
346 567 1
346 570 1
346 572 1
346 574 1
346 576 1
346 577 1
346 578 1
346 579 1
346 587 1
346 597 1
346 599 1
346 602 1
346 605 1
346 616 1
346 617 1
346 621 1
346 625 1
346 627 1
346 635 1
346 637 1
346 638 1
346 643 1
346 659 1
346 660 1
346 666 1
346 667 1
346 675 1
346 685 1
346 700 1
347 2 1
347 3 1
347 7 1
347 8 1
347 20 1
347 21 1
347 22 1
347 32 1
347 39 1
347 45 1
347 46 1
347 48 1
347 49 1
347 55 1
347 56 1
347 60 1
347 68 1
347 90 1
347 91 1
347 98 1
347 105 1
347 106 1
347 110 1
347 116 1
347 121 1
347 150 1
347 161 1
347 164 1
347 174 1
347 180 1
347 188 1
347 190 1
347 193 1
347 197 1
347 198 1
347 215 1
347 219 1
347 221 1
347 231 1
347 237 1
347 240 1
347 246 1
347 247 1
347 248 1
347 252 1
347 253 1
347 259 1
347 263 1
347 274 1
347 279 1
347 281 1
347 285 1
347 290 1
347 292 1
347 296 1
347 304 1
347 308 1
347 314 1
347 325 1
347 326 1
347 327 1
347 328 1
347 329 1
347 338 1
347 349 1
347 360 1
347 364 1
347 367 1
347 377 1
347 379 1
347 387 1
347 390 1
347 392 1
347 394 1
347 400 1
347 410 1
347 411 1
347 412 1
347 425 1
347 431 1
347 437 1
347 441 1
347 444 1
347 447 1
347 463 1
347 464 1
347 468 1
347 471 1
347 479 1
347 481 1
347 484 1
347 491 1
347 498 1
347 508 1
347 524 1
347 527 1
347 533 1
347 536 1
347 554 1
347 558 1
347 562 1
347 564 1
347 566 1
347 567 1
347 575 1
347 577 1
347 588 1
347 589 1
347 590 1
347 594 1
347 597 1
347 599 1
347 606 1
347 608 1
347 611 1
347 617 1
347 619 1
347 621 1
347 623 1
347 641 1
347 645 1
347 648 1
347 657 1
347 659 1
347 660 1
347 663 1
347 666 1
347 668 1
347 670 1
347 672 1
347 679 1
347 683 1
347 686 1
347 689 1
348 1 1
348 16 1
348 28 1
348 32 1
348 34 1
348 35 1
348 43 1
348 47 1
348 54 1
348 57 1
348 64 1
348 65 1
348 70 1
348 71 1
348 72 1
348 73 1
348 80 1
348 98 1
348 107 1
348 109 1
348 110 1
348 111 1
348 112 1
348 115 1
348 116 1
348 131 1
348 136 1
348 139 1
348 140 1
348 143 1
348 145 1
348 153 1
348 156 1
348 164 1
348 166 1
348 167 1
348 169 1
348 175 1
348 182 1
348 185 1
348 188 1
348 191 1
348 192 1
348 193 1
348 201 1
348 202 1
348 206 1
348 211 1
348 212 1
348 218 1
348 226 1
348 237 1
348 242 1
348 246 1
348 251 1
348 254 1
348 255 1
348 258 1
348 263 1
348 268 1
348 272 1
348 274 1
348 276 1
348 279 1
348 290 1
348 293 1
348 298 1
348 299 1
348 300 1
348 302 1
348 308 1
348 316 1
348 327 1
348 329 1
348 332 1
348 334 1
348 339 1
348 350 1
348 357 1
348 367 1
348 369 1
348 373 1
348 374 1
348 376 1
348 381 1
348 387 1
348 401 1
348 405 1
348 407 1
348 411 1
348 422 1
348 427 1
348 428 1
348 438 1
348 440 1
348 441 1
348 445 1
348 446 1
348 450 1
348 451 1
348 460 1
348 466 1
348 471 1
348 472 1
348 475 1
348 494 1
348 512 1
348 521 1
348 524 1
348 536 1
348 539 1
348 540 1
348 544 1
348 571 1
348 574 1
348 591 1
348 599 1
348 601 1
348 608 1
348 609 1
348 614 1
348 616 1
348 621 1
348 630 1
348 643 1
348 644 1
348 648 1
348 650 1
348 653 1
348 657 1
348 661 1
348 667 1
348 677 1
348 685 1
348 687 1
348 694 1
348 697 1
349 2 1
349 12 1
349 15 1
349 25 1
349 27 1
349 30 1
349 32 1
349 36 1
349 39 1
349 43 1
349 49 1
349 56 1
349 62 1
349 73 1
349 77 1
349 79 1
349 83 1
349 84 1
349 85 1
349 86 1
349 99 1
349 120 1
349 122 1
349 131 1
349 133 1
349 134 1
349 136 1
349 138 1
349 139 1
349 144 1
349 154 1
349 156 1
349 159 1
349 161 1
349 165 1
349 166 1
349 167 1
349 172 1
349 177 1
349 178 1
349 179 1
349 188 1
349 194 1
349 196 1
349 201 1
349 210 1
349 214 1
349 215 1
349 228 1
349 241 1
349 272 1
349 280 1
349 290 1
349 294 1
349 298 1
349 300 1
349 303 1
349 305 1
349 307 1
349 312 1
349 313 1
349 319 1
349 322 1
349 328 1
349 339 1
349 343 1
349 347 1
349 359 1
349 366 1
349 371 1
349 372 1
349 374 1
349 375 1
349 389 1
349 390 1
349 394 1
349 398 1
349 404 1
349 408 1
349 409 1
349 410 1
349 411 1
349 414 1
349 417 1
349 421 1
349 422 1
349 423 1
349 427 1
349 429 1
349 432 1
349 448 1
349 451 1
349 455 1
349 458 1
349 459 1
349 484 1
349 486 1
349 488 1
349 489 1
349 493 1
349 495 1
349 500 1
349 504 1
349 505 1
349 509 1
349 511 1
349 512 1
349 520 1
349 533 1
349 535 1
349 542 1
349 546 1
349 549 1
349 551 1
349 555 1
349 564 1
349 568 1
349 569 1
349 574 1
349 578 1
349 582 1
349 583 1
349 588 1
349 590 1
349 594 1
349 598 1
349 613 1
349 632 1
349 641 1
349 642 1
349 650 1
349 658 1
349 660 1
349 669 1
349 671 1
349 680 1
349 681 1
349 686 1
349 688 1
349 698 1
350 6 1
350 8 1
350 13 1
350 16 1
350 17 1
350 28 1
350 34 1
350 37 1
350 40 1
350 42 1
350 45 1
350 53 1
350 61 1
350 64 1
350 66 1
350 69 1
350 75 1
350 76 1
350 79 1
350 81 1
350 96 1
350 104 1
350 105 1
350 106 1
350 110 1
350 112 1
350 116 1
350 126 1
350 133 1
350 140 1
350 143 1
350 146 1
350 151 1
350 156 1
350 167 1
350 175 1
350 182 1
350 185 1
350 197 1
350 204 1
350 207 1
350 208 1
350 210 1
350 214 1
350 220 1
350 229 1
350 230 1
350 232 1
350 236 1
350 237 1
350 243 1
350 251 1
350 255 1
350 262 1
350 265 1
350 273 1
350 275 1
350 282 1
350 299 1
350 301 1
350 306 1
350 308 1
350 315 1
350 316 1
350 317 1
350 321 1
350 323 1
350 324 1
350 326 1
350 333 1
350 344 1
350 348 1
350 352 1
350 362 1
350 407 1
350 412 1
350 413 1
350 426 1
350 428 1
350 431 1
350 432 1
350 437 1
350 443 1
350 456 1
350 457 1
350 466 1
350 468 1
350 469 1
350 476 1
350 481 1
350 485 1
350 487 1
350 488 1
350 489 1
350 491 1
350 501 1
350 514 1
350 527 1
350 540 1
350 541 1
350 543 1
350 545 1
350 548 1
350 567 1
350 570 1
350 582 1
350 583 1
350 585 1
350 589 1
350 596 1
350 598 1
350 603 1
350 606 1
350 616 1
350 618 1
350 629 1
350 649 1
350 650 1
350 653 1
350 654 1
350 656 1
350 659 1
350 664 1
350 667 1
350 680 1
350 681 1
350 683 1
350 690 1
350 691 1
350 692 1
351 2 1
351 3 1
351 5 1
351 27 1
351 31 1
351 37 1
351 43 1
351 49 1
351 54 1
351 58 1
351 62 1
351 63 1
351 65 1
351 66 1
351 69 1
351 74 1
351 75 1
351 78 1
351 82 1
351 85 1
351 89 1
351 92 1
351 95 1
351 99 1
351 106 1
351 111 1
351 126 1
351 142 1
351 143 1
351 148 1
351 163 1
351 166 1
351 176 1
351 179 1
351 180 1
351 185 1
351 196 1
351 197 1
351 199 1
351 208 1
351 213 1
351 214 1
351 218 1
351 219 1
351 222 1
351 226 1
351 231 1
351 233 1
351 241 1
351 244 1
351 246 1
351 252 1
351 265 1
351 269 1
351 272 1
351 273 1
351 279 1
351 280 1
351 287 1
351 291 1
351 293 1
351 294 1
351 300 1
351 301 1
351 302 1
351 308 1
351 319 1
351 326 1
351 330 1
351 331 1
351 332 1
351 341 1
351 355 1
351 362 1
351 373 1
351 376 1
351 384 1
351 385 1
351 389 1
351 394 1
351 400 1
351 402 1
351 407 1
351 410 1
351 415 1
351 416 1
351 421 1
351 424 1
351 433 1
351 435 1
351 439 1
351 440 1
351 446 1
351 456 1
351 457 1
351 467 1
351 479 1
351 481 1
351 485 1
351 490 1
351 502 1
351 506 1
351 510 1
351 511 1
351 515 1
351 524 1
351 526 1
351 538 1
351 539 1
351 540 1
351 542 1
351 553 1
351 554 1
351 556 1
351 566 1
351 569 1
351 572 1
351 578 1
351 579 1
351 591 1
351 594 1
351 595 1
351 600 1
351 603 1
351 605 1
351 606 1
351 608 1
351 610 1
351 617 1
351 618 1
351 632 1
351 637 1
351 638 1
351 640 1
351 645 1
351 652 1
351 655 1
351 662 1
351 665 1
351 666 1
351 670 1
351 682 1
351 689 1
351 691 1
351 694 1
351 696 1
351 698 1
352 4 1
352 15 1
352 21 1
352 30 1
352 37 1
352 38 1
352 41 1
352 58 1
352 59 1
352 60 1
352 61 1
352 65 1
352 75 1
352 83 1
352 101 1
352 105 1
352 106 1
352 113 1
352 114 1
352 119 1
352 128 1
352 131 1
352 137 1
352 139 1
352 156 1
352 159 1
352 163 1
352 164 1
352 165 1
352 169 1
352 171 1
352 173 1
352 176 1
352 180 1
352 183 1
352 201 1
352 212 1
352 219 1
352 220 1
352 223 1
352 233 1
352 241 1
352 248 1
352 252 1
352 255 1
352 263 1
352 275 1
352 276 1
352 280 1
352 285 1
352 287 1
352 292 1
352 312 1
352 314 1
352 322 1
352 323 1
352 324 1
352 331 1
352 342 1
352 350 1
352 358 1
352 364 1
352 367 1
352 368 1
352 373 1
352 378 1
352 379 1
352 380 1
352 383 1
352 385 1
352 391 1
352 394 1
352 395 1
352 397 1
352 399 1
352 400 1
352 402 1
352 407 1
352 411 1
352 422 1
352 433 1
352 436 1
352 438 1
352 444 1
352 452 1
352 455 1
352 457 1
352 459 1
352 461 1
352 467 1
352 477 1
352 478 1
352 484 1
352 496 1
352 497 1
352 504 1
352 505 1
352 506 1
352 510 1
352 515 1
352 519 1
352 523 1
352 527 1
352 533 1
352 534 1
352 537 1
352 543 1
352 552 1
352 555 1
352 565 1
352 575 1
352 586 1
352 592 1
352 594 1
352 600 1
352 616 1
352 628 1
352 645 1
352 649 1
352 652 1
352 654 1
352 655 1
352 659 1
352 661 1
352 662 1
352 663 1
352 664 1
352 668 1
352 674 1
352 675 1
352 676 1
352 679 1
352 681 1
352 683 1
352 690 1
352 695 1
352 697 1
353 2 1
353 6 1
353 9 1
353 10 1
353 18 1
353 24 1
353 32 1
353 34 1
353 36 1
353 41 1
353 44 1
353 47 1
353 56 1
353 69 1
353 77 1
353 78 1
353 79 1
353 84 1
353 85 1
353 86 1
353 98 1
353 105 1
353 109 1
353 121 1
353 127 1
353 132 1
353 142 1
353 143 1
353 144 1
353 146 1
353 150 1
353 151 1
353 162 1
353 167 1
353 168 1
353 182 1
353 189 1
353 193 1
353 195 1
353 202 1
353 207 1
353 211 1
353 213 1
353 216 1
353 243 1
353 271 1
353 280 1
353 286 1
353 305 1
353 311 1
353 316 1
353 326 1
353 332 1
353 334 1
353 341 1
353 342 1
353 343 1
353 356 1
353 370 1
353 390 1
353 394 1
353 402 1
353 416 1
353 419 1
353 420 1
353 422 1
353 426 1
353 434 1
353 438 1
353 440 1
353 445 1
353 446 1
353 447 1
353 450 1
353 455 1
353 460 1
353 464 1
353 466 1
353 467 1
353 476 1
353 482 1
353 487 1
353 494 1
353 503 1
353 505 1
353 512 1
353 517 1
353 527 1
353 540 1
353 543 1
353 552 1
353 557 1
353 563 1
353 566 1
353 573 1
353 574 1
353 581 1
353 582 1
353 585 1
353 586 1
353 588 1
353 621 1
353 622 1
353 623 1
353 626 1
353 630 1
353 641 1
353 642 1
353 643 1
353 647 1
353 648 1
353 669 1
353 674 1
353 693 1
353 700 1
354 5 1
354 6 1
354 7 1
354 9 1
354 11 1
354 24 1
354 25 1
354 27 1
354 39 1
354 41 1
354 43 1
354 48 1
354 49 1
354 61 1
354 72 1
354 87 1
354 89 1
354 92 1
354 93 1
354 94 1
354 98 1
354 100 1
354 101 1
354 103 1
354 104 1
354 105 1
354 106 1
354 107 1
354 108 1
354 111 1
354 115 1
354 118 1
354 124 1
354 137 1
354 144 1
354 145 1
354 152 1
354 154 1
354 158 1
354 163 1
354 175 1
354 178 1
354 182 1
354 183 1
354 185 1
354 186 1
354 191 1
354 204 1
354 206 1
354 207 1
354 211 1
354 214 1
354 225 1
354 230 1
354 234 1
354 238 1
354 278 1
354 288 1
354 291 1
354 298 1
354 300 1
354 305 1
354 313 1
354 321 1
354 327 1
354 333 1
354 334 1
354 337 1
354 339 1
354 343 1
354 365 1
354 371 1
354 381 1
354 383 1
354 386 1
354 393 1
354 395 1
354 398 1
354 399 1
354 408 1
354 415 1
354 418 1
354 429 1
354 430 1
354 436 1
354 443 1
354 444 1
354 447 1
354 457 1
354 462 1
354 479 1
354 480 1
354 484 1
354 487 1
354 489 1
354 490 1
354 491 1
354 493 1
354 495 1
354 499 1
354 503 1
354 513 1
354 520 1
354 525 1
354 526 1
354 534 1
354 543 1
354 551 1
354 553 1
354 555 1
354 560 1
354 564 1
354 566 1
354 568 1
354 570 1
354 574 1
354 576 1
354 577 1
354 587 1
354 592 1
354 609 1
354 616 1
354 625 1
354 628 1
354 637 1
354 639 1
354 640 1
354 643 1
354 644 1
354 649 1
354 650 1
354 656 1
354 657 1
354 658 1
354 669 1
354 676 1
354 678 1
354 686 1
354 688 1
354 689 1
354 695 1
355 1 1
355 3 1
355 4 1
355 12 1
355 19 1
355 20 1
355 23 1
355 24 1
355 29 1
355 30 1
355 34 1
355 45 1
355 50 1
355 54 1
355 61 1
355 72 1
355 79 1
355 81 1
355 83 1
355 91 1
355 93 1
355 99 1
355 106 1
355 110 1
355 120 1
355 132 1
355 144 1
355 148 1
355 150 1
355 152 1
355 161 1
355 165 1
355 167 1
355 169 1
355 172 1
355 176 1
355 180 1
355 183 1
355 187 1
355 189 1
355 195 1
355 197 1
355 201 1
355 202 1
355 216 1
355 221 1
355 223 1
355 229 1
355 236 1
355 246 1
355 248 1
355 255 1
355 261 1
355 262 1
355 263 1
355 264 1
355 266 1
355 267 1
355 268 1
355 269 1
355 270 1
355 271 1
355 276 1
355 278 1
355 280 1
355 281 1
355 284 1
355 293 1
355 302 1
355 303 1
355 314 1
355 316 1
355 323 1
355 331 1
355 334 1
355 344 1
355 346 1
355 351 1
355 364 1
355 367 1
355 371 1
355 373 1
355 382 1
355 387 1
355 388 1
355 391 1
355 396 1
355 401 1
355 403 1
355 404 1
355 405 1
355 408 1
355 411 1
355 412 1
355 416 1
355 418 1
355 421 1
355 428 1
355 449 1
355 451 1
355 457 1
355 463 1
355 464 1
355 466 1
355 474 1
355 487 1
355 492 1
355 493 1
355 497 1
355 510 1
355 519 1
355 525 1
355 529 1
355 541 1
355 550 1
355 552 1
355 555 1
355 557 1
355 558 1
355 567 1
355 568 1
355 570 1
355 575 1
355 584 1
355 594 1
355 603 1
355 609 1
355 617 1
355 619 1
355 626 1
355 628 1
355 632 1
355 641 1
355 642 1
355 651 1
355 652 1
355 655 1
355 658 1
355 667 1
355 674 1
355 675 1
355 678 1
355 679 1
355 681 1
355 682 1
355 683 1
355 685 1
356 3 1
356 4 1
356 7 1
356 17 1
356 23 1
356 24 1
356 28 1
356 35 1
356 38 1
356 54 1
356 60 1
356 65 1
356 70 1
356 79 1
356 83 1
356 86 1
356 87 1
356 89 1
356 93 1
356 94 1
356 102 1
356 105 1
356 107 1
356 110 1
356 115 1
356 118 1
356 119 1
356 125 1
356 133 1
356 135 1
356 146 1
356 147 1
356 151 1
356 155 1
356 157 1
356 159 1
356 166 1
356 177 1
356 178 1
356 184 1
356 187 1
356 193 1
356 195 1
356 200 1
356 203 1
356 205 1
356 211 1
356 212 1
356 215 1
356 221 1
356 228 1
356 229 1
356 250 1
356 255 1
356 262 1
356 278 1
356 297 1
356 299 1
356 300 1
356 315 1
356 319 1
356 325 1
356 328 1
356 336 1
356 339 1
356 341 1
356 353 1
356 358 1
356 362 1
356 365 1
356 370 1
356 373 1
356 394 1
356 396 1
356 414 1
356 418 1
356 421 1
356 436 1
356 439 1
356 444 1
356 446 1
356 448 1
356 451 1
356 460 1
356 461 1
356 471 1
356 472 1
356 474 1
356 475 1
356 479 1
356 484 1
356 485 1
356 491 1
356 505 1
356 506 1
356 514 1
356 523 1
356 530 1
356 531 1
356 536 1
356 542 1
356 544 1
356 548 1
356 550 1
356 553 1
356 559 1
356 574 1
356 585 1
356 588 1
356 592 1
356 595 1
356 606 1
356 607 1
356 611 1
356 614 1
356 615 1
356 617 1
356 622 1
356 624 1
356 629 1
356 633 1
356 637 1
356 638 1
356 640 1
356 643 1
356 654 1
356 660 1
356 661 1
356 664 1
356 668 1
356 673 1
356 682 1
356 687 1
356 694 1
356 700 1
357 1 1
357 4 1
357 5 1
357 10 1
357 18 1
357 31 1
357 32 1
357 38 1
357 43 1
357 54 1
357 57 1
357 61 1
357 64 1
357 70 1
357 72 1
357 73 1
357 77 1
357 80 1
357 83 1
357 87 1
357 96 1
357 97 1
357 101 1
357 106 1
357 122 1
357 126 1
357 127 1
357 139 1
357 140 1
357 145 1
357 147 1
357 148 1
357 153 1
357 163 1
357 164 1
357 165 1
357 167 1
357 168 1
357 171 1
357 176 1
357 177 1
357 179 1
357 180 1
357 181 1
357 182 1
357 183 1
357 195 1
357 201 1
357 202 1
357 204 1
357 206 1
357 213 1
357 221 1
357 227 1
357 230 1
357 232 1
357 234 1
357 252 1
357 256 1
357 259 1
357 273 1
357 274 1
357 279 1
357 282 1
357 286 1
357 291 1
357 301 1
357 305 1
357 310 1
357 322 1
357 337 1
357 341 1
357 342 1
357 348 1
357 363 1
357 364 1
357 365 1
357 368 1
357 370 1
357 371 1
357 373 1
357 376 1
357 379 1
357 380 1
357 394 1
357 397 1
357 400 1
357 414 1
357 416 1
357 419 1
357 420 1
357 430 1
357 438 1
357 443 1
357 448 1
357 450 1
357 459 1
357 466 1
357 475 1
357 476 1
357 484 1
357 487 1
357 503 1
357 513 1
357 516 1
357 523 1
357 527 1
357 528 1
357 533 1
357 545 1
357 547 1
357 551 1
357 553 1
357 560 1
357 566 1
357 570 1
357 573 1
357 575 1
357 596 1
357 606 1
357 609 1
357 610 1
357 624 1
357 625 1
357 631 1
357 633 1
357 635 1
357 643 1
357 649 1
357 650 1
357 651 1
357 671 1
357 676 1
357 677 1
357 681 1
357 687 1
357 688 1
357 689 1
357 697 1
358 2 1
358 3 1
358 9 1
358 14 1
358 25 1
358 28 1
358 32 1
358 33 1
358 34 1
358 38 1
358 47 1
358 49 1
358 53 1
358 60 1
358 64 1
358 79 1
358 81 1
358 84 1
358 86 1
358 88 1
358 89 1
358 91 1
358 96 1
358 98 1
358 117 1
358 127 1
358 129 1
358 130 1
358 131 1
358 137 1
358 153 1
358 154 1
358 158 1
358 162 1
358 163 1
358 164 1
358 166 1
358 172 1
358 179 1
358 182 1
358 187 1
358 190 1
358 197 1
358 198 1
358 200 1
358 203 1
358 205 1
358 210 1
358 212 1
358 215 1
358 221 1
358 233 1
358 234 1
358 235 1
358 249 1
358 252 1
358 259 1
358 264 1
358 268 1
358 272 1
358 282 1
358 283 1
358 287 1
358 288 1
358 290 1
358 295 1
358 298 1
358 304 1
358 305 1
358 306 1
358 309 1
358 319 1
358 324 1
358 327 1
358 334 1
358 336 1
358 340 1
358 342 1
358 352 1
358 356 1
358 362 1
358 372 1
358 373 1
358 375 1
358 383 1
358 385 1
358 396 1
358 403 1
358 405 1
358 409 1
358 411 1
358 414 1
358 423 1
358 424 1
358 432 1
358 437 1
358 443 1
358 448 1
358 451 1
358 457 1
358 458 1
358 461 1
358 463 1
358 470 1
358 473 1
358 479 1
358 481 1
358 485 1
358 489 1
358 496 1
358 500 1
358 501 1
358 502 1
358 510 1
358 513 1
358 520 1
358 521 1
358 522 1
358 524 1
358 539 1
358 547 1
358 551 1
358 569 1
358 573 1
358 574 1
358 575 1
358 584 1
358 586 1
358 588 1
358 589 1
358 600 1
358 607 1
358 620 1
358 621 1
358 623 1
358 632 1
358 637 1
358 641 1
358 643 1
358 653 1
358 654 1
358 658 1
358 664 1
358 674 1
358 681 1
358 683 1
358 688 1
358 689 1
358 690 1
358 691 1
359 7 1
359 12 1
359 26 1
359 32 1
359 38 1
359 39 1
359 40 1
359 41 1
359 50 1
359 51 1
359 56 1
359 57 1
359 59 1
359 68 1
359 72 1
359 75 1
359 76 1
359 78 1
359 80 1
359 82 1
359 83 1
359 92 1
359 94 1
359 107 1
359 125 1
359 127 1
359 140 1
359 142 1
359 158 1
359 167 1
359 174 1
359 181 1
359 185 1
359 190 1
359 196 1
359 205 1
359 206 1
359 208 1
359 211 1
359 213 1
359 214 1
359 219 1
359 224 1
359 225 1
359 227 1
359 228 1
359 230 1
359 239 1
359 245 1
359 250 1
359 254 1
359 256 1
359 262 1
359 267 1
359 270 1
359 275 1
359 288 1
359 289 1
359 293 1
359 296 1
359 305 1
359 308 1
359 309 1
359 313 1
359 323 1
359 329 1
359 332 1
359 349 1
359 360 1
359 363 1
359 367 1
359 376 1
359 386 1
359 387 1
359 402 1
359 410 1
359 415 1
359 422 1
359 424 1
359 428 1
359 430 1
359 437 1
359 440 1
359 452 1
359 462 1
359 474 1
359 480 1
359 481 1
359 485 1
359 489 1
359 490 1
359 492 1
359 496 1
359 505 1
359 513 1
359 515 1
359 518 1
359 527 1
359 533 1
359 544 1
359 545 1
359 546 1
359 550 1
359 553 1
359 562 1
359 564 1
359 569 1
359 574 1
359 577 1
359 583 1
359 584 1
359 593 1
359 594 1
359 597 1
359 609 1
359 633 1
359 634 1
359 635 1
359 643 1
359 647 1
359 648 1
359 654 1
359 655 1
359 661 1
359 664 1
359 668 1
359 669 1
359 671 1
359 677 1
359 678 1
359 687 1
359 692 1
359 695 1
359 696 1
360 9 1
360 10 1
360 11 1
360 13 1
360 18 1
360 28 1
360 34 1
360 36 1
360 43 1
360 45 1
360 52 1
360 54 1
360 61 1
360 63 1
360 66 1
360 82 1
360 86 1
360 87 1
360 88 1
360 94 1
360 108 1
360 109 1
360 114 1
360 115 1
360 118 1
360 124 1
360 126 1
360 130 1
360 133 1
360 134 1
360 139 1
360 140 1
360 154 1
360 164 1
360 174 1
360 194 1
360 203 1
360 207 1
360 213 1
360 214 1
360 215 1
360 217 1
360 218 1
360 220 1
360 228 1
360 233 1
360 234 1
360 236 1
360 249 1
360 251 1
360 258 1
360 264 1
360 269 1
360 271 1
360 273 1
360 274 1
360 276 1
360 279 1
360 281 1
360 282 1
360 286 1
360 288 1
360 290 1
360 303 1
360 310 1
360 312 1
360 313 1
360 315 1
360 317 1
360 319 1
360 322 1
360 325 1
360 327 1
360 328 1
360 330 1
360 334 1
360 335 1
360 337 1
360 346 1
360 347 1
360 359 1
360 363 1
360 364 1
360 371 1
360 376 1
360 379 1
360 381 1
360 389 1
360 390 1
360 391 1
360 392 1
360 396 1
360 397 1
360 403 1
360 411 1
360 417 1
360 419 1
360 422 1
360 427 1
360 433 1
360 434 1
360 443 1
360 447 1
360 450 1
360 454 1
360 459 1
360 464 1
360 467 1
360 472 1
360 473 1
360 479 1
360 488 1
360 493 1
360 498 1
360 501 1
360 503 1
360 506 1
360 508 1
360 511 1
360 515 1
360 518 1
360 524 1
360 527 1
360 537 1
360 548 1
360 564 1
360 570 1
360 572 1
360 577 1
360 579 1
360 580 1
360 586 1
360 587 1
360 588 1
360 598 1
360 606 1
360 610 1
360 612 1
360 613 1
360 617 1
360 626 1
360 644 1
360 650 1
360 653 1
360 658 1
360 663 1
360 666 1
360 671 1
360 679 1
360 680 1
360 683 1
360 692 1
360 700 1
361 3 1
361 9 1
361 20 1
361 33 1
361 36 1
361 41 1
361 42 1
361 45 1
361 49 1
361 51 1
361 60 1
361 61 1
361 62 1
361 63 1
361 71 1
361 81 1
361 91 1
361 92 1
361 104 1
361 105 1
361 112 1
361 121 1
361 123 1
361 125 1
361 126 1
361 135 1
361 155 1
361 157 1
361 159 1
361 161 1
361 162 1
361 167 1
361 170 1
361 175 1
361 179 1
361 184 1
361 188 1
361 189 1
361 193 1
361 195 1
361 196 1
361 197 1
361 204 1
361 210 1
361 220 1
361 224 1
361 225 1
361 227 1
361 228 1
361 230 1
361 231 1
361 234 1
361 238 1
361 267 1
361 270 1
361 274 1
361 276 1
361 279 1
361 282 1
361 287 1
361 289 1
361 294 1
361 298 1
361 314 1
361 317 1
361 329 1
361 332 1
361 342 1
361 343 1
361 344 1
361 366 1
361 367 1
361 368 1
361 377 1
361 381 1
361 399 1
361 402 1
361 403 1
361 408 1
361 412 1
361 418 1
361 431 1
361 435 1
361 441 1
361 449 1
361 454 1
361 456 1
361 457 1
361 461 1
361 464 1
361 466 1
361 467 1
361 474 1
361 476 1
361 477 1
361 479 1
361 480 1
361 486 1
361 489 1
361 491 1
361 501 1
361 507 1
361 509 1
361 511 1
361 526 1
361 528 1
361 533 1
361 535 1
361 536 1
361 539 1
361 548 1
361 555 1
361 576 1
361 577 1
361 583 1
361 585 1
361 587 1
361 591 1
361 596 1
361 597 1
361 600 1
361 603 1
361 616 1
361 623 1
361 624 1
361 631 1
361 639 1
361 641 1
361 646 1
361 648 1
361 650 1
361 656 1
361 657 1
361 659 1
361 660 1
361 662 1
361 666 1
361 672 1
361 673 1
361 674 1
361 675 1
361 676 1
361 683 1
361 687 1
361 689 1
361 696 1
361 697 1
361 698 1
361 699 1
361 700 1
362 6 1
362 8 1
362 9 1
362 14 1
362 20 1
362 22 1
362 42 1
362 45 1
362 52 1
362 68 1
362 73 1
362 89 1
362 92 1
362 96 1
362 99 1
362 103 1
362 108 1
362 109 1
362 111 1
362 115 1
362 123 1
362 133 1
362 140 1
362 145 1
362 146 1
362 150 1
362 164 1
362 170 1
362 175 1
362 176 1
362 179 1
362 180 1
362 195 1
362 196 1
362 201 1
362 211 1
362 239 1
362 244 1
362 264 1
362 269 1
362 273 1
362 274 1
362 282 1
362 285 1
362 286 1
362 288 1
362 290 1
362 297 1
362 298 1
362 306 1
362 307 1
362 312 1
362 315 1
362 319 1
362 322 1
362 326 1
362 337 1
362 343 1
362 350 1
362 351 1
362 356 1
362 358 1
362 368 1
362 370 1
362 376 1
362 377 1
362 378 1
362 392 1
362 396 1
362 404 1
362 408 1
362 415 1
362 429 1
362 444 1
362 447 1
362 448 1
362 453 1
362 460 1
362 462 1
362 464 1
362 465 1
362 469 1
362 471 1
362 473 1
362 486 1
362 488 1
362 493 1
362 494 1
362 498 1
362 501 1
362 504 1
362 510 1
362 512 1
362 515 1
362 517 1
362 523 1
362 534 1
362 540 1
362 546 1
362 548 1
362 551 1
362 559 1
362 561 1
362 564 1
362 566 1
362 574 1
362 575 1
362 581 1
362 584 1
362 585 1
362 588 1
362 600 1
362 607 1
362 628 1
362 629 1
362 630 1
362 632 1
362 635 1
362 637 1
362 638 1
362 639 1
362 651 1
362 655 1
362 660 1
362 664 1
362 667 1
362 669 1
362 677 1
362 681 1
362 682 1
362 684 1
362 686 1
362 687 1
362 688 1
362 691 1
362 693 1
362 698 1
363 1 1
363 8 1
363 9 1
363 10 1
363 22 1
363 25 1
363 27 1
363 39 1
363 41 1
363 44 1
363 48 1
363 54 1
363 64 1
363 68 1
363 70 1
363 71 1
363 75 1
363 82 1
363 83 1
363 99 1
363 100 1
363 105 1
363 107 1
363 117 1
363 123 1
363 125 1
363 126 1
363 133 1
363 134 1
363 135 1
363 139 1
363 141 1
363 149 1
363 151 1
363 152 1
363 154 1
363 165 1
363 167 1
363 174 1
363 177 1
363 186 1
363 189 1
363 190 1
363 192 1
363 195 1
363 196 1
363 202 1
363 209 1
363 216 1
363 220 1
363 222 1
363 231 1
363 232 1
363 233 1
363 236 1
363 240 1
363 242 1
363 255 1
363 263 1
363 270 1
363 274 1
363 275 1
363 277 1
363 281 1
363 283 1
363 305 1
363 308 1
363 309 1
363 310 1
363 311 1
363 313 1
363 320 1
363 327 1
363 329 1
363 331 1
363 332 1
363 343 1
363 357 1
363 359 1
363 360 1
363 364 1
363 365 1
363 368 1
363 369 1
363 375 1
363 378 1
363 379 1
363 380 1
363 388 1
363 390 1
363 393 1
363 395 1
363 417 1
363 426 1
363 435 1
363 440 1
363 441 1
363 455 1
363 459 1
363 461 1
363 463 1
363 466 1
363 468 1
363 472 1
363 474 1
363 481 1
363 498 1
363 514 1
363 515 1
363 516 1
363 523 1
363 525 1
363 526 1
363 532 1
363 534 1
363 536 1
363 545 1
363 547 1
363 548 1
363 553 1
363 554 1
363 559 1
363 577 1
363 579 1
363 581 1
363 583 1
363 586 1
363 589 1
363 590 1
363 595 1
363 596 1
363 606 1
363 607 1
363 609 1
363 614 1
363 616 1
363 619 1
363 621 1
363 623 1
363 627 1
363 629 1
363 632 1
363 635 1
363 637 1
363 642 1
363 647 1
363 653 1
363 654 1
363 657 1
363 662 1
363 675 1
363 677 1
363 682 1
363 685 1
363 695 1
364 7 1
364 10 1
364 11 1
364 20 1
364 21 1
364 22 1
364 23 1
364 28 1
364 30 1
364 41 1
364 60 1
364 64 1
364 68 1
364 69 1
364 70 1
364 72 1
364 73 1
364 88 1
364 89 1
364 95 1
364 103 1
364 108 1
364 111 1
364 113 1
364 116 1
364 123 1
364 124 1
364 132 1
364 134 1
364 136 1
364 139 1
364 141 1
364 145 1
364 146 1
364 164 1
364 165 1
364 167 1
364 168 1
364 170 1
364 174 1
364 176 1
364 189 1
364 190 1
364 204 1
364 205 1
364 209 1
364 212 1
364 232 1
364 234 1
364 236 1
364 241 1
364 244 1
364 248 1
364 250 1
364 251 1
364 260 1
364 276 1
364 283 1
364 287 1
364 292 1
364 297 1
364 298 1
364 304 1
364 305 1
364 313 1
364 314 1
364 326 1
364 331 1
364 347 1
364 352 1
364 355 1
364 357 1
364 360 1
364 363 1
364 365 1
364 373 1
364 379 1
364 391 1
364 394 1
364 401 1
364 402 1
364 406 1
364 408 1
364 414 1
364 418 1
364 420 1
364 425 1
364 429 1
364 437 1
364 439 1
364 444 1
364 454 1
364 465 1
364 469 1
364 484 1
364 491 1
364 493 1
364 495 1
364 498 1
364 499 1
364 501 1
364 502 1
364 507 1
364 510 1
364 512 1
364 527 1
364 532 1
364 544 1
364 554 1
364 563 1
364 564 1
364 580 1
364 585 1
364 597 1
364 598 1
364 603 1
364 604 1
364 608 1
364 611 1
364 615 1
364 618 1
364 622 1
364 625 1
364 629 1
364 631 1
364 639 1
364 643 1
364 644 1
364 656 1
364 657 1
364 660 1
364 677 1
364 679 1
364 685 1
364 689 1
364 690 1
364 694 1
364 696 1
365 3 1
365 4 1
365 7 1
365 9 1
365 20 1
365 37 1
365 39 1
365 43 1
365 44 1
365 45 1
365 49 1
365 57 1
365 58 1
365 64 1
365 72 1
365 80 1
365 81 1
365 82 1
365 85 1
365 105 1
365 111 1
365 113 1
365 117 1
365 122 1
365 124 1
365 130 1
365 134 1
365 137 1
365 145 1
365 147 1
365 158 1
365 161 1
365 162 1
365 163 1
365 164 1
365 167 1
365 172 1
365 176 1
365 178 1
365 194 1
365 195 1
365 204 1
365 206 1
365 221 1
365 229 1
365 230 1
365 231 1
365 237 1
365 238 1
365 242 1
365 255 1
365 263 1
365 276 1
365 277 1
365 281 1
365 282 1
365 287 1
365 293 1
365 295 1
365 320 1
365 324 1
365 336 1
365 354 1
365 356 1
365 357 1
365 363 1
365 364 1
365 371 1
365 381 1
365 384 1
365 386 1
365 387 1
365 398 1
365 399 1
365 405 1
365 406 1
365 408 1
365 409 1
365 418 1
365 420 1
365 422 1
365 424 1
365 436 1
365 438 1
365 440 1
365 444 1
365 451 1
365 453 1
365 454 1
365 461 1
365 464 1
365 466 1
365 467 1
365 470 1
365 472 1
365 475 1
365 479 1
365 482 1
365 487 1
365 490 1
365 491 1
365 494 1
365 501 1
365 505 1
365 509 1
365 510 1
365 512 1
365 518 1
365 522 1
365 523 1
365 527 1
365 528 1
365 531 1
365 532 1
365 546 1
365 549 1
365 566 1
365 567 1
365 573 1
365 574 1
365 581 1
365 583 1
365 586 1
365 587 1
365 593 1
365 596 1
365 599 1
365 602 1
365 615 1
365 621 1
365 629 1
365 633 1
365 634 1
365 635 1
365 643 1
365 648 1
365 649 1
365 659 1
365 660 1
365 665 1
365 670 1
365 671 1
365 676 1
365 677 1
365 679 1
365 681 1
365 683 1
365 685 1
365 695 1
365 696 1
366 1 1
366 2 1
366 10 1
366 11 1
366 14 1
366 18 1
366 23 1
366 24 1
366 33 1
366 44 1
366 47 1
366 49 1
366 57 1
366 66 1
366 69 1
366 71 1
366 86 1
366 92 1
366 93 1
366 95 1
366 101 1
366 103 1
366 111 1
366 122 1
366 125 1
366 127 1
366 132 1
366 135 1
366 144 1
366 145 1
366 148 1
366 152 1
366 153 1
366 165 1
366 170 1
366 174 1
366 179 1
366 180 1
366 191 1
366 195 1
366 199 1
366 203 1
366 206 1
366 211 1
366 217 1
366 221 1
366 223 1
366 248 1
366 249 1
366 251 1
366 253 1
366 276 1
366 298 1
366 309 1
366 315 1
366 328 1
366 330 1
366 337 1
366 339 1
366 345 1
366 349 1
366 361 1
366 369 1
366 375 1
366 380 1
366 393 1
366 397 1
366 403 1
366 416 1
366 423 1
366 426 1
366 427 1
366 438 1
366 445 1
366 446 1
366 447 1
366 448 1
366 449 1
366 458 1
366 460 1
366 466 1
366 468 1
366 470 1
366 474 1
366 476 1
366 478 1
366 481 1
366 483 1
366 484 1
366 486 1
366 493 1
366 494 1
366 496 1
366 500 1
366 507 1
366 511 1
366 517 1
366 522 1
366 530 1
366 537 1
366 543 1
366 547 1
366 553 1
366 557 1
366 564 1
366 567 1
366 574 1
366 579 1
366 580 1
366 583 1
366 585 1
366 595 1
366 596 1
366 600 1
366 608 1
366 630 1
366 631 1
366 635 1
366 650 1
366 658 1
366 660 1
366 661 1
366 664 1
366 666 1
366 686 1
366 687 1
366 689 1
366 699 1
366 700 1
367 8 1
367 10 1
367 11 1
367 17 1
367 27 1
367 34 1
367 42 1
367 54 1
367 55 1
367 60 1
367 72 1
367 85 1
367 86 1
367 91 1
367 101 1
367 112 1
367 114 1
367 121 1
367 123 1
367 125 1
367 126 1
367 139 1
367 140 1
367 145 1
367 157 1
367 160 1
367 162 1
367 163 1
367 166 1
367 172 1
367 182 1
367 186 1
367 198 1
367 204 1
367 211 1
367 223 1
367 229 1
367 233 1
367 244 1
367 246 1
367 253 1
367 254 1
367 277 1
367 280 1
367 285 1
367 287 1
367 288 1
367 290 1
367 292 1
367 295 1
367 303 1
367 304 1
367 305 1
367 306 1
367 316 1
367 319 1
367 320 1
367 326 1
367 332 1
367 333 1
367 340 1
367 347 1
367 348 1
367 352 1
367 355 1
367 359 1
367 361 1
367 370 1
367 374 1
367 375 1
367 397 1
367 402 1
367 410 1
367 412 1
367 415 1
367 418 1
367 429 1
367 433 1
367 448 1
367 449 1
367 451 1
367 460 1
367 464 1
367 465 1
367 469 1
367 472 1
367 479 1
367 486 1
367 489 1
367 491 1
367 499 1
367 500 1
367 503 1
367 505 1
367 506 1
367 509 1
367 513 1
367 521 1
367 537 1
367 542 1
367 545 1
367 549 1
367 552 1
367 553 1
367 555 1
367 563 1
367 598 1
367 600 1
367 605 1
367 607 1
367 612 1
367 613 1
367 614 1
367 617 1
367 619 1
367 624 1
367 625 1
367 628 1
367 635 1
367 642 1
367 643 1
367 644 1
367 651 1
367 655 1
367 657 1
367 667 1
367 669 1
367 678 1
367 684 1
367 688 1
367 697 1
368 2 1
368 7 1
368 10 1
368 22 1
368 31 1
368 41 1
368 42 1
368 43 1
368 47 1
368 48 1
368 49 1
368 61 1
368 62 1
368 63 1
368 65 1
368 66 1
368 67 1
368 73 1
368 78 1
368 79 1
368 86 1
368 91 1
368 102 1
368 109 1
368 110 1
368 111 1
368 118 1
368 120 1
368 126 1
368 128 1
368 131 1
368 134 1
368 138 1
368 145 1
368 146 1
368 153 1
368 162 1
368 164 1
368 170 1
368 171 1
368 172 1
368 176 1
368 179 1
368 187 1
368 189 1
368 193 1
368 194 1
368 196 1
368 197 1
368 211 1
368 215 1
368 216 1
368 217 1
368 220 1
368 225 1
368 226 1
368 227 1
368 230 1
368 233 1
368 238 1
368 239 1
368 242 1
368 246 1
368 264 1
368 265 1
368 276 1
368 277 1
368 285 1
368 302 1
368 304 1
368 305 1
368 307 1
368 324 1
368 329 1
368 331 1
368 332 1
368 342 1
368 343 1
368 346 1
368 352 1
368 357 1
368 361 1
368 362 1
368 363 1
368 374 1
368 375 1
368 379 1
368 386 1
368 388 1
368 390 1
368 399 1
368 400 1
368 407 1
368 409 1
368 426 1
368 430 1
368 433 1
368 434 1
368 443 1
368 449 1
368 456 1
368 465 1
368 472 1
368 482 1
368 486 1
368 505 1
368 507 1
368 512 1
368 516 1
368 517 1
368 519 1
368 527 1
368 529 1
368 536 1
368 537 1
368 540 1
368 548 1
368 550 1
368 551 1
368 552 1
368 554 1
368 557 1
368 565 1
368 566 1
368 567 1
368 569 1
368 585 1
368 586 1
368 590 1
368 592 1
368 594 1
368 596 1
368 599 1
368 612 1
368 613 1
368 616 1
368 622 1
368 626 1
368 628 1
368 629 1
368 633 1
368 634 1
368 636 1
368 641 1
368 646 1
368 661 1
368 669 1
368 672 1
368 674 1
368 676 1
368 680 1
368 688 1
368 695 1
369 1 1
369 6 1
369 11 1
369 14 1
369 16 1
369 17 1
369 28 1
369 43 1
369 48 1
369 50 1
369 51 1
369 52 1
369 60 1
369 67 1
369 71 1
369 73 1
369 74 1
369 86 1
369 88 1
369 90 1
369 95 1
369 107 1
369 110 1
369 111 1
369 112 1
369 115 1
369 121 1
369 134 1
369 137 1
369 141 1
369 147 1
369 148 1
369 150 1
369 197 1
369 199 1
369 208 1
369 210 1
369 219 1
369 224 1
369 227 1
369 230 1
369 233 1
369 239 1
369 245 1
369 253 1
369 254 1
369 256 1
369 267 1
369 274 1
369 283 1
369 286 1
369 298 1
369 300 1
369 306 1
369 314 1
369 316 1
369 318 1
369 319 1
369 320 1
369 328 1
369 330 1
369 331 1
369 336 1
369 339 1
369 346 1
369 348 1
369 363 1
369 366 1
369 374 1
369 376 1
369 377 1
369 378 1
369 382 1
369 386 1
369 394 1
369 402 1
369 407 1
369 410 1
369 411 1
369 412 1
369 423 1
369 427 1
369 428 1
369 429 1
369 432 1
369 443 1
369 444 1
369 455 1
369 467 1
369 469 1
369 472 1
369 478 1
369 481 1
369 498 1
369 507 1
369 522 1
369 524 1
369 525 1
369 530 1
369 531 1
369 540 1
369 552 1
369 554 1
369 559 1
369 568 1
369 571 1
369 573 1
369 580 1
369 582 1
369 585 1
369 589 1
369 591 1
369 595 1
369 597 1
369 598 1
369 602 1
369 606 1
369 612 1
369 614 1
369 617 1
369 624 1
369 628 1
369 635 1
369 637 1
369 641 1
369 643 1
369 654 1
369 656 1
369 657 1
369 659 1
369 677 1
369 683 1
369 684 1
369 694 1
369 695 1
369 696 1
370 6 1
370 7 1
370 11 1
370 13 1
370 20 1
370 21 1
370 23 1
370 29 1
370 31 1
370 39 1
370 44 1
370 46 1
370 47 1
370 53 1
370 59 1
370 64 1
370 66 1
370 72 1
370 80 1
370 86 1
370 87 1
370 89 1
370 95 1
370 98 1
370 99 1
370 113 1
370 116 1
370 125 1
370 132 1
370 135 1
370 138 1
370 140 1
370 142 1
370 143 1
370 154 1
370 155 1
370 156 1
370 157 1
370 158 1
370 160 1
370 166 1
370 167 1
370 183 1
370 197 1
370 222 1
370 231 1
370 234 1
370 237 1
370 238 1
370 239 1
370 247 1
370 251 1
370 255 1
370 262 1
370 267 1
370 275 1
370 279 1
370 283 1
370 284 1
370 285 1
370 289 1
370 291 1
370 294 1
370 296 1
370 301 1
370 304 1
370 307 1
370 317 1
370 323 1
370 327 1
370 330 1
370 335 1
370 341 1
370 353 1
370 356 1
370 357 1
370 362 1
370 367 1
370 377 1
370 381 1
370 387 1
370 389 1
370 390 1
370 397 1
370 398 1
370 399 1
370 406 1
370 408 1
370 413 1
370 421 1
370 424 1
370 425 1
370 428 1
370 430 1
370 432 1
370 433 1
370 440 1
370 447 1
370 450 1
370 467 1
370 487 1
370 488 1
370 496 1
370 500 1
370 503 1
370 504 1
370 506 1
370 508 1
370 513 1
370 519 1
370 522 1
370 536 1
370 539 1
370 541 1
370 544 1
370 546 1
370 551 1
370 552 1
370 562 1
370 588 1
370 599 1
370 603 1
370 605 1
370 610 1
370 618 1
370 620 1
370 621 1
370 623 1
370 638 1
370 643 1
370 651 1
370 660 1
370 662 1
370 667 1
370 672 1
370 675 1
370 677 1
370 683 1
370 687 1
370 692 1
370 693 1
370 699 1
371 6 1
371 16 1
371 21 1
371 29 1
371 35 1
371 39 1
371 45 1
371 50 1
371 52 1
371 64 1
371 65 1
371 67 1
371 72 1
371 79 1
371 85 1
371 94 1
371 99 1
371 105 1
371 125 1
371 129 1
371 132 1
371 140 1
371 145 1
371 146 1
371 148 1
371 149 1
371 151 1
371 154 1
371 158 1
371 162 1
371 165 1
371 173 1
371 174 1
371 182 1
371 185 1
371 186 1
371 195 1
371 200 1
371 201 1
371 212 1
371 216 1
371 222 1
371 227 1
371 228 1
371 230 1
371 231 1
371 235 1
371 236 1
371 239 1
371 242 1
371 243 1
371 247 1
371 248 1
371 251 1
371 256 1
371 258 1
371 260 1
371 263 1
371 265 1
371 268 1
371 273 1
371 277 1
371 280 1
371 289 1
371 290 1
371 291 1
371 297 1
371 301 1
371 305 1
371 308 1
371 318 1
371 323 1
371 332 1
371 334 1
371 340 1
371 343 1
371 344 1
371 349 1
371 354 1
371 355 1
371 357 1
371 360 1
371 365 1
371 372 1
371 380 1
371 381 1
371 384 1
371 389 1
371 392 1
371 395 1
371 396 1
371 397 1
371 406 1
371 410 1
371 411 1
371 417 1
371 424 1
371 425 1
371 435 1
371 445 1
371 448 1
371 455 1
371 458 1
371 460 1
371 462 1
371 464 1
371 465 1
371 468 1
371 474 1
371 482 1
371 492 1
371 496 1
371 499 1
371 512 1
371 518 1
371 521 1
371 522 1
371 526 1
371 530 1
371 534 1
371 548 1
371 550 1
371 554 1
371 555 1
371 563 1
371 566 1
371 567 1
371 569 1
371 573 1
371 585 1
371 588 1
371 590 1
371 594 1
371 612 1
371 615 1
371 621 1
371 622 1
371 623 1
371 633 1
371 640 1
371 644 1
371 649 1
371 655 1
371 656 1
371 662 1
371 663 1
371 679 1
371 683 1
371 684 1
371 689 1
371 695 1
372 3 1
372 6 1
372 7 1
372 13 1
372 14 1
372 28 1
372 34 1
372 38 1
372 39 1
372 41 1
372 50 1
372 65 1
372 74 1
372 81 1
372 84 1
372 89 1
372 90 1
372 91 1
372 92 1
372 97 1
372 119 1
372 123 1
372 124 1
372 131 1
372 133 1
372 146 1
372 157 1
372 158 1
372 168 1
372 169 1
372 172 1
372 188 1
372 194 1
372 198 1
372 201 1
372 204 1
372 208 1
372 210 1
372 213 1
372 214 1
372 220 1
372 232 1
372 233 1
372 234 1
372 237 1
372 238 1
372 242 1
372 244 1
372 250 1
372 253 1
372 260 1
372 262 1
372 265 1
372 268 1
372 272 1
372 296 1
372 305 1
372 310 1
372 312 1
372 327 1
372 332 1
372 335 1
372 342 1
372 343 1
372 344 1
372 349 1
372 358 1
372 371 1
372 381 1
372 390 1
372 396 1
372 397 1
372 398 1
372 400 1
372 401 1
372 404 1
372 413 1
372 420 1
372 425 1
372 427 1
372 437 1
372 438 1
372 439 1
372 440 1
372 443 1
372 445 1
372 448 1
372 453 1
372 457 1
372 458 1
372 459 1
372 467 1
372 476 1
372 478 1
372 480 1
372 484 1
372 485 1
372 487 1
372 488 1
372 491 1
372 500 1
372 503 1
372 505 1
372 509 1
372 512 1
372 516 1
372 524 1
372 527 1
372 537 1
372 538 1
372 555 1
372 558 1
372 560 1
372 568 1
372 569 1
372 570 1
372 574 1
372 578 1
372 580 1
372 583 1
372 594 1
372 599 1
372 601 1
372 603 1
372 606 1
372 624 1
372 630 1
372 637 1
372 641 1
372 643 1
372 646 1
372 647 1
372 649 1
372 652 1
372 660 1
372 663 1
372 672 1
372 677 1
372 678 1
372 681 1
372 683 1
372 686 1
372 690 1
372 691 1
372 692 1
372 695 1
372 696 1
372 700 1
373 9 1
373 15 1
373 22 1
373 26 1
373 30 1
373 34 1
373 36 1
373 37 1
373 38 1
373 41 1
373 48 1
373 54 1
373 55 1
373 58 1
373 73 1
373 90 1
373 91 1
373 97 1
373 105 1
373 113 1
373 123 1
373 125 1
373 127 1
373 130 1
373 143 1
373 144 1
373 145 1
373 160 1
373 164 1
373 165 1
373 170 1
373 174 1
373 175 1
373 180 1
373 183 1
373 190 1
373 192 1
373 200 1
373 203 1
373 213 1
373 215 1
373 220 1
373 222 1
373 240 1
373 244 1
373 247 1
373 255 1
373 260 1
373 265 1
373 276 1
373 281 1
373 284 1
373 287 1
373 290 1
373 301 1
373 306 1
373 308 1
373 314 1
373 316 1
373 329 1
373 330 1
373 337 1
373 340 1
373 348 1
373 351 1
373 352 1
373 355 1
373 356 1
373 357 1
373 358 1
373 364 1
373 377 1
373 381 1
373 388 1
373 394 1
373 413 1
373 416 1
373 418 1
373 425 1
373 427 1
373 428 1
373 431 1
373 439 1
373 441 1
373 443 1
373 445 1
373 448 1
373 456 1
373 461 1
373 469 1
373 470 1
373 475 1
373 497 1
373 498 1
373 503 1
373 509 1
373 511 1
373 518 1
373 519 1
373 520 1
373 529 1
373 533 1
373 539 1
373 547 1
373 553 1
373 560 1
373 564 1
373 571 1
373 576 1
373 581 1
373 582 1
373 585 1
373 589 1
373 591 1
373 596 1
373 600 1
373 609 1
373 610 1
373 613 1
373 614 1
373 624 1
373 625 1
373 627 1
373 630 1
373 632 1
373 634 1
373 636 1
373 639 1
373 641 1
373 644 1
373 646 1
373 649 1
373 664 1
373 665 1
373 681 1
373 685 1
373 686 1
374 6 1
374 9 1
374 12 1
374 13 1
374 14 1
374 31 1
374 32 1
374 34 1
374 39 1
374 44 1
374 47 1
374 55 1
374 73 1
374 77 1
374 80 1
374 85 1
374 106 1
374 110 1
374 114 1
374 116 1
374 123 1
374 131 1
374 135 1
374 136 1
374 148 1
374 150 1
374 159 1
374 164 1
374 165 1
374 169 1
374 170 1
374 198 1
374 218 1
374 228 1
374 230 1
374 233 1
374 234 1
374 257 1
374 258 1
374 271 1
374 272 1
374 278 1
374 280 1
374 291 1
374 293 1
374 298 1
374 307 1
374 311 1
374 315 1
374 326 1
374 331 1
374 337 1
374 343 1
374 345 1
374 348 1
374 349 1
374 367 1
374 368 1
374 369 1
374 376 1
374 384 1
374 391 1
374 393 1
374 399 1
374 401 1
374 402 1
374 403 1
374 413 1
374 414 1
374 429 1
374 430 1
374 431 1
374 432 1
374 435 1
374 436 1
374 445 1
374 451 1
374 452 1
374 454 1
374 466 1
374 469 1
374 483 1
374 486 1
374 500 1
374 502 1
374 504 1
374 513 1
374 522 1
374 528 1
374 529 1
374 532 1
374 533 1
374 536 1
374 544 1
374 552 1
374 565 1
374 566 1
374 567 1
374 572 1
374 574 1
374 579 1
374 589 1
374 592 1
374 594 1
374 597 1
374 598 1
374 599 1
374 602 1
374 604 1
374 606 1
374 612 1
374 616 1
374 619 1
374 623 1
374 629 1
374 634 1
374 637 1
374 640 1
374 648 1
374 654 1
374 664 1
374 667 1
374 669 1
374 671 1
374 684 1
374 687 1
374 693 1
374 698 1
375 3 1
375 6 1
375 9 1
375 11 1
375 12 1
375 15 1
375 16 1
375 24 1
375 25 1
375 32 1
375 35 1
375 37 1
375 41 1
375 42 1
375 48 1
375 53 1
375 67 1
375 71 1
375 72 1
375 75 1
375 82 1
375 89 1
375 93 1
375 104 1
375 113 1
375 121 1
375 122 1
375 131 1
375 135 1
375 141 1
375 144 1
375 153 1
375 154 1
375 156 1
375 161 1
375 178 1
375 185 1
375 187 1
375 190 1
375 203 1
375 204 1
375 206 1
375 207 1
375 208 1
375 211 1
375 215 1
375 218 1
375 233 1
375 241 1
375 250 1
375 258 1
375 262 1
375 272 1
375 280 1
375 284 1
375 291 1
375 294 1
375 296 1
375 301 1
375 302 1
375 315 1
375 316 1
375 317 1
375 324 1
375 325 1
375 326 1
375 331 1
375 334 1
375 349 1
375 358 1
375 363 1
375 366 1
375 367 1
375 368 1
375 383 1
375 385 1
375 387 1
375 391 1
375 393 1
375 402 1
375 403 1
375 407 1
375 408 1
375 420 1
375 432 1
375 441 1
375 447 1
375 455 1
375 458 1
375 461 1
375 462 1
375 465 1
375 473 1
375 474 1
375 479 1
375 480 1
375 483 1
375 486 1
375 488 1
375 491 1
375 500 1
375 501 1
375 502 1
375 503 1
375 506 1
375 508 1
375 509 1
375 525 1
375 530 1
375 534 1
375 535 1
375 536 1
375 549 1
375 567 1
375 569 1
375 570 1
375 571 1
375 572 1
375 574 1
375 578 1
375 580 1
375 589 1
375 596 1
375 600 1
375 601 1
375 609 1
375 613 1
375 617 1
375 618 1
375 621 1
375 630 1
375 632 1
375 639 1
375 640 1
375 642 1
375 645 1
375 654 1
375 660 1
375 662 1
375 663 1
375 664 1
375 668 1
375 669 1
375 680 1
375 687 1
375 696 1
376 4 1
376 13 1
376 16 1
376 17 1
376 21 1
376 27 1
376 30 1
376 31 1
376 54 1
376 58 1
376 60 1
376 67 1
376 70 1
376 76 1
376 82 1
376 83 1
376 87 1
376 90 1
376 91 1
376 101 1
376 113 1
376 115 1
376 120 1
376 123 1
376 125 1
376 127 1
376 135 1
376 148 1
376 154 1
376 169 1
376 173 1
376 190 1
376 193 1
376 198 1
376 199 1
376 201 1
376 207 1
376 213 1
376 226 1
376 230 1
376 240 1
376 244 1
376 245 1
376 248 1
376 250 1
376 252 1
376 256 1
376 260 1
376 262 1
376 263 1
376 267 1
376 268 1
376 270 1
376 274 1
376 278 1
376 279 1
376 280 1
376 286 1
376 288 1
376 290 1
376 296 1
376 307 1
376 327 1
376 328 1
376 331 1
376 335 1
376 338 1
376 344 1
376 348 1
376 351 1
376 357 1
376 359 1
376 360 1
376 362 1
376 369 1
376 374 1
376 377 1
376 387 1
376 389 1
376 396 1
376 402 1
376 409 1
376 410 1
376 411 1
376 415 1
376 418 1
376 421 1
376 423 1
376 428 1
376 429 1
376 437 1
376 441 1
376 452 1
376 459 1
376 461 1
376 465 1
376 473 1
376 475 1
376 477 1
376 479 1
376 481 1
376 483 1
376 484 1
376 485 1
376 488 1
376 491 1
376 500 1
376 503 1
376 505 1
376 526 1
376 536 1
376 537 1
376 541 1
376 545 1
376 552 1
376 574 1
376 582 1
376 584 1
376 590 1
376 598 1
376 606 1
376 608 1
376 626 1
376 629 1
376 637 1
376 638 1
376 639 1
376 659 1
376 662 1
376 666 1
376 669 1
376 677 1
376 679 1
376 680 1
376 683 1
376 687 1
376 688 1
376 689 1
376 690 1
376 693 1
377 8 1
377 56 1
377 60 1
377 66 1
377 71 1
377 73 1
377 75 1
377 85 1
377 98 1
377 99 1
377 110 1
377 114 1
377 118 1
377 133 1
377 138 1
377 139 1
377 142 1
377 147 1
377 156 1
377 158 1
377 165 1
377 167 1
377 171 1
377 201 1
377 205 1
377 229 1
377 230 1
377 234 1
377 235 1
377 236 1
377 238 1
377 242 1
377 252 1
377 254 1
377 257 1
377 259 1
377 262 1
377 268 1
377 273 1
377 282 1
377 285 1
377 310 1
377 316 1
377 324 1
377 325 1
377 326 1
377 327 1
377 328 1
377 334 1
377 338 1
377 344 1
377 347 1
377 361 1
377 362 1
377 369 1
377 370 1
377 373 1
377 376 1
377 384 1
377 386 1
377 388 1
377 393 1
377 401 1
377 402 1
377 404 1
377 405 1
377 411 1
377 412 1
377 422 1
377 424 1
377 425 1
377 426 1
377 429 1
377 435 1
377 436 1
377 441 1
377 442 1
377 443 1
377 447 1
377 449 1
377 450 1
377 456 1
377 461 1
377 465 1
377 475 1
377 481 1
377 486 1
377 489 1
377 492 1
377 500 1
377 501 1
377 503 1
377 527 1
377 528 1
377 536 1
377 537 1
377 540 1
377 544 1
377 545 1
377 546 1
377 547 1
377 552 1
377 559 1
377 563 1
377 570 1
377 579 1
377 581 1
377 582 1
377 585 1
377 592 1
377 600 1
377 604 1
377 611 1
377 615 1
377 625 1
377 626 1
377 630 1
377 632 1
377 634 1
377 637 1
377 642 1
377 644 1
377 645 1
377 648 1
377 650 1
377 651 1
377 652 1
377 654 1
377 659 1
377 663 1
377 671 1
377 673 1
377 676 1
377 680 1
377 682 1
377 692 1
378 9 1
378 13 1
378 14 1
378 19 1
378 26 1
378 29 1
378 43 1
378 47 1
378 48 1
378 60 1
378 77 1
378 79 1
378 84 1
378 88 1
378 90 1
378 104 1
378 106 1
378 115 1
378 121 1
378 129 1
378 134 1
378 139 1
378 142 1
378 144 1
378 147 1
378 155 1
378 156 1
378 157 1
378 165 1
378 168 1
378 171 1
378 175 1
378 177 1
378 181 1
378 183 1
378 192 1
378 193 1
378 211 1
378 214 1
378 219 1
378 230 1
378 232 1
378 243 1
378 248 1
378 253 1
378 260 1
378 278 1
378 284 1
378 286 1
378 288 1
378 290 1
378 293 1
378 296 1
378 313 1
378 314 1
378 317 1
378 329 1
378 331 1
378 333 1
378 334 1
378 338 1
378 339 1
378 352 1
378 362 1
378 363 1
378 369 1
378 388 1
378 390 1
378 403 1
378 405 1
378 410 1
378 414 1
378 428 1
378 429 1
378 434 1
378 436 1
378 437 1
378 438 1
378 439 1
378 447 1
378 452 1
378 456 1
378 459 1
378 466 1
378 471 1
378 473 1
378 480 1
378 493 1
378 498 1
378 500 1
378 506 1
378 508 1
378 511 1
378 513 1
378 523 1
378 528 1
378 529 1
378 535 1
378 538 1
378 540 1
378 543 1
378 544 1
378 545 1
378 548 1
378 554 1
378 558 1
378 561 1
378 562 1
378 564 1
378 571 1
378 572 1
378 578 1
378 583 1
378 584 1
378 585 1
378 603 1
378 604 1
378 609 1
378 615 1
378 619 1
378 622 1
378 630 1
378 634 1
378 635 1
378 640 1
378 641 1
378 642 1
378 644 1
378 657 1
378 662 1
378 665 1
378 666 1
378 668 1
378 675 1
378 680 1
378 681 1
378 688 1
378 699 1
379 3 1
379 4 1
379 5 1
379 8 1
379 9 1
379 13 1
379 14 1
379 19 1
379 26 1
379 27 1
379 36 1
379 40 1
379 48 1
379 51 1
379 55 1
379 57 1
379 66 1
379 85 1
379 92 1
379 97 1
379 99 1
379 103 1
379 104 1
379 107 1
379 118 1
379 124 1
379 125 1
379 126 1
379 140 1
379 148 1
379 164 1
379 170 1
379 174 1
379 183 1
379 184 1
379 186 1
379 187 1
379 196 1
379 210 1
379 211 1
379 214 1
379 215 1
379 221 1
379 226 1
379 228 1
379 233 1
379 234 1
379 237 1
379 241 1
379 245 1
379 257 1
379 259 1
379 260 1
379 262 1
379 276 1
379 285 1
379 287 1
379 291 1
379 296 1
379 303 1
379 306 1
379 312 1
379 316 1
379 337 1
379 338 1
379 341 1
379 342 1
379 343 1
379 345 1
379 346 1
379 347 1
379 352 1
379 357 1
379 360 1
379 363 1
379 364 1
379 368 1
379 385 1
379 390 1
379 396 1
379 399 1
379 402 1
379 407 1
379 408 1
379 414 1
379 419 1
379 425 1
379 435 1
379 444 1
379 446 1
379 453 1
379 455 1
379 456 1
379 469 1
379 473 1
379 474 1
379 476 1
379 478 1
379 480 1
379 492 1
379 500 1
379 506 1
379 511 1
379 514 1
379 516 1
379 533 1
379 537 1
379 541 1
379 543 1
379 548 1
379 555 1
379 581 1
379 583 1
379 587 1
379 590 1
379 593 1
379 595 1
379 606 1
379 620 1
379 622 1
379 623 1
379 626 1
379 627 1
379 636 1
379 637 1
379 639 1
379 644 1
379 655 1
379 657 1
379 660 1
379 661 1
379 663 1
379 674 1
379 678 1
379 682 1
379 684 1
379 685 1
379 687 1
379 690 1
379 694 1
380 2 1
380 6 1
380 7 1
380 8 1
380 9 1
380 10 1
380 18 1
380 26 1
380 43 1
380 51 1
380 52 1
380 54 1
380 55 1
380 63 1
380 71 1
380 78 1
380 82 1
380 83 1
380 91 1
380 92 1
380 107 1
380 108 1
380 109 1
380 116 1
380 119 1
380 124 1
380 126 1
380 130 1
380 134 1
380 139 1
380 142 1
380 147 1
380 149 1
380 150 1
380 153 1
380 160 1
380 161 1
380 162 1
380 163 1
380 164 1
380 166 1
380 179 1
380 188 1
380 189 1
380 196 1
380 202 1
380 204 1
380 211 1
380 214 1
380 232 1
380 235 1
380 241 1
380 253 1
380 255 1
380 256 1
380 259 1
380 261 1
380 263 1
380 265 1
380 274 1
380 280 1
380 283 1
380 285 1
380 287 1
380 299 1
380 306 1
380 310 1
380 312 1
380 315 1
380 321 1
380 324 1
380 330 1
380 352 1
380 357 1
380 363 1
380 366 1
380 371 1
380 387 1
380 389 1
380 390 1
380 392 1
380 396 1
380 397 1
380 400 1
380 410 1
380 411 1
380 414 1
380 417 1
380 422 1
380 424 1
380 426 1
380 437 1
380 440 1
380 446 1
380 450 1
380 451 1
380 453 1
380 455 1
380 457 1
380 458 1
380 463 1
380 470 1
380 478 1
380 485 1
380 486 1
380 494 1
380 501 1
380 502 1
380 505 1
380 506 1
380 511 1
380 513 1
380 534 1
380 546 1
380 560 1
380 562 1
380 563 1
380 570 1
380 572 1
380 574 1
380 577 1
380 578 1
380 588 1
380 599 1
380 603 1
380 608 1
380 615 1
380 617 1
380 619 1
380 624 1
380 628 1
380 632 1
380 644 1
380 645 1
380 649 1
380 652 1
380 653 1
380 654 1
380 655 1
380 658 1
380 663 1
380 669 1
380 676 1
380 678 1
380 683 1
380 687 1
380 691 1
380 695 1
380 696 1
380 700 1
381 2 1
381 4 1
381 5 1
381 9 1
381 12 1
381 13 1
381 14 1
381 17 1
381 19 1
381 23 1
381 30 1
381 31 1
381 34 1
381 35 1
381 41 1
381 47 1
381 48 1
381 50 1
381 51 1
381 53 1
381 54 1
381 59 1
381 68 1
381 69 1
381 74 1
381 75 1
381 78 1
381 81 1
381 83 1
381 85 1
381 87 1
381 88 1
381 93 1
381 100 1
381 105 1
381 109 1
381 119 1
381 124 1
381 133 1
381 139 1
381 147 1
381 148 1
381 153 1
381 158 1
381 174 1
381 179 1
381 184 1
381 194 1
381 201 1
381 202 1
381 210 1
381 219 1
381 221 1
381 223 1
381 226 1
381 227 1
381 230 1
381 236 1
381 237 1
381 243 1
381 248 1
381 250 1
381 251 1
381 257 1
381 262 1
381 266 1
381 283 1
381 288 1
381 291 1
381 293 1
381 294 1
381 297 1
381 304 1
381 305 1
381 312 1
381 313 1
381 318 1
381 320 1
381 330 1
381 331 1
381 332 1
381 341 1
381 348 1
381 354 1
381 360 1
381 361 1
381 365 1
381 370 1
381 371 1
381 372 1
381 373 1
381 383 1
381 389 1
381 390 1
381 393 1
381 398 1
381 406 1
381 408 1
381 409 1
381 410 1
381 414 1
381 415 1
381 424 1
381 426 1
381 442 1
381 443 1
381 451 1
381 457 1
381 461 1
381 462 1
381 469 1
381 471 1
381 496 1
381 502 1
381 511 1
381 525 1
381 531 1
381 535 1
381 540 1
381 544 1
381 545 1
381 550 1
381 556 1
381 559 1
381 561 1
381 566 1
381 571 1
381 572 1
381 577 1
381 589 1
381 595 1
381 605 1
381 615 1
381 616 1
381 623 1
381 627 1
381 632 1
381 640 1
381 648 1
381 650 1
381 651 1
381 652 1
381 660 1
381 664 1
381 665 1
381 675 1
381 683 1
381 685 1
381 686 1
381 687 1
381 697 1
382 1 1
382 9 1
382 13 1
382 18 1
382 20 1
382 25 1
382 29 1
382 43 1
382 47 1
382 51 1
382 55 1
382 60 1
382 61 1
382 64 1
382 68 1
382 81 1
382 83 1
382 86 1
382 91 1
382 100 1
382 103 1
382 111 1
382 123 1
382 137 1
382 142 1
382 143 1
382 150 1
382 166 1
382 169 1
382 173 1
382 182 1
382 183 1
382 187 1
382 197 1
382 201 1
382 203 1
382 208 1
382 227 1
382 245 1
382 248 1
382 262 1
382 263 1
382 264 1
382 265 1
382 266 1
382 273 1
382 280 1
382 284 1
382 287 1
382 290 1
382 300 1
382 308 1
382 310 1
382 318 1
382 321 1
382 322 1
382 323 1
382 324 1
382 328 1
382 332 1
382 335 1
382 336 1
382 341 1
382 342 1
382 343 1
382 344 1
382 355 1
382 369 1
382 383 1
382 386 1
382 389 1
382 391 1
382 398 1
382 406 1
382 415 1
382 417 1
382 428 1
382 430 1
382 433 1
382 445 1
382 446 1
382 447 1
382 449 1
382 454 1
382 455 1
382 464 1
382 469 1
382 476 1
382 492 1
382 493 1
382 495 1
382 498 1
382 505 1
382 513 1
382 523 1
382 524 1
382 528 1
382 532 1
382 534 1
382 540 1
382 541 1
382 542 1
382 543 1
382 544 1
382 549 1
382 551 1
382 552 1
382 556 1
382 558 1
382 559 1
382 560 1
382 565 1
382 570 1
382 573 1
382 584 1
382 598 1
382 602 1
382 605 1
382 607 1
382 619 1
382 620 1
382 621 1
382 626 1
382 634 1
382 644 1
382 659 1
382 669 1
382 677 1
382 679 1
382 686 1
382 693 1
382 697 1
383 8 1
383 14 1
383 22 1
383 23 1
383 30 1
383 47 1
383 48 1
383 58 1
383 67 1
383 71 1
383 74 1
383 83 1
383 85 1
383 102 1
383 104 1
383 111 1
383 112 1
383 113 1
383 120 1
383 123 1
383 126 1
383 135 1
383 139 1
383 140 1
383 144 1
383 148 1
383 149 1
383 150 1
383 152 1
383 156 1
383 157 1
383 160 1
383 171 1
383 176 1
383 186 1
383 197 1
383 201 1
383 206 1
383 211 1
383 212 1
383 220 1
383 221 1
383 222 1
383 225 1
383 234 1
383 248 1
383 254 1
383 258 1
383 265 1
383 266 1
383 281 1
383 286 1
383 289 1
383 293 1
383 305 1
383 313 1
383 316 1
383 328 1
383 339 1
383 342 1
383 345 1
383 352 1
383 354 1
383 358 1
383 375 1
383 381 1
383 382 1
383 388 1
383 392 1
383 394 1
383 400 1
383 402 1
383 410 1
383 411 1
383 418 1
383 419 1
383 420 1
383 426 1
383 429 1
383 431 1
383 435 1
383 437 1
383 444 1
383 449 1
383 450 1
383 453 1
383 455 1
383 456 1
383 459 1
383 466 1
383 472 1
383 474 1
383 480 1
383 482 1
383 488 1
383 492 1
383 500 1
383 506 1
383 507 1
383 509 1
383 517 1
383 522 1
383 526 1
383 527 1
383 529 1
383 530 1
383 532 1
383 533 1
383 542 1
383 544 1
383 548 1
383 549 1
383 550 1
383 551 1
383 552 1
383 555 1
383 556 1
383 560 1
383 568 1
383 570 1
383 573 1
383 582 1
383 588 1
383 593 1
383 594 1
383 599 1
383 602 1
383 604 1
383 605 1
383 609 1
383 612 1
383 620 1
383 624 1
383 626 1
383 628 1
383 635 1
383 640 1
383 641 1
383 648 1
383 665 1
383 667 1
383 671 1
383 676 1
383 680 1
383 683 1
383 696 1
383 700 1
384 4 1
384 8 1
384 15 1
384 16 1
384 21 1
384 24 1
384 42 1
384 48 1
384 51 1
384 56 1
384 58 1
384 63 1
384 67 1
384 73 1
384 74 1
384 77 1
384 80 1
384 91 1
384 95 1
384 100 1
384 103 1
384 106 1
384 107 1
384 108 1
384 115 1
384 116 1
384 124 1
384 126 1
384 133 1
384 136 1
384 143 1
384 147 1
384 150 1
384 152 1
384 162 1
384 163 1
384 164 1
384 165 1
384 171 1
384 173 1
384 175 1
384 179 1
384 186 1
384 198 1
384 205 1
384 209 1
384 214 1
384 215 1
384 231 1
384 233 1
384 236 1
384 248 1
384 250 1
384 256 1
384 261 1
384 262 1
384 268 1
384 272 1
384 277 1
384 278 1
384 288 1
384 293 1
384 303 1
384 304 1
384 308 1
384 311 1
384 318 1
384 322 1
384 332 1
384 339 1
384 341 1
384 351 1
384 365 1
384 371 1
384 374 1
384 377 1
384 390 1
384 391 1
384 401 1
384 408 1
384 409 1
384 414 1
384 417 1
384 418 1
384 427 1
384 431 1
384 435 1
384 437 1
384 440 1
384 447 1
384 449 1
384 462 1
384 466 1
384 474 1
384 485 1
384 488 1
384 499 1
384 501 1
384 511 1
384 514 1
384 517 1
384 519 1
384 523 1
384 525 1
384 531 1
384 532 1
384 535 1
384 536 1
384 542 1
384 544 1
384 546 1
384 552 1
384 556 1
384 557 1
384 559 1
384 560 1
384 563 1
384 573 1
384 578 1
384 581 1
384 583 1
384 585 1
384 587 1
384 591 1
384 593 1
384 595 1
384 598 1
384 602 1
384 605 1
384 617 1
384 632 1
384 641 1
384 656 1
384 658 1
384 661 1
384 673 1
384 676 1
384 679 1
384 682 1
384 697 1
385 5 1
385 13 1
385 26 1
385 34 1
385 36 1
385 43 1
385 46 1
385 47 1
385 54 1
385 56 1
385 65 1
385 66 1
385 67 1
385 70 1
385 76 1
385 77 1
385 78 1
385 84 1
385 85 1
385 96 1
385 99 1
385 102 1
385 105 1
385 106 1
385 107 1
385 114 1
385 115 1
385 118 1
385 119 1
385 123 1
385 124 1
385 130 1
385 131 1
385 142 1
385 146 1
385 148 1
385 151 1
385 152 1
385 160 1
385 163 1
385 164 1
385 170 1
385 175 1
385 180 1
385 185 1
385 191 1
385 193 1
385 206 1
385 211 1
385 215 1
385 216 1
385 220 1
385 232 1
385 235 1
385 240 1
385 244 1
385 246 1
385 247 1
385 250 1
385 255 1
385 257 1
385 258 1
385 260 1
385 261 1
385 263 1
385 270 1
385 275 1
385 278 1
385 281 1
385 287 1
385 307 1
385 310 1
385 311 1
385 312 1
385 318 1
385 321 1
385 322 1
385 338 1
385 345 1
385 351 1
385 352 1
385 358 1
385 375 1
385 379 1
385 386 1
385 388 1
385 389 1
385 396 1
385 401 1
385 403 1
385 410 1
385 414 1
385 416 1
385 426 1
385 439 1
385 441 1
385 442 1
385 447 1
385 452 1
385 469 1
385 473 1
385 479 1
385 482 1
385 488 1
385 496 1
385 507 1
385 509 1
385 514 1
385 529 1
385 531 1
385 533 1
385 545 1
385 547 1
385 559 1
385 568 1
385 574 1
385 583 1
385 585 1
385 589 1
385 605 1
385 606 1
385 613 1
385 621 1
385 622 1
385 628 1
385 650 1
385 656 1
385 682 1
385 683 1
386 5 1
386 8 1
386 9 1
386 12 1
386 15 1
386 17 1
386 18 1
386 21 1
386 32 1
386 40 1
386 41 1
386 43 1
386 46 1
386 55 1
386 67 1
386 73 1
386 76 1
386 86 1
386 88 1
386 90 1
386 92 1
386 95 1
386 96 1
386 102 1
386 111 1
386 114 1
386 119 1
386 122 1
386 129 1
386 130 1
386 140 1
386 151 1
386 152 1
386 163 1
386 172 1
386 175 1
386 176 1
386 179 1
386 181 1
386 187 1
386 192 1
386 196 1
386 208 1
386 215 1
386 225 1
386 227 1
386 229 1
386 234 1
386 239 1
386 242 1
386 245 1
386 255 1
386 262 1
386 264 1
386 280 1
386 282 1
386 284 1
386 286 1
386 290 1
386 294 1
386 298 1
386 303 1
386 304 1
386 311 1
386 314 1
386 321 1
386 327 1
386 336 1
386 338 1
386 341 1
386 354 1
386 359 1
386 365 1
386 368 1
386 369 1
386 377 1
386 382 1
386 385 1
386 393 1
386 403 1
386 419 1
386 430 1
386 434 1
386 438 1
386 439 1
386 450 1
386 459 1
386 463 1
386 465 1
386 479 1
386 486 1
386 489 1
386 492 1
386 504 1
386 505 1
386 507 1
386 513 1
386 517 1
386 523 1
386 525 1
386 528 1
386 531 1
386 535 1
386 543 1
386 544 1
386 545 1
386 548 1
386 558 1
386 563 1
386 566 1
386 570 1
386 577 1
386 580 1
386 581 1
386 582 1
386 584 1
386 585 1
386 587 1
386 591 1
386 597 1
386 606 1
386 608 1
386 610 1
386 611 1
386 612 1
386 615 1
386 623 1
386 627 1
386 628 1
386 647 1
386 653 1
386 655 1
386 658 1
386 660 1
386 664 1
386 666 1
386 676 1
386 677 1
386 678 1
387 5 1
387 11 1
387 13 1
387 14 1
387 20 1
387 22 1
387 24 1
387 26 1
387 27 1
387 33 1
387 40 1
387 43 1
387 45 1
387 46 1
387 59 1
387 61 1
387 73 1
387 74 1
387 77 1
387 86 1
387 91 1
387 100 1
387 106 1
387 108 1
387 109 1
387 112 1
387 119 1
387 120 1
387 124 1
387 139 1
387 141 1
387 143 1
387 148 1
387 149 1
387 151 1
387 156 1
387 157 1
387 159 1
387 164 1
387 172 1
387 173 1
387 175 1
387 177 1
387 196 1
387 202 1
387 206 1
387 228 1
387 235 1
387 236 1
387 240 1
387 241 1
387 242 1
387 243 1
387 245 1
387 247 1
387 248 1
387 251 1
387 256 1
387 262 1
387 263 1
387 265 1
387 268 1
387 270 1
387 271 1
387 274 1
387 285 1
387 295 1
387 297 1
387 298 1
387 300 1
387 305 1
387 316 1
387 318 1
387 319 1
387 326 1
387 328 1
387 332 1
387 340 1
387 347 1
387 348 1
387 355 1
387 359 1
387 365 1
387 370 1
387 375 1
387 376 1
387 380 1
387 391 1
387 395 1
387 397 1
387 398 1
387 404 1
387 405 1
387 407 1
387 415 1
387 417 1
387 422 1
387 431 1
387 432 1
387 444 1
387 446 1
387 451 1
387 452 1
387 460 1
387 477 1
387 482 1
387 486 1
387 497 1
387 499 1
387 500 1
387 514 1
387 519 1
387 522 1
387 526 1
387 529 1
387 531 1
387 533 1
387 539 1
387 544 1
387 549 1
387 565 1
387 574 1
387 577 1
387 578 1
387 580 1
387 592 1
387 593 1
387 595 1
387 604 1
387 606 1
387 610 1
387 611 1
387 613 1
387 614 1
387 616 1
387 623 1
387 624 1
387 635 1
387 641 1
387 642 1
387 644 1
387 649 1
387 652 1
387 653 1
387 663 1
387 666 1
387 670 1
387 671 1
387 672 1
387 674 1
387 679 1
387 683 1
387 685 1
388 9 1
388 11 1
388 13 1
388 15 1
388 18 1
388 23 1
388 24 1
388 29 1
388 30 1
388 34 1
388 36 1
388 40 1
388 42 1
388 46 1
388 48 1
388 49 1
388 52 1
388 54 1
388 55 1
388 57 1
388 59 1
388 64 1
388 65 1
388 67 1
388 70 1
388 71 1
388 79 1
388 85 1
388 86 1
388 91 1
388 93 1
388 95 1
388 97 1
388 98 1
388 100 1
388 103 1
388 115 1
388 119 1
388 126 1
388 130 1
388 131 1
388 134 1
388 141 1
388 144 1
388 156 1
388 161 1
388 166 1
388 172 1
388 177 1
388 183 1
388 185 1
388 187 1
388 193 1
388 194 1
388 207 1
388 209 1
388 210 1
388 212 1
388 214 1
388 216 1
388 219 1
388 224 1
388 235 1
388 236 1
388 237 1
388 250 1
388 253 1
388 255 1
388 256 1
388 257 1
388 258 1
388 260 1
388 264 1
388 267 1
388 273 1
388 275 1
388 281 1
388 282 1
388 284 1
388 288 1
388 295 1
388 305 1
388 306 1
388 309 1
388 313 1
388 318 1
388 320 1
388 326 1
388 331 1
388 343 1
388 355 1
388 363 1
388 368 1
388 373 1
388 377 1
388 378 1
388 383 1
388 385 1
388 389 1
388 390 1
388 392 1
388 399 1
388 401 1
388 406 1
388 417 1
388 420 1
388 421 1
388 426 1
388 427 1
388 429 1
388 435 1
388 443 1
388 444 1
388 452 1
388 453 1
388 454 1
388 458 1
388 460 1
388 467 1
388 471 1
388 475 1
388 479 1
388 482 1
388 490 1
388 505 1
388 512 1
388 514 1
388 524 1
388 530 1
388 534 1
388 540 1
388 549 1
388 554 1
388 558 1
388 561 1
388 568 1
388 569 1
388 570 1
388 579 1
388 586 1
388 587 1
388 588 1
388 596 1
388 622 1
388 623 1
388 631 1
388 635 1
388 637 1
388 643 1
388 645 1
388 650 1
388 654 1
388 658 1
388 659 1
388 662 1
388 666 1
388 669 1
388 671 1
388 681 1
388 687 1
388 688 1
388 692 1
388 694 1
388 698 1
389 4 1
389 6 1
389 7 1
389 10 1
389 13 1
389 16 1
389 18 1
389 22 1
389 23 1
389 28 1
389 31 1
389 32 1
389 33 1
389 37 1
389 40 1
389 45 1
389 49 1
389 52 1
389 53 1
389 54 1
389 55 1
389 57 1
389 68 1
389 81 1
389 90 1
389 91 1
389 93 1
389 95 1
389 96 1
389 97 1
389 99 1
389 132 1
389 133 1
389 134 1
389 137 1
389 138 1
389 139 1
389 142 1
389 164 1
389 175 1
389 180 1
389 181 1
389 182 1
389 194 1
389 206 1
389 209 1
389 210 1
389 215 1
389 219 1
389 220 1
389 222 1
389 223 1
389 231 1
389 243 1
389 245 1
389 249 1
389 257 1
389 267 1
389 268 1
389 269 1
389 270 1
389 274 1
389 278 1
389 283 1
389 289 1
389 293 1
389 294 1
389 297 1
389 301 1
389 315 1
389 325 1
389 327 1
389 328 1
389 329 1
389 343 1
389 349 1
389 351 1
389 360 1
389 370 1
389 371 1
389 376 1
389 380 1
389 381 1
389 382 1
389 385 1
389 388 1
389 391 1
389 397 1
389 410 1
389 417 1
389 419 1
389 420 1
389 422 1
389 428 1
389 433 1
389 445 1
389 449 1
389 453 1
389 457 1
389 465 1
389 467 1
389 474 1
389 481 1
389 484 1
389 508 1
389 513 1
389 517 1
389 523 1
389 526 1
389 531 1
389 532 1
389 546 1
389 547 1
389 564 1
389 565 1
389 581 1
389 585 1
389 587 1
389 589 1
389 594 1
389 598 1
389 613 1
389 618 1
389 627 1
389 628 1
389 629 1
389 630 1
389 631 1
389 634 1
389 642 1
389 646 1
389 650 1
389 664 1
389 667 1
389 679 1
389 687 1
389 691 1
389 697 1
390 2 1
390 6 1
390 11 1
390 22 1
390 23 1
390 24 1
390 35 1
390 37 1
390 40 1
390 42 1
390 48 1
390 51 1
390 75 1
390 77 1
390 80 1
390 82 1
390 83 1
390 84 1
390 86 1
390 92 1
390 94 1
390 108 1
390 110 1
390 113 1
390 121 1
390 129 1
390 131 1
390 142 1
390 144 1
390 151 1
390 154 1
390 155 1
390 171 1
390 172 1
390 196 1
390 205 1
390 211 1
390 219 1
390 220 1
390 221 1
390 226 1
390 228 1
390 231 1
390 234 1
390 240 1
390 242 1
390 251 1
390 256 1
390 266 1
390 270 1
390 271 1
390 279 1
390 290 1
390 295 1
390 299 1
390 300 1
390 301 1
390 309 1
390 311 1
390 313 1
390 314 1
390 317 1
390 321 1
390 323 1
390 325 1
390 326 1
390 333 1
390 343 1
390 344 1
390 346 1
390 347 1
390 349 1
390 353 1
390 360 1
390 363 1
390 368 1
390 370 1
390 372 1
390 378 1
390 379 1
390 380 1
390 381 1
390 384 1
390 388 1
390 393 1
390 397 1
390 401 1
390 403 1
390 410 1
390 419 1
390 420 1
390 426 1
390 429 1
390 430 1
390 431 1
390 435 1
390 436 1
390 437 1
390 442 1
390 443 1
390 446 1
390 452 1
390 453 1
390 455 1
390 458 1
390 470 1
390 491 1
390 497 1
390 500 1
390 501 1
390 505 1
390 512 1
390 518 1
390 520 1
390 523 1
390 525 1
390 533 1
390 534 1
390 538 1
390 546 1
390 561 1
390 568 1
390 574 1
390 576 1
390 581 1
390 585 1
390 586 1
390 597 1
390 610 1
390 613 1
390 619 1
390 630 1
390 638 1
390 642 1
390 647 1
390 652 1
390 655 1
390 656 1
390 658 1
390 683 1
390 686 1
390 690 1
390 695 1
391 1 1
391 4 1
391 6 1
391 10 1
391 11 1
391 15 1
391 16 1
391 29 1
391 32 1
391 40 1
391 43 1
391 44 1
391 45 1
391 46 1
391 49 1
391 58 1
391 60 1
391 63 1
391 66 1
391 68 1
391 69 1
391 83 1
391 84 1
391 88 1
391 94 1
391 99 1
391 108 1
391 113 1
391 116 1
391 125 1
391 133 1
391 135 1
391 139 1
391 147 1
391 148 1
391 149 1
391 151 1
391 153 1
391 158 1
391 161 1
391 162 1
391 167 1
391 168 1
391 173 1
391 186 1
391 187 1
391 200 1
391 201 1
391 202 1
391 204 1
391 206 1
391 208 1
391 230 1
391 231 1
391 232 1
391 238 1
391 242 1
391 243 1
391 251 1
391 253 1
391 255 1
391 260 1
391 268 1
391 275 1
391 286 1
391 287 1
391 292 1
391 294 1
391 326 1
391 332 1
391 336 1
391 345 1
391 352 1
391 355 1
391 360 1
391 364 1
391 374 1
391 375 1
391 382 1
391 384 1
391 387 1
391 389 1
391 396 1
391 397 1
391 408 1
391 412 1
391 418 1
391 420 1
391 436 1
391 461 1
391 474 1
391 475 1
391 476 1
391 482 1
391 485 1
391 486 1
391 492 1
391 493 1
391 501 1
391 503 1
391 505 1
391 507 1
391 521 1
391 533 1
391 534 1
391 536 1
391 552 1
391 555 1
391 567 1
391 571 1
391 575 1
391 576 1
391 577 1
391 578 1
391 581 1
391 588 1
391 607 1
391 610 1
391 614 1
391 615 1
391 616 1
391 627 1
391 629 1
391 635 1
391 636 1
391 639 1
391 669 1
391 675 1
391 677 1
391 678 1
391 691 1
391 699 1
392 2 1
392 6 1
392 10 1
392 11 1
392 16 1
392 17 1
392 37 1
392 52 1
392 54 1
392 56 1
392 62 1
392 80 1
392 89 1
392 92 1
392 93 1
392 96 1
392 102 1
392 108 1
392 113 1
392 114 1
392 116 1
392 118 1
392 122 1
392 126 1
392 130 1
392 135 1
392 140 1
392 144 1
392 145 1
392 146 1
392 150 1
392 156 1
392 163 1
392 164 1
392 177 1
392 181 1
392 182 1
392 187 1
392 190 1
392 192 1
392 196 1
392 203 1
392 204 1
392 222 1
392 224 1
392 227 1
392 236 1
392 237 1
392 242 1
392 248 1
392 253 1
392 258 1
392 264 1
392 283 1
392 284 1
392 289 1
392 291 1
392 294 1
392 295 1
392 304 1
392 313 1
392 321 1
392 330 1
392 333 1
392 336 1
392 341 1
392 345 1
392 347 1
392 360 1
392 362 1
392 371 1
392 380 1
392 383 1
392 388 1
392 398 1
392 399 1
392 401 1
392 403 1
392 404 1
392 405 1
392 406 1
392 414 1
392 418 1
392 421 1
392 425 1
392 427 1
392 428 1
392 430 1
392 436 1
392 462 1
392 466 1
392 477 1
392 490 1
392 491 1
392 493 1
392 497 1
392 498 1
392 503 1
392 509 1
392 512 1
392 519 1
392 520 1
392 530 1
392 534 1
392 536 1
392 538 1
392 540 1
392 542 1
392 550 1
392 551 1
392 554 1
392 564 1
392 573 1
392 575 1
392 577 1
392 579 1
392 581 1
392 582 1
392 584 1
392 586 1
392 588 1
392 592 1
392 599 1
392 600 1
392 602 1
392 606 1
392 613 1
392 617 1
392 625 1
392 631 1
392 633 1
392 641 1
392 644 1
392 654 1
392 659 1
392 661 1
392 662 1
392 665 1
392 674 1
392 680 1
392 686 1
392 689 1
392 693 1
392 695 1
393 2 1
393 4 1
393 6 1
393 10 1
393 17 1
393 22 1
393 24 1
393 29 1
393 37 1
393 40 1
393 54 1
393 57 1
393 63 1
393 64 1
393 65 1
393 68 1
393 72 1
393 73 1
393 75 1
393 76 1
393 82 1
393 87 1
393 88 1
393 89 1
393 100 1
393 106 1
393 111 1
393 116 1
393 120 1
393 121 1
393 127 1
393 128 1
393 129 1
393 138 1
393 144 1
393 154 1
393 168 1
393 174 1
393 176 1
393 184 1
393 185 1
393 189 1
393 190 1
393 199 1
393 200 1
393 202 1
393 220 1
393 222 1
393 225 1
393 227 1
393 231 1
393 234 1
393 236 1
393 238 1
393 247 1
393 250 1
393 252 1
393 253 1
393 263 1
393 267 1
393 288 1
393 303 1
393 304 1
393 308 1
393 317 1
393 323 1
393 327 1
393 329 1
393 332 1
393 337 1
393 340 1
393 354 1
393 363 1
393 366 1
393 374 1
393 375 1
393 377 1
393 381 1
393 386 1
393 390 1
393 407 1
393 410 1
393 421 1
393 425 1
393 426 1
393 436 1
393 438 1
393 451 1
393 452 1
393 454 1
393 469 1
393 476 1
393 481 1
393 485 1
393 490 1
393 491 1
393 493 1
393 498 1
393 501 1
393 508 1
393 515 1
393 519 1
393 524 1
393 530 1
393 531 1
393 533 1
393 535 1
393 548 1
393 558 1
393 572 1
393 577 1
393 583 1
393 584 1
393 586 1
393 587 1
393 588 1
393 589 1
393 590 1
393 593 1
393 597 1
393 599 1
393 600 1
393 602 1
393 609 1
393 611 1
393 621 1
393 623 1
393 624 1
393 654 1
393 659 1
393 660 1
393 669 1
393 685 1
393 692 1
393 697 1
394 5 1
394 7 1
394 8 1
394 13 1
394 16 1
394 18 1
394 22 1
394 24 1
394 39 1
394 46 1
394 49 1
394 55 1
394 56 1
394 58 1
394 61 1
394 64 1
394 76 1
394 80 1
394 82 1
394 84 1
394 93 1
394 96 1
394 106 1
394 107 1
394 122 1
394 138 1
394 140 1
394 145 1
394 147 1
394 148 1
394 153 1
394 154 1
394 159 1
394 163 1
394 167 1
394 176 1
394 178 1
394 179 1
394 184 1
394 188 1
394 192 1
394 196 1
394 197 1
394 211 1
394 212 1
394 214 1
394 222 1
394 223 1
394 229 1
394 232 1
394 240 1
394 245 1
394 255 1
394 257 1
394 261 1
394 262 1
394 263 1
394 275 1
394 277 1
394 278 1
394 281 1
394 289 1
394 292 1
394 296 1
394 299 1
394 304 1
394 305 1
394 307 1
394 318 1
394 320 1
394 321 1
394 325 1
394 326 1
394 327 1
394 330 1
394 335 1
394 338 1
394 342 1
394 345 1
394 347 1
394 349 1
394 351 1
394 352 1
394 353 1
394 356 1
394 357 1
394 364 1
394 369 1
394 373 1
394 383 1
394 398 1
394 402 1
394 403 1
394 410 1
394 414 1
394 415 1
394 418 1
394 424 1
394 429 1
394 431 1
394 433 1
394 435 1
394 436 1
394 439 1
394 444 1
394 467 1
394 471 1
394 472 1
394 475 1
394 478 1
394 479 1
394 481 1
394 487 1
394 489 1
394 498 1
394 503 1
394 505 1
394 512 1
394 517 1
394 530 1
394 533 1
394 534 1
394 535 1
394 536 1
394 538 1
394 541 1
394 543 1
394 547 1
394 556 1
394 565 1
394 575 1
394 584 1
394 588 1
394 590 1
394 596 1
394 601 1
394 616 1
394 620 1
394 624 1
394 627 1
394 631 1
394 632 1
394 661 1
394 680 1
394 682 1
394 690 1
394 696 1
395 10 1
395 13 1
395 16 1
395 18 1
395 23 1
395 33 1
395 39 1
395 44 1
395 60 1
395 72 1
395 77 1
395 82 1
395 93 1
395 95 1
395 99 1
395 122 1
395 123 1
395 126 1
395 131 1
395 134 1
395 139 1
395 143 1
395 146 1
395 164 1
395 165 1
395 175 1
395 176 1
395 179 1
395 181 1
395 184 1
395 186 1
395 191 1
395 195 1
395 203 1
395 206 1
395 217 1
395 221 1
395 229 1
395 237 1
395 246 1
395 247 1
395 251 1
395 255 1
395 256 1
395 274 1
395 275 1
395 283 1
395 301 1
395 302 1
395 304 1
395 305 1
395 311 1
395 315 1
395 317 1
395 318 1
395 320 1
395 322 1
395 329 1
395 332 1
395 333 1
395 343 1
395 352 1
395 354 1
395 363 1
395 371 1
395 387 1
395 408 1
395 409 1
395 410 1
395 412 1
395 418 1
395 420 1
395 437 1
395 451 1
395 473 1
395 475 1
395 479 1
395 483 1
395 498 1
395 504 1
395 512 1
395 514 1
395 526 1
395 528 1
395 530 1
395 533 1
395 541 1
395 544 1
395 546 1
395 554 1
395 566 1
395 567 1
395 576 1
395 582 1
395 584 1
395 585 1
395 586 1
395 591 1
395 595 1
395 598 1
395 600 1
395 605 1
395 609 1
395 614 1
395 617 1
395 627 1
395 630 1
395 631 1
395 637 1
395 646 1
395 652 1
395 655 1
395 656 1
395 675 1
395 681 1
395 690 1
395 697 1
396 7 1
396 14 1
396 23 1
396 24 1
396 29 1
396 35 1
396 45 1
396 47 1
396 56 1
396 66 1
396 67 1
396 68 1
396 70 1
396 74 1
396 81 1
396 82 1
396 88 1
396 102 1
396 108 1
396 112 1
396 114 1
396 124 1
396 131 1
396 133 1
396 153 1
396 157 1
396 160 1
396 165 1
396 166 1
396 176 1
396 181 1
396 182 1
396 191 1
396 194 1
396 199 1
396 202 1
396 204 1
396 215 1
396 235 1
396 240 1
396 243 1
396 255 1
396 257 1
396 259 1
396 261 1
396 267 1
396 276 1
396 284 1
396 287 1
396 291 1
396 292 1
396 297 1
396 299 1
396 303 1
396 317 1
396 323 1
396 326 1
396 327 1
396 337 1
396 340 1
396 346 1
396 355 1
396 356 1
396 358 1
396 360 1
396 362 1
396 371 1
396 372 1
396 376 1
396 379 1
396 380 1
396 385 1
396 391 1
396 402 1
396 406 1
396 411 1
396 414 1
396 415 1
396 417 1
396 425 1
396 426 1
396 437 1
396 438 1
396 439 1
396 443 1
396 446 1
396 451 1
396 454 1
396 465 1
396 475 1
396 477 1
396 481 1
396 482 1
396 483 1
396 486 1
396 487 1
396 488 1
396 490 1
396 491 1
396 494 1
396 500 1
396 515 1
396 517 1
396 519 1
396 524 1
396 525 1
396 528 1
396 535 1
396 558 1
396 560 1
396 561 1
396 565 1
396 567 1
396 568 1
396 570 1
396 576 1
396 577 1
396 578 1
396 582 1
396 583 1
396 587 1
396 590 1
396 600 1
396 609 1
396 625 1
396 628 1
396 636 1
396 637 1
396 646 1
396 655 1
396 664 1
396 667 1
396 669 1
396 675 1
396 678 1
396 691 1
397 3 1
397 10 1
397 11 1
397 12 1
397 13 1
397 20 1
397 30 1
397 31 1
397 32 1
397 41 1
397 42 1
397 44 1
397 46 1
397 55 1
397 57 1
397 60 1
397 62 1
397 65 1
397 67 1
397 69 1
397 82 1
397 86 1
397 99 1
397 100 1
397 116 1
397 119 1
397 125 1
397 127 1
397 131 1
397 139 1
397 144 1
397 146 1
397 149 1
397 156 1
397 158 1
397 159 1
397 160 1
397 161 1
397 166 1
397 169 1
397 175 1
397 176 1
397 190 1
397 192 1
397 193 1
397 213 1
397 214 1
397 216 1
397 221 1
397 224 1
397 227 1
397 229 1
397 234 1
397 240 1
397 243 1
397 244 1
397 246 1
397 247 1
397 256 1
397 258 1
397 260 1
397 262 1
397 265 1
397 273 1
397 277 1
397 281 1
397 282 1
397 283 1
397 298 1
397 307 1
397 311 1
397 314 1
397 323 1
397 336 1
397 339 1
397 343 1
397 344 1
397 352 1
397 357 1
397 360 1
397 366 1
397 367 1
397 370 1
397 371 1
397 372 1
397 380 1
397 387 1
397 389 1
397 390 1
397 391 1
397 400 1
397 404 1
397 406 1
397 421 1
397 426 1
397 431 1
397 432 1
397 435 1
397 438 1
397 442 1
397 450 1
397 451 1
397 457 1
397 463 1
397 464 1
397 467 1
397 471 1
397 500 1
397 513 1
397 514 1
397 518 1
397 527 1
397 528 1
397 531 1
397 545 1
397 549 1
397 550 1
397 551 1
397 553 1
397 565 1
397 580 1
397 583 1
397 585 1
397 600 1
397 605 1
397 606 1
397 609 1
397 610 1
397 613 1
397 639 1
397 647 1
397 655 1
397 660 1
397 664 1
397 666 1
397 669 1
397 672 1
397 674 1
397 677 1
397 681 1
397 683 1
398 18 1
398 21 1
398 26 1
398 31 1
398 74 1
398 81 1
398 85 1
398 94 1
398 97 1
398 99 1
398 100 1
398 108 1
398 110 1
398 111 1
398 114 1
398 115 1
398 118 1
398 125 1
398 137 1
398 138 1
398 141 1
398 151 1
398 153 1
398 155 1
398 157 1
398 158 1
398 161 1
398 167 1
398 171 1
398 172 1
398 189 1
398 190 1
398 196 1
398 198 1
398 201 1
398 203 1
398 207 1
398 211 1
398 216 1
398 220 1
398 221 1
398 223 1
398 229 1
398 235 1
398 238 1
398 244 1
398 256 1
398 260 1
398 264 1
398 266 1
398 269 1
398 270 1
398 277 1
398 283 1
398 292 1
398 298 1
398 323 1
398 326 1
398 336 1
398 337 1
398 339 1
398 340 1
398 349 1
398 354 1
398 365 1
398 370 1
398 372 1
398 381 1
398 382 1
398 387 1
398 392 1
398 394 1
398 410 1
398 419 1
398 438 1
398 442 1
398 447 1
398 448 1
398 454 1
398 459 1
398 467 1
398 469 1
398 470 1
398 475 1
398 478 1
398 492 1
398 495 1
398 496 1
398 497 1
398 509 1
398 511 1
398 512 1
398 515 1
398 517 1
398 522 1
398 525 1
398 528 1
398 531 1
398 533 1
398 557 1
398 563 1
398 568 1
398 569 1
398 571 1
398 576 1
398 583 1
398 584 1
398 587 1
398 596 1
398 598 1
398 610 1
398 618 1
398 619 1
398 622 1
398 638 1
398 639 1
398 646 1
398 656 1
398 662 1
398 670 1
398 683 1
398 687 1
398 692 1
398 694 1
398 700 1
399 1 1
399 5 1
399 8 1
399 16 1
399 22 1
399 23 1
399 29 1
399 38 1
399 49 1
399 50 1
399 55 1
399 56 1
399 57 1
399 63 1
399 64 1
399 74 1
399 90 1
399 100 1
399 103 1
399 104 1
399 107 1
399 119 1
399 122 1
399 126 1
399 133 1
399 140 1
399 141 1
399 152 1
399 158 1
399 175 1
399 182 1
399 184 1
399 186 1
399 200 1
399 203 1
399 230 1
399 246 1
399 248 1
399 250 1
399 254 1
399 260 1
399 261 1
399 265 1
399 273 1
399 275 1
399 284 1
399 292 1
399 293 1
399 295 1
399 299 1
399 305 1
399 309 1
399 319 1
399 320 1
399 339 1
399 341 1
399 344 1
399 352 1
399 354 1
399 361 1
399 365 1
399 368 1
399 370 1
399 374 1
399 379 1
399 388 1
399 392 1
399 404 1
399 434 1
399 435 1
399 442 1
399 444 1
399 446 1
399 450 1
399 455 1
399 460 1
399 462 1
399 466 1
399 473 1
399 482 1
399 483 1
399 484 1
399 487 1
399 488 1
399 489 1
399 500 1
399 505 1
399 509 1
399 510 1
399 520 1
399 522 1
399 536 1
399 548 1
399 557 1
399 563 1
399 565 1
399 572 1
399 575 1
399 582 1
399 585 1
399 589 1
399 591 1
399 610 1
399 623 1
399 624 1
399 628 1
399 630 1
399 634 1
399 639 1
399 641 1
399 643 1
399 649 1
399 657 1
399 659 1
399 661 1
399 665 1
399 668 1
399 670 1
399 675 1
399 678 1
399 679 1
399 683 1
399 695 1
399 699 1
400 6 1
400 10 1
400 17 1
400 21 1
400 22 1
400 27 1
400 32 1
400 34 1
400 38 1
400 39 1
400 40 1
400 45 1
400 56 1
400 58 1
400 62 1
400 84 1
400 91 1
400 95 1
400 97 1
400 99 1
400 102 1
400 105 1
400 111 1
400 112 1
400 121 1
400 122 1
400 126 1
400 129 1
400 130 1
400 136 1
400 139 1
400 142 1
400 159 1
400 165 1
400 167 1
400 171 1
400 176 1
400 178 1
400 184 1
400 189 1
400 191 1
400 219 1
400 220 1
400 222 1
400 228 1
400 245 1
400 250 1
400 251 1
400 253 1
400 255 1
400 260 1
400 267 1
400 278 1
400 279 1
400 283 1
400 293 1
400 302 1
400 304 1
400 308 1
400 312 1
400 323 1
400 325 1
400 338 1
400 344 1
400 345 1
400 346 1
400 347 1
400 351 1
400 352 1
400 357 1
400 368 1
400 372 1
400 380 1
400 383 1
400 397 1
400 403 1
400 411 1
400 412 1
400 413 1
400 423 1
400 427 1
400 437 1
400 452 1
400 455 1
400 456 1
400 465 1
400 468 1
400 469 1
400 470 1
400 472 1
400 477 1
400 489 1
400 498 1
400 501 1
400 504 1
400 506 1
400 507 1
400 528 1
400 532 1
400 533 1
400 534 1
400 537 1
400 540 1
400 542 1
400 543 1
400 546 1
400 548 1
400 551 1
400 556 1
400 558 1
400 564 1
400 569 1
400 574 1
400 576 1
400 577 1
400 587 1
400 590 1
400 594 1
400 599 1
400 603 1
400 607 1
400 620 1
400 621 1
400 623 1
400 628 1
400 634 1
400 636 1
400 638 1
400 643 1
400 650 1
400 651 1
400 652 1
400 654 1
400 664 1
400 665 1
400 668 1
400 670 1
400 676 1
400 679 1
400 680 1
400 686 1
400 692 1
401 8 1
401 14 1
401 31 1
401 43 1
401 55 1
401 60 1
401 63 1
401 65 1
401 72 1
401 74 1
401 75 1
401 76 1
401 78 1
401 82 1
401 83 1
401 86 1
401 88 1
401 92 1
401 104 1
401 107 1
401 108 1
401 110 1
401 116 1
401 118 1
401 124 1
401 131 1
401 135 1
401 141 1
401 145 1
401 149 1
401 157 1
401 158 1
401 161 1
401 178 1
401 181 1
401 182 1
401 187 1
401 197 1
401 207 1
401 221 1
401 227 1
401 230 1
401 241 1
401 242 1
401 249 1
401 252 1
401 254 1
401 257 1
401 265 1
401 266 1
401 269 1
401 276 1
401 281 1
401 282 1
401 285 1
401 295 1
401 296 1
401 301 1
401 306 1
401 307 1
401 318 1
401 319 1
401 325 1
401 326 1
401 329 1
401 331 1
401 337 1
401 338 1
401 346 1
401 348 1
401 355 1
401 364 1
401 372 1
401 374 1
401 377 1
401 384 1
401 385 1
401 388 1
401 390 1
401 392 1
401 402 1
401 406 1
401 407 1
401 408 1
401 423 1
401 429 1
401 440 1
401 442 1
401 443 1
401 444 1
401 446 1
401 450 1
401 453 1
401 454 1
401 459 1
401 467 1
401 472 1
401 477 1
401 480 1
401 481 1
401 489 1
401 493 1
401 495 1
401 498 1
401 505 1
401 524 1
401 528 1
401 531 1
401 548 1
401 549 1
401 560 1
401 561 1
401 569 1
401 585 1
401 593 1
401 596 1
401 597 1
401 600 1
401 602 1
401 613 1
401 629 1
401 641 1
401 650 1
401 661 1
401 662 1
401 663 1
401 672 1
401 677 1
401 678 1
401 696 1
402 2 1
402 3 1
402 9 1
402 13 1
402 21 1
402 23 1
402 32 1
402 35 1
402 40 1
402 45 1
402 47 1
402 52 1
402 57 1
402 63 1
402 67 1
402 78 1
402 81 1
402 88 1
402 89 1
402 92 1
402 102 1
402 105 1
402 113 1
402 123 1
402 126 1
402 132 1
402 136 1
402 158 1
402 174 1
402 178 1
402 183 1
402 191 1
402 201 1
402 202 1
402 206 1
402 220 1
402 230 1
402 236 1
402 239 1
402 252 1
402 254 1
402 255 1
402 256 1
402 257 1
402 259 1
402 262 1
402 266 1
402 276 1
402 278 1
402 285 1
402 286 1
402 295 1
402 297 1
402 302 1
402 303 1
402 308 1
402 312 1
402 328 1
402 329 1
402 330 1
402 334 1
402 340 1
402 341 1
402 342 1
402 345 1
402 351 1
402 352 1
402 353 1
402 359 1
402 361 1
402 364 1
402 367 1
402 369 1
402 374 1
402 375 1
402 376 1
402 377 1
402 379 1
402 383 1
402 394 1
402 396 1
402 401 1
402 409 1
402 428 1
402 432 1
402 439 1
402 440 1
402 441 1
402 446 1
402 447 1
402 448 1
402 454 1
402 455 1
402 457 1
402 463 1
402 469 1
402 473 1
402 478 1
402 482 1
402 493 1
402 496 1
402 503 1
402 509 1
402 513 1
402 516 1
402 522 1
402 525 1
402 535 1
402 540 1
402 542 1
402 543 1
402 545 1
402 547 1
402 548 1
402 553 1
402 558 1
402 559 1
402 562 1
402 566 1
402 569 1
402 575 1
402 576 1
402 579 1
402 584 1
402 587 1
402 595 1
402 597 1
402 600 1
402 601 1
402 602 1
402 604 1
402 611 1
402 617 1
402 619 1
402 624 1
402 627 1
402 629 1
402 635 1
402 640 1
402 643 1
402 645 1
402 646 1
402 647 1
402 658 1
402 661 1
402 662 1
402 667 1
402 668 1
402 674 1
402 684 1
402 689 1
402 695 1
402 696 1
402 698 1
402 699 1
403 5 1
403 6 1
403 9 1
403 35 1
403 38 1
403 40 1
403 45 1
403 47 1
403 48 1
403 49 1
403 55 1
403 71 1
403 86 1
403 96 1
403 100 1
403 108 1
403 111 1
403 112 1
403 118 1
403 121 1
403 123 1
403 125 1
403 143 1
403 158 1
403 161 1
403 163 1
403 168 1
403 170 1
403 172 1
403 174 1
403 175 1
403 185 1
403 187 1
403 188 1
403 192 1
403 194 1
403 196 1
403 198 1
403 205 1
403 207 1
403 222 1
403 227 1
403 231 1
403 232 1
403 238 1
403 267 1
403 271 1
403 289 1
403 298 1
403 301 1
403 308 1
403 313 1
403 318 1
403 326 1
403 336 1
403 337 1
403 338 1
403 341 1
403 355 1
403 358 1
403 360 1
403 361 1
403 366 1
403 374 1
403 375 1
403 378 1
403 385 1
403 386 1
403 390 1
403 392 1
403 394 1
403 400 1
403 406 1
403 413 1
403 419 1
403 421 1
403 426 1
403 429 1
403 431 1
403 444 1
403 447 1
403 448 1
403 457 1
403 461 1
403 462 1
403 470 1
403 476 1
403 477 1
403 480 1
403 484 1
403 485 1
403 493 1
403 495 1
403 497 1
403 498 1
403 503 1
403 507 1
403 516 1
403 527 1
403 529 1
403 531 1
403 536 1
403 537 1
403 540 1
403 550 1
403 559 1
403 562 1
403 566 1
403 573 1
403 577 1
403 582 1
403 583 1
403 584 1
403 590 1
403 600 1
403 604 1
403 605 1
403 615 1
403 616 1
403 618 1
403 620 1
403 621 1
403 625 1
403 631 1
403 633 1
403 639 1
403 645 1
403 647 1
403 655 1
403 656 1
403 659 1
403 661 1
403 666 1
403 674 1
403 679 1
403 684 1
403 686 1
403 694 1
403 695 1
404 5 1
404 8 1
404 10 1
404 11 1
404 14 1
404 19 1
404 28 1
404 36 1
404 37 1
404 40 1
404 41 1
404 42 1
404 48 1
404 52 1
404 58 1
404 61 1
404 67 1
404 68 1
404 70 1
404 73 1
404 76 1
404 90 1
404 94 1
404 95 1
404 97 1
404 103 1
404 105 1
404 111 1
404 123 1
404 124 1
404 128 1
404 129 1
404 132 1
404 136 1
404 137 1
404 138 1
404 141 1
404 150 1
404 155 1
404 163 1
404 180 1
404 182 1
404 201 1
404 204 1
404 219 1
404 231 1
404 233 1
404 240 1
404 241 1
404 253 1
404 254 1
404 257 1
404 259 1
404 261 1
404 264 1
404 266 1
404 268 1
404 280 1
404 282 1
404 283 1
404 289 1
404 293 1
404 296 1
404 297 1
404 298 1
404 300 1
404 301 1
404 312 1
404 315 1
404 319 1
404 328 1
404 331 1
404 332 1
404 338 1
404 349 1
404 355 1
404 362 1
404 372 1
404 377 1
404 387 1
404 392 1
404 397 1
404 399 1
404 405 1
404 409 1
404 414 1
404 420 1
404 425 1
404 428 1
404 436 1
404 443 1
404 457 1
404 461 1
404 463 1
404 464 1
404 473 1
404 475 1
404 487 1
404 490 1
404 491 1
404 497 1
404 504 1
404 507 1
404 511 1
404 512 1
404 516 1
404 523 1
404 528 1
404 537 1
404 545 1
404 549 1
404 550 1
404 560 1
404 568 1
404 571 1
404 572 1
404 574 1
404 577 1
404 580 1
404 581 1
404 593 1
404 595 1
404 607 1
404 615 1
404 618 1
404 624 1
404 649 1
404 652 1
404 662 1
404 671 1
404 673 1
404 674 1
404 676 1
404 683 1
404 690 1
404 696 1
405 6 1
405 9 1
405 14 1
405 15 1
405 22 1
405 37 1
405 38 1
405 42 1
405 43 1
405 49 1
405 63 1
405 64 1
405 65 1
405 67 1
405 70 1
405 71 1
405 74 1
405 76 1
405 77 1
405 89 1
405 94 1
405 95 1
405 97 1
405 101 1
405 102 1
405 116 1
405 117 1
405 119 1
405 122 1
405 123 1
405 128 1
405 136 1
405 138 1
405 139 1
405 146 1
405 147 1
405 152 1
405 153 1
405 155 1
405 160 1
405 165 1
405 166 1
405 169 1
405 181 1
405 183 1
405 185 1
405 188 1
405 199 1
405 203 1
405 205 1
405 206 1
405 207 1
405 214 1
405 220 1
405 224 1
405 227 1
405 238 1
405 242 1
405 246 1
405 248 1
405 250 1
405 264 1
405 266 1
405 273 1
405 274 1
405 280 1
405 284 1
405 286 1
405 297 1
405 298 1
405 304 1
405 312 1
405 317 1
405 320 1
405 326 1
405 331 1
405 346 1
405 348 1
405 355 1
405 358 1
405 365 1
405 377 1
405 378 1
405 387 1
405 392 1
405 404 1
405 409 1
405 410 1
405 422 1
405 424 1
405 426 1
405 429 1
405 436 1
405 440 1
405 441 1
405 448 1
405 449 1
405 455 1
405 461 1
405 481 1
405 492 1
405 493 1
405 497 1
405 503 1
405 505 1
405 507 1
405 514 1
405 517 1
405 521 1
405 524 1
405 546 1
405 550 1
405 551 1
405 552 1
405 554 1
405 561 1
405 562 1
405 563 1
405 568 1
405 572 1
405 574 1
405 582 1
405 608 1
405 612 1
405 614 1
405 615 1
405 616 1
405 627 1
405 633 1
405 638 1
405 642 1
405 643 1
405 646 1
405 666 1
405 670 1
405 672 1
405 680 1
405 684 1
405 700 1
406 2 1
406 7 1
406 9 1
406 14 1
406 27 1
406 28 1
406 42 1
406 43 1
406 44 1
406 49 1
406 64 1
406 71 1
406 75 1
406 76 1
406 82 1
406 87 1
406 94 1
406 95 1
406 107 1
406 118 1
406 130 1
406 133 1
406 136 1
406 142 1
406 148 1
406 155 1
406 157 1
406 163 1
406 169 1
406 173 1
406 185 1
406 191 1
406 196 1
406 201 1
406 214 1
406 216 1
406 217 1
406 230 1
406 231 1
406 243 1
406 244 1
406 245 1
406 249 1
406 257 1
406 260 1
406 265 1
406 271 1
406 274 1
406 277 1
406 279 1
406 281 1
406 290 1
406 296 1
406 302 1
406 304 1
406 306 1
406 308 1
406 315 1
406 325 1
406 329 1
406 340 1
406 344 1
406 346 1
406 364 1
406 365 1
406 370 1
406 371 1
406 381 1
406 382 1
406 388 1
406 392 1
406 396 1
406 397 1
406 401 1
406 403 1
406 420 1
406 422 1
406 423 1
406 431 1
406 433 1
406 434 1
406 435 1
406 444 1
406 447 1
406 456 1
406 457 1
406 463 1
406 468 1
406 470 1
406 479 1
406 482 1
406 487 1
406 493 1
406 494 1
406 500 1
406 508 1
406 509 1
406 513 1
406 514 1
406 520 1
406 523 1
406 529 1
406 532 1
406 540 1
406 542 1
406 544 1
406 550 1
406 563 1
406 565 1
406 566 1
406 568 1
406 571 1
406 578 1
406 587 1
406 590 1
406 597 1
406 601 1
406 607 1
406 610 1
406 618 1
406 620 1
406 624 1
406 629 1
406 634 1
406 650 1
406 655 1
406 658 1
406 669 1
406 672 1
406 674 1
406 683 1
406 698 1
407 2 1
407 5 1
407 27 1
407 31 1
407 35 1
407 46 1
407 48 1
407 52 1
407 56 1
407 72 1
407 78 1
407 85 1
407 86 1
407 88 1
407 90 1
407 95 1
407 101 1
407 116 1
407 120 1
407 126 1
407 133 1
407 135 1
407 139 1
407 144 1
407 147 1
407 148 1
407 156 1
407 163 1
407 170 1
407 173 1
407 178 1
407 181 1
407 182 1
407 195 1
407 208 1
407 209 1
407 211 1
407 215 1
407 217 1
407 220 1
407 222 1
407 229 1
407 231 1
407 235 1
407 236 1
407 239 1
407 243 1
407 245 1
407 266 1
407 268 1
407 271 1
407 272 1
407 278 1
407 280 1
407 282 1
407 285 1
407 286 1
407 292 1
407 293 1
407 317 1
407 318 1
407 321 1
407 325 1
407 338 1
407 340 1
407 341 1
407 343 1
407 348 1
407 350 1
407 351 1
407 352 1
407 368 1
407 369 1
407 375 1
407 379 1
407 387 1
407 393 1
407 401 1
407 409 1
407 414 1
407 422 1
407 424 1
407 433 1
407 434 1
407 440 1
407 472 1
407 484 1
407 485 1
407 486 1
407 490 1
407 491 1
407 494 1
407 497 1
407 500 1
407 505 1
407 509 1
407 514 1
407 519 1
407 531 1
407 534 1
407 536 1
407 539 1
407 542 1
407 547 1
407 552 1
407 553 1
407 554 1
407 555 1
407 570 1
407 574 1
407 575 1
407 578 1
407 585 1
407 595 1
407 597 1
407 612 1
407 618 1
407 620 1
407 621 1
407 633 1
407 639 1
407 642 1
407 649 1
407 650 1
407 653 1
407 654 1
407 657 1
407 660 1
407 674 1
407 676 1
407 677 1
407 679 1
407 683 1
407 687 1
407 695 1
408 9 1
408 11 1
408 12 1
408 17 1
408 27 1
408 36 1
408 48 1
408 54 1
408 55 1
408 60 1
408 63 1
408 64 1
408 65 1
408 76 1
408 77 1
408 79 1
408 85 1
408 86 1
408 98 1
408 102 1
408 104 1
408 110 1
408 111 1
408 120 1
408 123 1
408 128 1
408 137 1
408 139 1
408 155 1
408 159 1
408 170 1
408 171 1
408 174 1
408 177 1
408 183 1
408 203 1
408 204 1
408 212 1
408 224 1
408 229 1
408 233 1
408 234 1
408 235 1
408 237 1
408 244 1
408 253 1
408 265 1
408 267 1
408 269 1
408 271 1
408 273 1
408 275 1
408 281 1
408 286 1
408 293 1
408 294 1
408 307 1
408 309 1
408 314 1
408 319 1
408 323 1
408 325 1
408 333 1
408 341 1
408 344 1
408 345 1
408 349 1
408 354 1
408 355 1
408 361 1
408 362 1
408 364 1
408 365 1
408 370 1
408 375 1
408 379 1
408 381 1
408 384 1
408 391 1
408 395 1
408 401 1
408 418 1
408 419 1
408 425 1
408 426 1
408 435 1
408 451 1
408 458 1
408 463 1
408 464 1
408 472 1
408 474 1
408 483 1
408 492 1
408 501 1
408 504 1
408 505 1
408 506 1
408 509 1
408 514 1
408 516 1
408 520 1
408 521 1
408 530 1
408 536 1
408 545 1
408 548 1
408 552 1
408 556 1
408 558 1
408 560 1
408 561 1
408 566 1
408 568 1
408 574 1
408 575 1
408 584 1
408 586 1
408 587 1
408 594 1
408 598 1
408 603 1
408 612 1
408 632 1
408 638 1
408 652 1
408 653 1
408 656 1
408 664 1
408 665 1
408 675 1
408 676 1
408 682 1
408 689 1
408 691 1
408 695 1
408 698 1
409 12 1
409 14 1
409 16 1
409 18 1
409 21 1
409 22 1
409 25 1
409 29 1
409 38 1
409 41 1
409 47 1
409 52 1
409 58 1
409 63 1
409 64 1
409 66 1
409 83 1
409 85 1
409 86 1
409 88 1
409 90 1
409 92 1
409 93 1
409 97 1
409 111 1
409 115 1
409 121 1
409 122 1
409 152 1
409 168 1
409 171 1
409 175 1
409 181 1
409 187 1
409 206 1
409 211 1
409 213 1
409 219 1
409 228 1
409 239 1
409 246 1
409 248 1
409 249 1
409 255 1
409 261 1
409 273 1
409 277 1
409 279 1
409 287 1
409 290 1
409 292 1
409 293 1
409 294 1
409 298 1
409 304 1
409 306 1
409 310 1
409 315 1
409 327 1
409 334 1
409 336 1
409 338 1
409 340 1
409 345 1
409 349 1
409 358 1
409 365 1
409 368 1
409 376 1
409 381 1
409 384 1
409 395 1
409 402 1
409 404 1
409 405 1
409 407 1
409 415 1
409 426 1
409 441 1
409 445 1
409 448 1
409 449 1
409 456 1
409 461 1
409 467 1
409 473 1
409 500 1
409 508 1
409 510 1
409 512 1
409 518 1
409 521 1
409 522 1
409 526 1
409 527 1
409 540 1
409 544 1
409 550 1
409 554 1
409 557 1
409 561 1
409 562 1
409 564 1
409 565 1
409 566 1
409 569 1
409 571 1
409 583 1
409 585 1
409 586 1
409 596 1
409 597 1
409 601 1
409 603 1
409 604 1
409 607 1
409 621 1
409 626 1
409 628 1
409 632 1
409 635 1
409 637 1
409 640 1
409 648 1
409 650 1
409 653 1
409 654 1
409 682 1
409 684 1
409 686 1
409 690 1
409 700 1
410 1 1
410 2 1
410 8 1
410 9 1
410 14 1
410 21 1
410 25 1
410 26 1
410 31 1
410 32 1
410 40 1
410 43 1
410 50 1
410 51 1
410 52 1
410 53 1
410 54 1
410 56 1
410 57 1
410 68 1
410 71 1
410 75 1
410 85 1
410 90 1
410 95 1
410 102 1
410 103 1
410 106 1
410 107 1
410 108 1
410 110 1
410 124 1
410 129 1
410 136 1
410 137 1
410 138 1
410 140 1
410 149 1
410 154 1
410 160 1
410 161 1
410 166 1
410 172 1
410 178 1
410 187 1
410 193 1
410 201 1
410 202 1
410 206 1
410 216 1
410 217 1
410 225 1
410 227 1
410 237 1
410 242 1
410 243 1
410 247 1
410 248 1
410 256 1
410 259 1
410 263 1
410 264 1
410 271 1
410 277 1
410 285 1
410 293 1
410 295 1
410 299 1
410 300 1
410 308 1
410 315 1
410 324 1
410 332 1
410 336 1
410 340 1
410 342 1
410 345 1
410 347 1
410 349 1
410 351 1
410 359 1
410 367 1
410 369 1
410 371 1
410 376 1
410 378 1
410 380 1
410 381 1
410 383 1
410 385 1
410 389 1
410 390 1
410 393 1
410 394 1
410 395 1
410 398 1
410 405 1
410 412 1
410 413 1
410 421 1
410 425 1
410 427 1
410 431 1
410 433 1
410 438 1
410 447 1
410 452 1
410 455 1
410 457 1
410 461 1
410 473 1
410 474 1
410 490 1
410 492 1
410 496 1
410 498 1
410 507 1
410 509 1
410 520 1
410 526 1
410 530 1
410 532 1
410 534 1
410 537 1
410 539 1
410 551 1
410 555 1
410 559 1
410 561 1
410 563 1
410 565 1
410 567 1
410 570 1
410 571 1
410 586 1
410 596 1
410 620 1
410 625 1
410 626 1
410 631 1
410 635 1
410 641 1
410 643 1
410 644 1
410 646 1
410 662 1
410 665 1
410 666 1
410 668 1
410 674 1
410 677 1
410 679 1
410 690 1
410 692 1
410 693 1
410 695 1
410 697 1
410 698 1
411 1 1
411 4 1
411 11 1
411 15 1
411 27 1
411 34 1
411 43 1
411 46 1
411 47 1
411 49 1
411 53 1
411 57 1
411 59 1
411 69 1
411 89 1
411 95 1
411 106 1
411 108 1
411 110 1
411 115 1
411 126 1
411 127 1
411 128 1
411 133 1
411 137 1
411 139 1
411 143 1
411 144 1
411 146 1
411 150 1
411 170 1
411 177 1
411 185 1
411 195 1
411 197 1
411 203 1
411 206 1
411 207 1
411 209 1
411 217 1
411 218 1
411 223 1
411 233 1
411 234 1
411 239 1
411 249 1
411 254 1
411 258 1
411 262 1
411 263 1
411 264 1
411 270 1
411 279 1
411 282 1
411 289 1
411 290 1
411 292 1
411 295 1
411 302 1
411 313 1
411 318 1
411 319 1
411 324 1
411 328 1
411 330 1
411 332 1
411 333 1
411 345 1
411 346 1
411 347 1
411 348 1
411 349 1
411 352 1
411 355 1
411 358 1
411 360 1
411 369 1
411 371 1
411 376 1
411 377 1
411 380 1
411 383 1
411 396 1
411 400 1
411 412 1
411 420 1
411 425 1
411 429 1
411 431 1
411 432 1
411 433 1
411 437 1
411 444 1
411 452 1
411 453 1
411 457 1
411 458 1
411 465 1
411 466 1
411 467 1
411 471 1
411 479 1
411 483 1
411 484 1
411 487 1
411 490 1
411 492 1
411 493 1
411 494 1
411 495 1
411 499 1
411 507 1
411 509 1
411 510 1
411 512 1
411 516 1
411 518 1
411 519 1
411 524 1
411 531 1
411 536 1
411 537 1
411 544 1
411 546 1
411 552 1
411 556 1
411 557 1
411 567 1
411 571 1
411 579 1
411 580 1
411 587 1
411 591 1
411 614 1
411 615 1
411 625 1
411 626 1
411 632 1
411 634 1
411 636 1
411 637 1
411 644 1
411 645 1
411 646 1
411 647 1
411 648 1
411 655 1
411 656 1
411 668 1
411 689 1
411 694 1
411 696 1
411 698 1
412 5 1
412 15 1
412 20 1
412 21 1
412 24 1
412 27 1
412 30 1
412 35 1
412 36 1
412 48 1
412 52 1
412 56 1
412 60 1
412 61 1
412 63 1
412 70 1
412 73 1
412 77 1
412 88 1
412 90 1
412 104 1
412 112 1
412 113 1
412 115 1
412 117 1
412 118 1
412 124 1
412 125 1
412 129 1
412 143 1
412 146 1
412 150 1
412 151 1
412 153 1
412 155 1
412 157 1
412 158 1
412 159 1
412 164 1
412 165 1
412 170 1
412 192 1
412 196 1
412 200 1
412 211 1
412 223 1
412 227 1
412 234 1
412 236 1
412 237 1
412 239 1
412 240 1
412 246 1
412 249 1
412 257 1
412 259 1
412 269 1
412 275 1
412 284 1
412 286 1
412 287 1
412 289 1
412 291 1
412 292 1
412 294 1
412 301 1
412 309 1
412 314 1
412 318 1
412 325 1
412 327 1
412 329 1
412 339 1
412 347 1
412 350 1
412 355 1
412 361 1
412 367 1
412 369 1
412 377 1
412 391 1
412 395 1
412 400 1
412 410 1
412 411 1
412 413 1
412 414 1
412 427 1
412 428 1
412 433 1
412 436 1
412 437 1
412 440 1
412 445 1
412 447 1
412 448 1
412 458 1
412 459 1
412 477 1
412 482 1
412 484 1
412 490 1
412 491 1
412 503 1
412 511 1
412 525 1
412 536 1
412 538 1
412 556 1
412 559 1
412 560 1
412 561 1
412 563 1
412 567 1
412 574 1
412 579 1
412 585 1
412 587 1
412 596 1
412 598 1
412 599 1
412 604 1
412 605 1
412 608 1
412 610 1
412 627 1
412 629 1
412 634 1
412 642 1
412 644 1
412 654 1
412 656 1
412 659 1
412 661 1
412 663 1
412 666 1
412 668 1
412 669 1
412 670 1
412 675 1
412 678 1
412 679 1
412 684 1
412 685 1
412 690 1
412 698 1
413 13 1
413 19 1
413 20 1
413 29 1
413 32 1
413 35 1
413 37 1
413 41 1
413 46 1
413 47 1
413 55 1
413 56 1
413 57 1
413 58 1
413 73 1
413 81 1
413 95 1
413 97 1
413 99 1
413 107 1
413 109 1
413 117 1
413 122 1
413 138 1
413 140 1
413 143 1
413 152 1
413 156 1
413 158 1
413 160 1
413 166 1
413 184 1
413 189 1
413 191 1
413 193 1
413 206 1
413 209 1
413 214 1
413 227 1
413 236 1
413 237 1
413 239 1
413 242 1
413 245 1
413 248 1
413 250 1
413 253 1
413 258 1
413 270 1
413 285 1
413 292 1
413 296 1
413 298 1
413 303 1
413 304 1
413 309 1
413 314 1
413 317 1
413 319 1
413 324 1
413 344 1
413 350 1
413 370 1
413 372 1
413 373 1
413 374 1
413 400 1
413 403 1
413 410 1
413 412 1
413 414 1
413 416 1
413 417 1
413 425 1
413 426 1
413 427 1
413 428 1
413 433 1
413 442 1
413 443 1
413 450 1
413 451 1
413 455 1
413 463 1
413 464 1
413 465 1
413 466 1
413 467 1
413 472 1
413 473 1
413 480 1
413 485 1
413 491 1
413 496 1
413 497 1
413 498 1
413 519 1
413 521 1
413 524 1
413 527 1
413 533 1
413 538 1
413 540 1
413 543 1
413 546 1
413 556 1
413 559 1
413 578 1
413 579 1
413 581 1
413 591 1
413 592 1
413 596 1
413 599 1
413 606 1
413 619 1
413 623 1
413 628 1
413 631 1
413 639 1
413 653 1
413 655 1
413 656 1
413 658 1
413 660 1
413 662 1
413 675 1
413 678 1
413 679 1
413 684 1
413 690 1
413 699 1
414 6 1
414 15 1
414 25 1
414 30 1
414 36 1
414 41 1
414 42 1
414 60 1
414 64 1
414 69 1
414 71 1
414 74 1
414 75 1
414 77 1
414 89 1
414 90 1
414 91 1
414 92 1
414 98 1
414 109 1
414 112 1
414 120 1
414 123 1
414 125 1
414 126 1
414 144 1
414 150 1
414 151 1
414 157 1
414 162 1
414 168 1
414 169 1
414 170 1
414 171 1
414 173 1
414 179 1
414 180 1
414 181 1
414 184 1
414 185 1
414 205 1
414 215 1
414 220 1
414 221 1
414 223 1
414 230 1
414 239 1
414 240 1
414 252 1
414 267 1
414 273 1
414 278 1
414 282 1
414 286 1
414 287 1
414 289 1
414 292 1
414 302 1
414 303 1
414 305 1
414 311 1
414 313 1
414 315 1
414 316 1
414 318 1
414 319 1
414 323 1
414 328 1
414 331 1
414 332 1
414 334 1
414 335 1
414 337 1
414 342 1
414 343 1
414 345 1
414 349 1
414 356 1
414 357 1
414 358 1
414 364 1
414 374 1
414 378 1
414 379 1
414 380 1
414 381 1
414 384 1
414 385 1
414 392 1
414 394 1
414 396 1
414 404 1
414 407 1
414 412 1
414 413 1
414 419 1
414 441 1
414 446 1
414 451 1
414 453 1
414 458 1
414 461 1
414 465 1
414 468 1
414 471 1
414 474 1
414 475 1
414 484 1
414 491 1
414 505 1
414 517 1
414 521 1
414 536 1
414 539 1
414 542 1
414 545 1
414 549 1
414 552 1
414 561 1
414 564 1
414 572 1
414 573 1
414 580 1
414 589 1
414 596 1
414 598 1
414 602 1
414 604 1
414 616 1
414 619 1
414 621 1
414 629 1
414 638 1
414 639 1
414 641 1
414 644 1
414 650 1
414 656 1
414 661 1
414 663 1
414 669 1
414 672 1
414 688 1
414 698 1
414 699 1
414 700 1
415 1 1
415 3 1
415 8 1
415 12 1
415 23 1
415 27 1
415 30 1
415 32 1
415 40 1
415 47 1
415 55 1
415 58 1
415 64 1
415 65 1
415 72 1
415 84 1
415 87 1
415 89 1
415 91 1
415 92 1
415 93 1
415 97 1
415 98 1
415 103 1
415 106 1
415 107 1
415 108 1
415 109 1
415 117 1
415 119 1
415 124 1
415 128 1
415 131 1
415 134 1
415 137 1
415 138 1
415 140 1
415 143 1
415 147 1
415 153 1
415 155 1
415 157 1
415 172 1
415 182 1
415 199 1
415 200 1
415 227 1
415 228 1
415 232 1
415 240 1
415 246 1
415 248 1
415 253 1
415 254 1
415 256 1
415 261 1
415 278 1
415 283 1
415 285 1
415 288 1
415 293 1
415 296 1
415 302 1
415 304 1
415 306 1
415 307 1
415 309 1
415 319 1
415 324 1
415 331 1
415 334 1
415 336 1
415 351 1
415 354 1
415 359 1
415 362 1
415 367 1
415 376 1
415 381 1
415 382 1
415 387 1
415 394 1
415 396 1
415 409 1
415 417 1
415 421 1
415 423 1
415 424 1
415 432 1
415 434 1
415 435 1
415 439 1
415 445 1
415 446 1
415 450 1
415 464 1
415 466 1
415 475 1
415 476 1
415 481 1
415 506 1
415 514 1
415 522 1
415 528 1
415 530 1
415 531 1
415 532 1
415 537 1
415 545 1
415 549 1
415 551 1
415 553 1
415 554 1
415 561 1
415 566 1
415 567 1
415 570 1
415 573 1
415 574 1
415 578 1
415 579 1
415 582 1
415 591 1
415 593 1
415 599 1
415 602 1
415 610 1
415 613 1
415 615 1
415 624 1
415 629 1
415 633 1
415 637 1
415 647 1
415 651 1
415 658 1
415 661 1
415 662 1
415 663 1
415 668 1
415 669 1
415 674 1
415 693 1
416 3 1
416 10 1
416 18 1
416 19 1
416 20 1
416 24 1
416 35 1
416 38 1
416 39 1
416 42 1
416 44 1
416 58 1
416 63 1
416 66 1
416 69 1
416 73 1
416 87 1
416 89 1
416 98 1
416 103 1
416 106 1
416 114 1
416 119 1
416 121 1
416 124 1
416 128 1
416 132 1
416 138 1
416 140 1
416 141 1
416 152 1
416 154 1
416 155 1
416 158 1
416 165 1
416 175 1
416 176 1
416 183 1
416 185 1
416 186 1
416 192 1
416 195 1
416 211 1
416 213 1
416 219 1
416 241 1
416 250 1
416 251 1
416 252 1
416 253 1
416 255 1
416 257 1
416 267 1
416 274 1
416 275 1
416 277 1
416 291 1
416 296 1
416 300 1
416 304 1
416 306 1
416 309 1
416 310 1
416 311 1
416 313 1
416 320 1
416 332 1
416 336 1
416 339 1
416 345 1
416 346 1
416 351 1
416 353 1
416 355 1
416 357 1
416 366 1
416 373 1
416 385 1
416 413 1
416 417 1
416 422 1
416 426 1
416 427 1
416 434 1
416 441 1
416 448 1
416 453 1
416 455 1
416 459 1
416 463 1
416 470 1
416 475 1
416 476 1
416 477 1
416 483 1
416 493 1
416 522 1
416 528 1
416 535 1
416 544 1
416 549 1
416 551 1
416 556 1
416 562 1
416 565 1
416 568 1
416 573 1
416 581 1
416 588 1
416 591 1
416 594 1
416 603 1
416 609 1
416 615 1
416 628 1
416 632 1
416 633 1
416 642 1
416 648 1
416 664 1
416 676 1
416 683 1
416 686 1
416 687 1
417 1 1
417 6 1
417 7 1
417 17 1
417 18 1
417 21 1
417 25 1
417 26 1
417 32 1
417 34 1
417 39 1
417 42 1
417 44 1
417 47 1
417 49 1
417 51 1
417 54 1
417 59 1
417 63 1
417 74 1
417 87 1
417 95 1
417 98 1
417 104 1
417 106 1
417 111 1
417 114 1
417 117 1
417 122 1
417 131 1
417 141 1
417 144 1
417 147 1
417 157 1
417 168 1
417 171 1
417 172 1
417 173 1
417 187 1
417 189 1
417 195 1
417 196 1
417 198 1
417 203 1
417 204 1
417 208 1
417 210 1
417 214 1
417 215 1
417 220 1
417 228 1
417 229 1
417 241 1
417 249 1
417 250 1
417 253 1
417 256 1
417 259 1
417 263 1
417 265 1
417 268 1
417 269 1
417 272 1
417 275 1
417 276 1
417 282 1
417 285 1
417 289 1
417 290 1
417 294 1
417 297 1
417 303 1
417 305 1
417 307 1
417 312 1
417 323 1
417 329 1
417 340 1
417 349 1
417 360 1
417 363 1
417 371 1
417 380 1
417 382 1
417 384 1
417 387 1
417 388 1
417 389 1
417 396 1
417 413 1
417 415 1
417 416 1
417 420 1
417 424 1
417 427 1
417 428 1
417 433 1
417 446 1
417 454 1
417 460 1
417 462 1
417 472 1
417 478 1
417 483 1
417 487 1
417 491 1
417 493 1
417 494 1
417 495 1
417 496 1
417 503 1
417 506 1
417 507 1
417 515 1
417 521 1
417 522 1
417 523 1
417 525 1
417 526 1
417 528 1
417 530 1
417 531 1
417 532 1
417 537 1
417 540 1
417 543 1
417 547 1
417 550 1
417 553 1
417 556 1
417 557 1
417 560 1
417 563 1
417 569 1
417 570 1
417 586 1
417 589 1
417 593 1
417 597 1
417 604 1
417 607 1
417 609 1
417 611 1
417 612 1
417 613 1
417 622 1
417 623 1
417 626 1
417 628 1
417 657 1
417 661 1
417 666 1
417 683 1
417 687 1
417 688 1
417 689 1
417 690 1
417 692 1
417 698 1
418 5 1
418 6 1
418 9 1
418 15 1
418 17 1
418 20 1
418 21 1
418 28 1
418 31 1
418 35 1
418 36 1
418 38 1
418 39 1
418 43 1
418 54 1
418 55 1
418 66 1
418 69 1
418 77 1
418 80 1
418 82 1
418 90 1
418 92 1
418 105 1
418 108 1
418 110 1
418 126 1
418 129 1
418 134 1
418 136 1
418 144 1
418 147 1
418 149 1
418 151 1
418 153 1
418 158 1
418 165 1
418 172 1
418 175 1
418 181 1
418 186 1
418 191 1
418 196 1
418 205 1
418 207 1
418 209 1
418 214 1
418 217 1
418 218 1
418 223 1
418 233 1
418 247 1
418 255 1
418 259 1
418 260 1
418 262 1
418 269 1
418 271 1
418 276 1
418 284 1
418 287 1
418 288 1
418 290 1
418 293 1
418 297 1
418 300 1
418 304 1
418 307 1
418 323 1
418 325 1
418 338 1
418 341 1
418 344 1
418 354 1
418 355 1
418 356 1
418 361 1
418 364 1
418 365 1
418 367 1
418 373 1
418 376 1
418 383 1
418 384 1
418 391 1
418 392 1
418 394 1
418 395 1
418 408 1
418 428 1
418 430 1
418 434 1
418 438 1
418 446 1
418 447 1
418 448 1
418 453 1
418 455 1
418 457 1
418 458 1
418 462 1
418 472 1
418 477 1
418 479 1
418 488 1
418 489 1
418 490 1
418 492 1
418 495 1
418 506 1
418 508 1
418 513 1
418 518 1
418 523 1
418 530 1
418 534 1
418 540 1
418 544 1
418 546 1
418 548 1
418 550 1
418 558 1
418 580 1
418 584 1
418 588 1
418 604 1
418 607 1
418 639 1
418 648 1
418 675 1
418 678 1
418 693 1
418 695 1
418 700 1
419 5 1
419 12 1
419 18 1
419 21 1
419 28 1
419 30 1
419 31 1
419 57 1
419 67 1
419 76 1
419 78 1
419 80 1
419 89 1
419 102 1
419 108 1
419 119 1
419 126 1
419 128 1
419 144 1
419 147 1
419 148 1
419 156 1
419 157 1
419 158 1
419 159 1
419 163 1
419 167 1
419 169 1
419 170 1
419 173 1
419 189 1
419 212 1
419 220 1
419 225 1
419 227 1
419 242 1
419 256 1
419 257 1
419 258 1
419 259 1
419 263 1
419 265 1
419 284 1
419 287 1
419 306 1
419 311 1
419 312 1
419 318 1
419 322 1
419 323 1
419 324 1
419 326 1
419 331 1
419 337 1
419 353 1
419 357 1
419 360 1
419 379 1
419 383 1
419 386 1
419 389 1
419 390 1
419 398 1
419 403 1
419 408 1
419 414 1
419 424 1
419 426 1
419 432 1
419 436 1
419 441 1
419 445 1
419 455 1
419 457 1
419 460 1
419 463 1
419 466 1
419 472 1
419 480 1
419 484 1
419 488 1
419 490 1
419 491 1
419 503 1
419 504 1
419 505 1
419 514 1
419 515 1
419 517 1
419 518 1
419 519 1
419 525 1
419 529 1
419 532 1
419 536 1
419 542 1
419 546 1
419 553 1
419 554 1
419 557 1
419 567 1
419 588 1
419 599 1
419 612 1
419 613 1
419 614 1
419 618 1
419 619 1
419 624 1
419 631 1
419 656 1
419 659 1
419 660 1
419 663 1
419 667 1
419 684 1
419 687 1
419 692 1
420 12 1
420 18 1
420 27 1
420 30 1
420 33 1
420 34 1
420 36 1
420 37 1
420 43 1
420 47 1
420 51 1
420 52 1
420 55 1
420 73 1
420 78 1
420 81 1
420 88 1
420 95 1
420 103 1
420 104 1
420 107 1
420 112 1
420 115 1
420 116 1
420 120 1
420 124 1
420 127 1
420 135 1
420 136 1
420 145 1
420 149 1
420 156 1
420 158 1
420 161 1
420 166 1
420 167 1
420 168 1
420 170 1
420 174 1
420 177 1
420 181 1
420 185 1
420 195 1
420 202 1
420 210 1
420 211 1
420 216 1
420 219 1
420 227 1
420 228 1
420 234 1
420 239 1
420 240 1
420 242 1
420 251 1
420 252 1
420 255 1
420 270 1
420 273 1
420 287 1
420 293 1
420 300 1
420 307 1
420 308 1
420 310 1
420 321 1
420 326 1
420 335 1
420 337 1
420 344 1
420 346 1
420 353 1
420 357 1
420 364 1
420 365 1
420 372 1
420 375 1
420 383 1
420 388 1
420 389 1
420 390 1
420 391 1
420 395 1
420 404 1
420 406 1
420 411 1
420 417 1
420 422 1
420 427 1
420 429 1
420 441 1
420 443 1
420 446 1
420 449 1
420 456 1
420 458 1
420 473 1
420 479 1
420 480 1
420 487 1
420 490 1
420 497 1
420 505 1
420 510 1
420 512 1
420 520 1
420 526 1
420 527 1
420 536 1
420 545 1
420 549 1
420 550 1
420 554 1
420 557 1
420 558 1
420 559 1
420 563 1
420 574 1
420 578 1
420 581 1
420 585 1
420 586 1
420 590 1
420 605 1
420 611 1
420 612 1
420 617 1
420 622 1
420 629 1
420 632 1
420 637 1
420 638 1
420 649 1
420 650 1
420 652 1
420 673 1
420 674 1
420 675 1
420 676 1
420 679 1
420 680 1
420 681 1
420 683 1
420 684 1
420 689 1
420 690 1
420 691 1
420 697 1
421 22 1
421 24 1
421 26 1
421 33 1
421 37 1
421 39 1
421 43 1
421 45 1
421 51 1
421 54 1
421 57 1
421 59 1
421 62 1
421 63 1
421 75 1
421 77 1
421 81 1
421 90 1
421 96 1
421 106 1
421 118 1
421 120 1
421 122 1
421 126 1
421 132 1
421 138 1
421 143 1
421 148 1
421 150 1
421 151 1
421 161 1
421 168 1
421 172 1
421 174 1
421 178 1
421 180 1
421 185 1
421 188 1
421 193 1
421 200 1
421 202 1
421 204 1
421 206 1
421 208 1
421 215 1
421 221 1
421 223 1
421 230 1
421 232 1
421 233 1
421 235 1
421 242 1
421 257 1
421 259 1
421 260 1
421 272 1
421 277 1
421 278 1
421 280 1
421 285 1
421 292 1
421 293 1
421 301 1
421 316 1
421 321 1
421 323 1
421 324 1
421 329 1
421 330 1
421 339 1
421 341 1
421 349 1
421 351 1
421 355 1
421 356 1
421 370 1
421 376 1
421 388 1
421 392 1
421 393 1
421 397 1
421 403 1
421 410 1
421 415 1
421 445 1
421 446 1
421 447 1
421 448 1
421 451 1
421 454 1
421 457 1
421 473 1
421 489 1
421 492 1
421 501 1
421 511 1
421 524 1
421 527 1
421 534 1
421 537 1
421 540 1
421 551 1
421 555 1
421 567 1
421 572 1
421 576 1
421 592 1
421 597 1
421 617 1
421 622 1
421 629 1
421 632 1
421 635 1
421 636 1
421 643 1
421 654 1
421 657 1
421 659 1
421 666 1
421 667 1
421 674 1
421 677 1
421 680 1
421 686 1
421 687 1
421 689 1
421 694 1
421 696 1
421 697 1
421 698 1
421 700 1
422 1 1
422 6 1
422 8 1
422 10 1
422 23 1
422 30 1
422 32 1
422 41 1
422 46 1
422 49 1
422 51 1
422 72 1
422 76 1
422 79 1
422 88 1
422 90 1
422 93 1
422 99 1
422 112 1
422 137 1
422 147 1
422 153 1
422 157 1
422 160 1
422 162 1
422 167 1
422 169 1
422 171 1
422 172 1
422 175 1
422 181 1
422 182 1
422 184 1
422 186 1
422 188 1
422 191 1
422 210 1
422 226 1
422 233 1
422 239 1
422 246 1
422 252 1
422 259 1
422 262 1
422 267 1
422 274 1
422 277 1
422 281 1
422 304 1
422 331 1
422 335 1
422 336 1
422 338 1
422 344 1
422 348 1
422 349 1
422 352 1
422 353 1
422 359 1
422 360 1
422 365 1
422 377 1
422 380 1
422 387 1
422 389 1
422 405 1
422 406 1
422 407 1
422 416 1
422 420 1
422 423 1
422 425 1
422 427 1
422 430 1
422 445 1
422 450 1
422 451 1
422 458 1
422 463 1
422 467 1
422 468 1
422 477 1
422 478 1
422 481 1
422 482 1
422 490 1
422 491 1
422 501 1
422 503 1
422 505 1
422 509 1
422 511 1
422 512 1
422 515 1
422 517 1
422 518 1
422 519 1
422 525 1
422 527 1
422 531 1
422 538 1
422 549 1
422 550 1
422 565 1
422 568 1
422 574 1
422 589 1
422 596 1
422 599 1
422 602 1
422 607 1
422 608 1
422 612 1
422 627 1
422 631 1
422 634 1
422 636 1
422 637 1
422 638 1
422 650 1
422 653 1
422 663 1
422 674 1
422 677 1
422 682 1
422 688 1
422 689 1
422 692 1
422 696 1
423 2 1
423 3 1
423 9 1
423 13 1
423 24 1
423 32 1
423 34 1
423 38 1
423 47 1
423 64 1
423 68 1
423 70 1
423 75 1
423 78 1
423 82 1
423 103 1
423 113 1
423 115 1
423 116 1
423 121 1
423 127 1
423 131 1
423 143 1
423 146 1
423 156 1
423 161 1
423 162 1
423 166 1
423 194 1
423 200 1
423 205 1
423 206 1
423 210 1
423 217 1
423 232 1
423 235 1
423 238 1
423 241 1
423 247 1
423 249 1
423 255 1
423 260 1
423 261 1
423 268 1
423 271 1
423 278 1
423 279 1
423 287 1
423 291 1
423 293 1
423 306 1
423 313 1
423 315 1
423 319 1
423 321 1
423 323 1
423 332 1
423 346 1
423 349 1
423 358 1
423 366 1
423 369 1
423 376 1
423 400 1
423 401 1
423 406 1
423 415 1
423 422 1
423 426 1
423 429 1
423 430 1
423 432 1
423 433 1
423 434 1
423 444 1
423 450 1
423 455 1
423 457 1
423 462 1
423 464 1
423 465 1
423 474 1
423 483 1
423 492 1
423 500 1
423 501 1
423 503 1
423 505 1
423 522 1
423 529 1
423 531 1
423 552 1
423 554 1
423 558 1
423 561 1
423 568 1
423 580 1
423 588 1
423 591 1
423 594 1
423 595 1
423 599 1
423 600 1
423 616 1
423 619 1
423 622 1
423 627 1
423 635 1
423 637 1
423 649 1
423 651 1
423 661 1
423 663 1
423 677 1
423 687 1
423 688 1
423 692 1
424 10 1
424 12 1
424 20 1
424 25 1
424 32 1
424 33 1
424 34 1
424 40 1
424 47 1
424 49 1
424 53 1
424 56 1
424 57 1
424 67 1
424 75 1
424 82 1
424 84 1
424 85 1
424 86 1
424 89 1
424 95 1
424 97 1
424 104 1
424 107 1
424 110 1
424 116 1
424 121 1
424 129 1
424 131 1
424 134 1
424 137 1
424 140 1
424 141 1
424 148 1
424 150 1
424 151 1
424 165 1
424 172 1
424 176 1
424 179 1
424 180 1
424 188 1
424 191 1
424 192 1
424 193 1
424 195 1
424 196 1
424 199 1
424 202 1
424 205 1
424 206 1
424 209 1
424 210 1
424 223 1
424 226 1
424 230 1
424 232 1
424 233 1
424 235 1
424 236 1
424 246 1
424 252 1
424 254 1
424 264 1
424 269 1
424 274 1
424 279 1
424 286 1
424 287 1
424 289 1
424 290 1
424 291 1
424 293 1
424 309 1
424 314 1
424 318 1
424 320 1
424 324 1
424 335 1
424 338 1
424 343 1
424 351 1
424 358 1
424 359 1
424 365 1
424 370 1
424 371 1
424 377 1
424 380 1
424 381 1
424 394 1
424 405 1
424 407 1
424 415 1
424 417 1
424 419 1
424 426 1
424 428 1
424 436 1
424 444 1
424 445 1
424 449 1
424 459 1
424 461 1
424 463 1
424 469 1
424 470 1
424 474 1
424 475 1
424 480 1
424 482 1
424 490 1
424 500 1
424 502 1
424 508 1
424 510 1
424 511 1
424 513 1
424 518 1
424 520 1
424 534 1
424 536 1
424 550 1
424 554 1
424 561 1
424 571 1
424 574 1
424 577 1
424 578 1
424 580 1
424 582 1
424 592 1
424 609 1
424 611 1
424 621 1
424 622 1
424 627 1
424 630 1
424 636 1
424 640 1
424 654 1
424 664 1
424 669 1
424 670 1
424 677 1
424 680 1
424 681 1
424 686 1
424 688 1
424 693 1
425 11 1
425 16 1
425 18 1
425 19 1
425 23 1
425 25 1
425 26 1
425 27 1
425 28 1
425 39 1
425 42 1
425 44 1
425 53 1
425 67 1
425 69 1
425 77 1
425 79 1
425 86 1
425 87 1
425 95 1
425 99 1
425 102 1
425 104 1
425 112 1
425 118 1
425 122 1
425 131 1
425 137 1
425 138 1
425 169 1
425 170 1
425 174 1
425 175 1
425 177 1
425 178 1
425 179 1
425 190 1
425 191 1
425 196 1
425 198 1
425 199 1
425 203 1
425 205 1
425 214 1
425 221 1
425 224 1
425 233 1
425 238 1
425 239 1
425 245 1
425 250 1
425 259 1
425 260 1
425 272 1
425 276 1
425 277 1
425 278 1
425 284 1
425 286 1
425 293 1
425 303 1
425 306 1
425 307 1
425 310 1
425 311 1
425 313 1
425 316 1
425 329 1
425 333 1
425 335 1
425 339 1
425 347 1
425 364 1
425 370 1
425 371 1
425 372 1
425 373 1
425 377 1
425 379 1
425 392 1
425 393 1
425 396 1
425 404 1
425 408 1
425 410 1
425 411 1
425 413 1
425 422 1
425 431 1
425 432 1
425 444 1
425 450 1
425 456 1
425 457 1
425 459 1
425 460 1
425 471 1
425 475 1
425 485 1
425 488 1
425 495 1
425 498 1
425 518 1
425 525 1
425 531 1
425 534 1
425 535 1
425 537 1
425 538 1
425 542 1
425 544 1
425 550 1
425 555 1
425 564 1
425 570 1
425 572 1
425 581 1
425 582 1
425 583 1
425 585 1
425 596 1
425 597 1
425 601 1
425 606 1
425 613 1
425 614 1
425 616 1
425 619 1
425 624 1
425 633 1
425 643 1
425 646 1
425 647 1
425 657 1
425 662 1
425 677 1
425 682 1
425 686 1
425 698 1
426 8 1
426 33 1
426 41 1
426 42 1
426 45 1
426 48 1
426 61 1
426 64 1
426 68 1
426 69 1
426 74 1
426 89 1
426 90 1
426 105 1
426 108 1
426 114 1
426 116 1
426 118 1
426 124 1
426 125 1
426 133 1
426 134 1
426 138 1
426 141 1
426 143 1
426 144 1
426 146 1
426 158 1
426 159 1
426 162 1
426 172 1
426 174 1
426 175 1
426 177 1
426 188 1
426 189 1
426 192 1
426 196 1
426 199 1
426 203 1
426 220 1
426 221 1
426 224 1
426 226 1
426 228 1
426 229 1
426 232 1
426 236 1
426 239 1
426 244 1
426 245 1
426 248 1
426 254 1
426 263 1
426 267 1
426 271 1
426 273 1
426 283 1
426 286 1
426 293 1
426 294 1
426 299 1
426 302 1
426 309 1
426 310 1
426 313 1
426 315 1
426 330 1
426 341 1
426 346 1
426 350 1
426 353 1
426 363 1
426 366 1
426 368 1
426 377 1
426 380 1
426 381 1
426 383 1
426 385 1
426 388 1
426 390 1
426 393 1
426 396 1
426 397 1
426 403 1
426 405 1
426 408 1
426 409 1
426 413 1
426 416 1
426 419 1
426 423 1
426 424 1
426 433 1
426 437 1
426 457 1
426 459 1
426 464 1
426 469 1
426 471 1
426 472 1
426 490 1
426 494 1
426 503 1
426 507 1
426 510 1
426 512 1
426 517 1
426 522 1
426 535 1
426 539 1
426 541 1
426 554 1
426 563 1
426 570 1
426 576 1
426 579 1
426 580 1
426 584 1
426 591 1
426 602 1
426 604 1
426 631 1
426 640 1
426 647 1
426 657 1
426 664 1
426 668 1
426 691 1
426 694 1
426 695 1
426 700 1
427 2 1
427 5 1
427 6 1
427 10 1
427 13 1
427 20 1
427 28 1
427 37 1
427 51 1
427 52 1
427 55 1
427 61 1
427 62 1
427 64 1
427 83 1
427 84 1
427 85 1
427 86 1
427 87 1
427 96 1
427 103 1
427 104 1
427 105 1
427 132 1
427 136 1
427 141 1
427 145 1
427 151 1
427 159 1
427 165 1
427 171 1
427 182 1
427 198 1
427 200 1
427 201 1
427 205 1
427 207 1
427 209 1
427 212 1
427 220 1
427 228 1
427 230 1
427 240 1
427 244 1
427 246 1
427 254 1
427 256 1
427 259 1
427 260 1
427 268 1
427 270 1
427 273 1
427 280 1
427 284 1
427 304 1
427 305 1
427 319 1
427 322 1
427 324 1
427 326 1
427 328 1
427 330 1
427 337 1
427 340 1
427 341 1
427 348 1
427 349 1
427 360 1
427 366 1
427 369 1
427 372 1
427 373 1
427 384 1
427 388 1
427 392 1
427 400 1
427 410 1
427 412 1
427 413 1
427 416 1
427 417 1
427 420 1
427 422 1
427 429 1
427 432 1
427 433 1
427 435 1
427 436 1
427 442 1
427 446 1
427 468 1
427 469 1
427 472 1
427 473 1
427 477 1
427 486 1
427 494 1
427 496 1
427 499 1
427 503 1
427 506 1
427 510 1
427 513 1
427 515 1
427 530 1
427 532 1
427 535 1
427 536 1
427 538 1
427 539 1
427 541 1
427 543 1
427 545 1
427 546 1
427 568 1
427 569 1
427 574 1
427 576 1
427 579 1
427 580 1
427 582 1
427 597 1
427 598 1
427 599 1
427 600 1
427 602 1
427 608 1
427 614 1
427 616 1
427 617 1
427 619 1
427 626 1
427 631 1
427 641 1
427 648 1
427 649 1
427 653 1
427 663 1
427 668 1
427 671 1
427 675 1
427 677 1
427 678 1
427 679 1
427 680 1
427 684 1
427 685 1
427 694 1
427 696 1
427 697 1
427 699 1
428 5 1
428 8 1
428 12 1
428 15 1
428 17 1
428 22 1
428 24 1
428 25 1
428 32 1
428 36 1
428 51 1
428 56 1
428 59 1
428 65 1
428 66 1
428 69 1
428 73 1
428 75 1
428 82 1
428 83 1
428 84 1
428 102 1
428 104 1
428 105 1
428 111 1
428 113 1
428 118 1
428 127 1
428 128 1
428 129 1
428 133 1
428 134 1
428 143 1
428 145 1
428 152 1
428 154 1
428 156 1
428 162 1
428 163 1
428 164 1
428 172 1
428 175 1
428 179 1
428 180 1
428 186 1
428 188 1
428 192 1
428 209 1
428 210 1
428 221 1
428 224 1
428 227 1
428 230 1
428 233 1
428 234 1
428 240 1
428 244 1
428 245 1
428 247 1
428 256 1
428 261 1
428 265 1
428 271 1
428 273 1
428 275 1
428 280 1
428 284 1
428 286 1
428 293 1
428 294 1
428 297 1
428 306 1
428 307 1
428 318 1
428 321 1
428 324 1
428 332 1
428 336 1
428 340 1
428 341 1
428 342 1
428 348 1
428 350 1
428 355 1
428 359 1
428 369 1
428 370 1
428 373 1
428 376 1
428 378 1
428 382 1
428 389 1
428 392 1
428 402 1
428 404 1
428 412 1
428 413 1
428 417 1
428 418 1
428 424 1
428 429 1
428 436 1
428 445 1
428 453 1
428 455 1
428 459 1
428 460 1
428 466 1
428 468 1
428 469 1
428 470 1
428 474 1
428 475 1
428 480 1
428 483 1
428 484 1
428 490 1
428 504 1
428 506 1
428 508 1
428 513 1
428 521 1
428 522 1
428 533 1
428 536 1
428 537 1
428 546 1
428 552 1
428 554 1
428 555 1
428 556 1
428 569 1
428 571 1
428 573 1
428 585 1
428 588 1
428 597 1
428 598 1
428 604 1
428 605 1
428 612 1
428 619 1
428 627 1
428 628 1
428 629 1
428 635 1
428 655 1
428 659 1
428 661 1
428 662 1
428 667 1
428 678 1
428 679 1
428 686 1
428 689 1
428 691 1
428 694 1
428 695 1
428 698 1
429 7 1
429 9 1
429 11 1
429 13 1
429 16 1
429 21 1
429 22 1
429 23 1
429 31 1
429 40 1
429 42 1
429 50 1
429 51 1
429 57 1
429 65 1
429 74 1
429 76 1
429 79 1
429 87 1
429 102 1
429 110 1
429 114 1
429 121 1
429 126 1
429 130 1
429 133 1
429 145 1
429 147 1
429 151 1
429 156 1
429 159 1
429 161 1
429 162 1
429 168 1
429 174 1
429 185 1
429 194 1
429 195 1
429 197 1
429 200 1
429 204 1
429 208 1
429 220 1
429 243 1
429 245 1
429 246 1
429 249 1
429 253 1
429 258 1
429 264 1
429 268 1
429 275 1
429 282 1
429 283 1
429 290 1
429 292 1
429 296 1
429 298 1
429 303 1
429 305 1
429 307 1
429 310 1
429 329 1
429 332 1
429 333 1
429 335 1
429 349 1
429 354 1
429 362 1
429 364 1
429 367 1
429 369 1
429 374 1
429 376 1
429 377 1
429 378 1
429 383 1
429 388 1
429 390 1
429 394 1
429 401 1
429 403 1
429 405 1
429 411 1
429 420 1
429 423 1
429 427 1
429 428 1
429 431 1
429 434 1
429 442 1
429 443 1
429 448 1
429 451 1
429 458 1
429 459 1
429 470 1
429 473 1
429 477 1
429 492 1
429 497 1
429 502 1
429 507 1
429 514 1
429 516 1
429 535 1
429 542 1
429 545 1
429 567 1
429 568 1
429 569 1
429 574 1
429 595 1
429 597 1
429 601 1
429 607 1
429 632 1
429 639 1
429 641 1
429 642 1
429 647 1
429 648 1
429 653 1
429 655 1
429 659 1
429 683 1
429 696 1
430 2 1
430 6 1
430 9 1
430 22 1
430 28 1
430 30 1
430 31 1
430 40 1
430 52 1
430 57 1
430 60 1
430 61 1
430 83 1
430 91 1
430 93 1
430 94 1
430 100 1
430 101 1
430 104 1
430 110 1
430 112 1
430 121 1
430 129 1
430 143 1
430 150 1
430 152 1
430 154 1
430 155 1
430 164 1
430 166 1
430 168 1
430 176 1
430 182 1
430 184 1
430 187 1
430 192 1
430 193 1
430 197 1
430 198 1
430 201 1
430 202 1
430 205 1
430 209 1
430 218 1
430 219 1
430 222 1
430 224 1
430 227 1
430 234 1
430 245 1
430 249 1
430 257 1
430 267 1
430 269 1
430 276 1
430 287 1
430 297 1
430 303 1
430 309 1
430 337 1
430 338 1
430 339 1
430 354 1
430 357 1
430 359 1
430 368 1
430 370 1
430 374 1
430 382 1
430 386 1
430 390 1
430 392 1
430 418 1
430 422 1
430 423 1
430 436 1
430 438 1
430 453 1
430 454 1
430 457 1
430 467 1
430 469 1
430 481 1
430 482 1
430 488 1
430 492 1
430 495 1
430 504 1
430 507 1
430 512 1
430 513 1
430 514 1
430 515 1
430 524 1
430 526 1
430 529 1
430 531 1
430 537 1
430 539 1
430 540 1
430 542 1
430 545 1
430 550 1
430 553 1
430 565 1
430 570 1
430 572 1
430 578 1
430 581 1
430 582 1
430 597 1
430 614 1
430 616 1
430 625 1
430 636 1
430 643 1
430 649 1
430 651 1
430 654 1
430 659 1
430 662 1
430 667 1
430 677 1
430 681 1
430 685 1
430 696 1
430 699 1
430 700 1
431 2 1
431 17 1
431 25 1
431 27 1
431 28 1
431 39 1
431 44 1
431 47 1
431 53 1
431 57 1
431 59 1
431 65 1
431 77 1
431 83 1
431 84 1
431 87 1
431 89 1
431 92 1
431 93 1
431 99 1
431 101 1
431 102 1
431 107 1
431 115 1
431 116 1
431 135 1
431 141 1
431 146 1
431 150 1
431 165 1
431 171 1
431 172 1
431 175 1
431 181 1
431 189 1
431 194 1
431 201 1
431 206 1
431 215 1
431 219 1
431 223 1
431 225 1
431 227 1
431 229 1
431 231 1
431 245 1
431 248 1
431 260 1
431 261 1
431 274 1
431 279 1
431 282 1
431 286 1
431 288 1
431 296 1
431 307 1
431 319 1
431 320 1
431 332 1
431 333 1
431 342 1
431 344 1
431 347 1
431 350 1
431 361 1
431 373 1
431 374 1
431 383 1
431 384 1
431 387 1
431 390 1
431 394 1
431 397 1
431 403 1
431 406 1
431 410 1
431 411 1
431 425 1
431 429 1
431 440 1
431 454 1
431 461 1
431 464 1
431 465 1
431 466 1
431 467 1
431 471 1
431 473 1
431 478 1
431 483 1
431 487 1
431 489 1
431 493 1
431 498 1
431 499 1
431 501 1
431 503 1
431 506 1
431 507 1
431 511 1
431 521 1
431 534 1
431 543 1
431 563 1
431 565 1
431 567 1
431 575 1
431 582 1
431 584 1
431 585 1
431 594 1
431 603 1
431 605 1
431 607 1
431 623 1
431 629 1
431 633 1
431 635 1
431 638 1
431 639 1
431 654 1
431 656 1
431 657 1
431 659 1
431 663 1
431 664 1
431 682 1
431 683 1
431 689 1
431 697 1
432 5 1
432 8 1
432 10 1
432 11 1
432 21 1
432 26 1
432 36 1
432 41 1
432 44 1
432 55 1
432 56 1
432 58 1
432 62 1
432 63 1
432 65 1
432 66 1
432 72 1
432 81 1
432 83 1
432 89 1
432 91 1
432 99 1
432 105 1
432 111 1
432 113 1
432 117 1
432 122 1
432 124 1
432 133 1
432 134 1
432 144 1
432 152 1
432 156 1
432 157 1
432 159 1
432 171 1
432 191 1
432 192 1
432 201 1
432 203 1
432 204 1
432 217 1
432 225 1
432 227 1
432 236 1
432 239 1
432 241 1
432 243 1
432 250 1
432 254 1
432 260 1
432 261 1
432 267 1
432 275 1
432 278 1
432 282 1
432 283 1
432 287 1
432 302 1
432 303 1
432 307 1
432 325 1
432 337 1
432 344 1
432 345 1
432 349 1
432 350 1
432 358 1
432 369 1
432 370 1
432 374 1
432 375 1
432 387 1
432 397 1
432 402 1
432 411 1
432 415 1
432 419 1
432 423 1
432 425 1
432 427 1
432 436 1
432 442 1
432 444 1
432 454 1
432 462 1
432 468 1
432 470 1
432 476 1
432 480 1
432 496 1
432 499 1
432 519 1
432 523 1
432 524 1
432 537 1
432 546 1
432 548 1
432 549 1
432 550 1
432 556 1
432 561 1
432 562 1
432 564 1
432 571 1
432 575 1
432 598 1
432 608 1
432 611 1
432 621 1
432 624 1
432 625 1
432 626 1
432 633 1
432 635 1
432 638 1
432 640 1
432 641 1
432 642 1
432 648 1
432 663 1
432 667 1
432 669 1
432 674 1
432 680 1
432 685 1
432 686 1
432 698 1
433 1 1
433 8 1
433 11 1
433 22 1
433 26 1
433 31 1
433 35 1
433 37 1
433 38 1
433 43 1
433 44 1
433 47 1
433 51 1
433 52 1
433 65 1
433 67 1
433 73 1
433 77 1
433 83 1
433 84 1
433 92 1
433 98 1
433 101 1
433 106 1
433 109 1
433 111 1
433 117 1
433 118 1
433 123 1
433 131 1
433 142 1
433 153 1
433 154 1
433 160 1
433 162 1
433 164 1
433 172 1
433 178 1
433 181 1
433 185 1
433 186 1
433 188 1
433 194 1
433 197 1
433 200 1
433 203 1
433 204 1
433 211 1
433 217 1
433 220 1
433 225 1
433 246 1
433 247 1
433 251 1
433 258 1
433 267 1
433 268 1
433 269 1
433 271 1
433 273 1
433 280 1
433 281 1
433 283 1
433 286 1
433 292 1
433 298 1
433 301 1
433 304 1
433 306 1
433 313 1
433 322 1
433 328 1
433 330 1
433 331 1
433 337 1
433 340 1
433 351 1
433 352 1
433 360 1
433 367 1
433 368 1
433 370 1
433 382 1
433 389 1
433 394 1
433 406 1
433 407 1
433 410 1
433 411 1
433 412 1
433 413 1
433 417 1
433 423 1
433 426 1
433 427 1
433 434 1
433 437 1
433 446 1
433 452 1
433 472 1
433 479 1
433 480 1
433 484 1
433 486 1
433 488 1
433 492 1
433 493 1
433 500 1
433 504 1
433 505 1
433 507 1
433 508 1
433 509 1
433 510 1
433 511 1
433 512 1
433 517 1
433 522 1
433 527 1
433 528 1
433 529 1
433 536 1
433 544 1
433 547 1
433 550 1
433 551 1
433 554 1
433 558 1
433 559 1
433 579 1
433 588 1
433 589 1
433 597 1
433 601 1
433 605 1
433 611 1
433 615 1
433 622 1
433 626 1
433 637 1
433 641 1
433 642 1
433 646 1
433 647 1
433 661 1
433 666 1
433 667 1
433 671 1
433 673 1
434 11 1
434 12 1
434 20 1
434 27 1
434 28 1
434 29 1
434 33 1
434 37 1
434 39 1
434 41 1
434 44 1
434 46 1
434 48 1
434 53 1
434 58 1
434 59 1
434 70 1
434 71 1
434 73 1
434 77 1
434 84 1
434 90 1
434 97 1
434 98 1
434 99 1
434 101 1
434 107 1
434 116 1
434 128 1
434 129 1
434 131 1
434 133 1
434 137 1
434 145 1
434 146 1
434 147 1
434 148 1
434 150 1
434 152 1
434 161 1
434 164 1
434 166 1
434 167 1
434 168 1
434 170 1
434 173 1
434 188 1
434 189 1
434 195 1
434 197 1
434 201 1
434 210 1
434 211 1
434 213 1
434 220 1
434 224 1
434 226 1
434 229 1
434 233 1
434 240 1
434 244 1
434 245 1
434 246 1
434 250 1
434 285 1
434 287 1
434 294 1
434 295 1
434 303 1
434 304 1
434 312 1
434 317 1
434 320 1
434 327 1
434 338 1
434 342 1
434 343 1
434 345 1
434 353 1
434 360 1
434 368 1
434 378 1
434 386 1
434 399 1
434 406 1
434 407 1
434 415 1
434 416 1
434 418 1
434 423 1
434 429 1
434 433 1
434 437 1
434 445 1
434 450 1
434 452 1
434 454 1
434 456 1
434 466 1
434 467 1
434 471 1
434 472 1
434 475 1
434 478 1
434 480 1
434 482 1
434 483 1
434 486 1
434 489 1
434 514 1
434 533 1
434 534 1
434 541 1
434 545 1
434 551 1
434 557 1
434 562 1
434 563 1
434 565 1
434 566 1
434 569 1
434 579 1
434 582 1
434 589 1
434 592 1
434 594 1
434 595 1
434 601 1
434 607 1
434 626 1
434 632 1
434 634 1
434 639 1
434 641 1
434 645 1
434 647 1
434 656 1
434 661 1
434 667 1
434 675 1
434 676 1
434 679 1
434 683 1
434 690 1
434 692 1
434 696 1
434 697 1
435 3 1
435 4 1
435 6 1
435 7 1
435 9 1
435 12 1
435 21 1
435 29 1
435 32 1
435 50 1
435 52 1
435 56 1
435 57 1
435 58 1
435 59 1
435 60 1
435 67 1
435 74 1
435 75 1
435 85 1
435 92 1
435 96 1
435 100 1
435 103 1
435 105 1
435 108 1
435 133 1
435 135 1
435 137 1
435 138 1
435 139 1
435 149 1
435 151 1
435 157 1
435 161 1
435 166 1
435 172 1
435 173 1
435 181 1
435 192 1
435 200 1
435 204 1
435 209 1
435 211 1
435 213 1
435 215 1
435 234 1
435 238 1
435 239 1
435 241 1
435 243 1
435 246 1
435 253 1
435 259 1
435 276 1
435 280 1
435 283 1
435 289 1
435 292 1
435 294 1
435 312 1
435 319 1
435 332 1
435 333 1
435 334 1
435 336 1
435 337 1
435 341 1
435 351 1
435 361 1
435 363 1
435 371 1
435 374 1
435 377 1
435 379 1
435 383 1
435 384 1
435 388 1
435 390 1
435 394 1
435 397 1
435 399 1
435 406 1
435 408 1
435 415 1
435 427 1
435 441 1
435 453 1
435 458 1
435 470 1
435 475 1
435 477 1
435 481 1
435 503 1
435 513 1
435 514 1
435 519 1
435 524 1
435 531 1
435 534 1
435 540 1
435 541 1
435 549 1
435 566 1
435 574 1
435 585 1
435 604 1
435 605 1
435 615 1
435 619 1
435 620 1
435 630 1
435 632 1
435 636 1
435 640 1
435 648 1
435 649 1
435 657 1
435 660 1
435 662 1
435 663 1
435 669 1
435 670 1
435 671 1
435 674 1
435 679 1
435 683 1
435 693 1
435 695 1
435 696 1
435 697 1
435 700 1
436 10 1
436 21 1
436 25 1
436 29 1
436 33 1
436 40 1
436 42 1
436 49 1
436 51 1
436 53 1
436 57 1
436 64 1
436 66 1
436 72 1
436 73 1
436 78 1
436 85 1
436 90 1
436 93 1
436 94 1
436 105 1
436 108 1
436 110 1
436 121 1
436 126 1
436 129 1
436 130 1
436 146 1
436 148 1
436 151 1
436 153 1
436 156 1
436 185 1
436 186 1
436 193 1
436 198 1
436 207 1
436 212 1
436 213 1
436 220 1
436 221 1
436 224 1
436 226 1
436 231 1
436 234 1
436 235 1
436 237 1
436 244 1
436 249 1
436 250 1
436 253 1
436 266 1
436 267 1
436 274 1
436 276 1
436 283 1
436 285 1
436 288 1
436 297 1
436 301 1
436 304 1
436 305 1
436 317 1
436 329 1
436 336 1
436 337 1
436 339 1
436 341 1
436 344 1
436 346 1
436 352 1
436 354 1
436 356 1
436 365 1
436 374 1
436 377 1
436 378 1
436 390 1
436 391 1
436 392 1
436 393 1
436 394 1
436 404 1
436 405 1
436 412 1
436 419 1
436 424 1
436 427 1
436 428 1
436 430 1
436 432 1
436 443 1
436 446 1
436 448 1
436 456 1
436 457 1
436 461 1
436 462 1
436 465 1
436 474 1
436 477 1
436 478 1
436 481 1
436 484 1
436 498 1
436 503 1
436 506 1
436 511 1
436 527 1
436 534 1
436 548 1
436 549 1
436 560 1
436 561 1
436 566 1
436 567 1
436 568 1
436 570 1
436 571 1
436 573 1
436 575 1
436 578 1
436 583 1
436 585 1
436 590 1
436 591 1
436 600 1
436 604 1
436 612 1
436 614 1
436 624 1
436 628 1
436 640 1
436 642 1
436 643 1
436 650 1
436 652 1
436 662 1
436 665 1
436 670 1
436 671 1
436 680 1
436 685 1
436 686 1
436 690 1
436 694 1
437 7 1
437 8 1
437 12 1
437 15 1
437 23 1
437 25 1
437 39 1
437 45 1
437 46 1
437 50 1
437 57 1
437 64 1
437 70 1
437 75 1
437 80 1
437 83 1
437 85 1
437 89 1
437 91 1
437 92 1
437 108 1
437 111 1
437 115 1
437 117 1
437 136 1
437 137 1
437 155 1
437 156 1
437 165 1
437 182 1
437 193 1
437 206 1
437 209 1
437 217 1
437 220 1
437 221 1
437 232 1
437 241 1
437 253 1
437 262 1
437 264 1
437 265 1
437 266 1
437 267 1
437 269 1
437 281 1
437 284 1
437 295 1
437 296 1
437 300 1
437 315 1
437 319 1
437 322 1
437 326 1
437 329 1
437 336 1
437 337 1
437 347 1
437 350 1
437 358 1
437 359 1
437 364 1
437 372 1
437 376 1
437 378 1
437 380 1
437 383 1
437 384 1
437 390 1
437 395 1
437 396 1
437 400 1
437 411 1
437 412 1
437 426 1
437 433 1
437 434 1
437 439 1
437 444 1
437 448 1
437 454 1
437 462 1
437 465 1
437 466 1
437 467 1
437 473 1
437 479 1
437 494 1
437 503 1
437 511 1
437 515 1
437 517 1
437 518 1
437 520 1
437 521 1
437 528 1
437 531 1
437 535 1
437 541 1
437 544 1
437 552 1
437 555 1
437 580 1
437 581 1
437 585 1
437 595 1
437 600 1
437 602 1
437 605 1
437 607 1
437 609 1
437 614 1
437 633 1
437 640 1
437 641 1
437 653 1
437 654 1
437 657 1
437 660 1
437 661 1
437 676 1
437 682 1
437 693 1
437 695 1
438 1 1
438 3 1
438 4 1
438 6 1
438 19 1
438 20 1
438 27 1
438 31 1
438 34 1
438 35 1
438 36 1
438 52 1
438 55 1
438 57 1
438 58 1
438 59 1
438 60 1
438 61 1
438 63 1
438 65 1
438 75 1
438 77 1
438 78 1
438 80 1
438 81 1
438 84 1
438 91 1
438 100 1
438 101 1
438 103 1
438 108 1
438 110 1
438 111 1
438 114 1
438 117 1
438 119 1
438 120 1
438 123 1
438 127 1
438 130 1
438 131 1
438 139 1
438 140 1
438 154 1
438 155 1
438 158 1
438 160 1
438 163 1
438 164 1
438 166 1
438 170 1
438 177 1
438 178 1
438 179 1
438 180 1
438 183 1
438 186 1
438 190 1
438 191 1
438 195 1
438 197 1
438 207 1
438 217 1
438 225 1
438 228 1
438 232 1
438 239 1
438 245 1
438 256 1
438 271 1
438 275 1
438 276 1
438 277 1
438 279 1
438 280 1
438 289 1
438 290 1
438 293 1
438 295 1
438 296 1
438 310 1
438 323 1
438 327 1
438 339 1
438 348 1
438 352 1
438 353 1
438 357 1
438 365 1
438 366 1
438 372 1
438 378 1
438 386 1
438 393 1
438 396 1
438 397 1
438 398 1
438 410 1
438 418 1
438 430 1
438 449 1
438 454 1
438 455 1
438 468 1
438 477 1
438 479 1
438 485 1
438 489 1
438 491 1
438 497 1
438 501 1
438 502 1
438 504 1
438 509 1
438 511 1
438 519 1
438 520 1
438 521 1
438 525 1
438 526 1
438 527 1
438 530 1
438 533 1
438 536 1
438 542 1
438 550 1
438 554 1
438 558 1
438 560 1
438 569 1
438 575 1
438 576 1
438 577 1
438 584 1
438 585 1
438 587 1
438 589 1
438 590 1
438 606 1
438 608 1
438 609 1
438 614 1
438 637 1
438 640 1
438 642 1
438 658 1
438 665 1
438 671 1
438 682 1
438 684 1
438 687 1
438 688 1
438 692 1
438 694 1
438 696 1
438 697 1
439 1 1
439 5 1
439 13 1
439 18 1
439 25 1
439 34 1
439 35 1
439 39 1
439 50 1
439 53 1
439 59 1
439 62 1
439 63 1
439 75 1
439 92 1
439 94 1
439 95 1
439 97 1
439 107 1
439 108 1
439 109 1
439 117 1
439 121 1
439 123 1
439 133 1
439 136 1
439 140 1
439 141 1
439 143 1
439 149 1
439 151 1
439 152 1
439 156 1
439 162 1
439 166 1
439 171 1
439 180 1
439 183 1
439 185 1
439 188 1
439 191 1
439 194 1
439 197 1
439 199 1
439 203 1
439 204 1
439 209 1
439 214 1
439 218 1
439 223 1
439 245 1
439 247 1
439 252 1
439 258 1
439 261 1
439 264 1
439 267 1
439 269 1
439 270 1
439 281 1
439 283 1
439 285 1
439 292 1
439 301 1
439 317 1
439 318 1
439 322 1
439 324 1
439 329 1
439 334 1
439 336 1
439 343 1
439 345 1
439 351 1
439 356 1
439 364 1
439 372 1
439 373 1
439 378 1
439 385 1
439 386 1
439 394 1
439 396 1
439 402 1
439 415 1
439 437 1
439 442 1
439 450 1
439 451 1
439 454 1
439 456 1
439 463 1
439 466 1
439 467 1
439 472 1
439 474 1
439 475 1
439 477 1
439 493 1
439 498 1
439 500 1
439 504 1
439 516 1
439 519 1
439 528 1
439 532 1
439 543 1
439 550 1
439 552 1
439 554 1
439 556 1
439 561 1
439 562 1
439 564 1
439 571 1
439 573 1
439 579 1
439 584 1
439 590 1
439 611 1
439 623 1
439 625 1
439 628 1
439 630 1
439 634 1
439 650 1
439 668 1
439 669 1
439 670 1
439 672 1
439 673 1
439 680 1
439 681 1
439 687 1
439 695 1
439 697 1
439 698 1
440 2 1
440 6 1
440 7 1
440 10 1
440 11 1
440 14 1
440 24 1
440 26 1
440 33 1
440 38 1
440 42 1
440 49 1
440 57 1
440 61 1
440 76 1
440 78 1
440 79 1
440 81 1
440 84 1
440 85 1
440 86 1
440 88 1
440 92 1
440 93 1
440 99 1
440 101 1
440 111 1
440 117 1
440 120 1
440 125 1
440 132 1
440 135 1
440 145 1
440 148 1
440 159 1
440 170 1
440 171 1
440 177 1
440 181 1
440 184 1
440 189 1
440 194 1
440 195 1
440 200 1
440 207 1
440 211 1
440 215 1
440 222 1
440 233 1
440 237 1
440 240 1
440 244 1
440 251 1
440 258 1
440 260 1
440 263 1
440 266 1
440 273 1
440 277 1
440 279 1
440 281 1
440 282 1
440 287 1
440 290 1
440 292 1
440 300 1
440 305 1
440 309 1
440 310 1
440 321 1
440 326 1
440 327 1
440 342 1
440 348 1
440 351 1
440 353 1
440 359 1
440 363 1
440 365 1
440 370 1
440 372 1
440 380 1
440 384 1
440 401 1
440 402 1
440 405 1
440 407 1
440 412 1
440 431 1
440 446 1
440 447 1
440 458 1
440 467 1
440 469 1
440 472 1
440 473 1
440 477 1
440 478 1
440 479 1
440 483 1
440 484 1
440 495 1
440 499 1
440 510 1
440 516 1
440 521 1
440 522 1
440 524 1
440 525 1
440 539 1
440 541 1
440 542 1
440 545 1
440 558 1
440 564 1
440 571 1
440 573 1
440 582 1
440 584 1
440 589 1
440 591 1
440 605 1
440 621 1
440 631 1
440 633 1
440 641 1
440 647 1
440 650 1
440 658 1
440 661 1
440 669 1
440 671 1
440 673 1
440 680 1
440 693 1
440 699 1
441 8 1
441 11 1
441 17 1
441 23 1
441 31 1
441 34 1
441 36 1
441 41 1
441 48 1
441 53 1
441 57 1
441 61 1
441 62 1
441 63 1
441 67 1
441 68 1
441 89 1
441 94 1
441 100 1
441 107 1
441 110 1
441 113 1
441 117 1
441 118 1
441 119 1
441 121 1
441 125 1
441 130 1
441 133 1
441 134 1
441 141 1
441 147 1
441 151 1
441 153 1
441 154 1
441 156 1
441 157 1
441 159 1
441 161 1
441 163 1
441 164 1
441 169 1
441 172 1
441 175 1
441 184 1
441 186 1
441 187 1
441 193 1
441 194 1
441 197 1
441 199 1
441 206 1
441 207 1
441 212 1
441 220 1
441 229 1
441 231 1
441 232 1
441 233 1
441 242 1
441 245 1
441 247 1
441 254 1
441 255 1
441 256 1
441 257 1
441 260 1
441 261 1
441 272 1
441 280 1
441 288 1
441 299 1
441 310 1
441 312 1
441 315 1
441 317 1
441 320 1
441 329 1
441 331 1
441 336 1
441 347 1
441 348 1
441 361 1
441 363 1
441 373 1
441 375 1
441 376 1
441 377 1
441 385 1
441 402 1
441 405 1
441 409 1
441 414 1
441 416 1
441 419 1
441 420 1
441 435 1
441 443 1
441 454 1
441 469 1
441 486 1
441 487 1
441 497 1
441 498 1
441 505 1
441 513 1
441 539 1
441 540 1
441 552 1
441 554 1
441 562 1
441 570 1
441 574 1
441 578 1
441 580 1
441 582 1
441 588 1
441 590 1
441 600 1
441 615 1
441 618 1
441 625 1
441 626 1
441 631 1
441 640 1
441 642 1
441 647 1
441 655 1
441 656 1
441 667 1
441 670 1
441 671 1
441 675 1
441 676 1
441 679 1
441 683 1
441 689 1
441 695 1
441 697 1
442 1 1
442 5 1
442 6 1
442 11 1
442 12 1
442 13 1
442 17 1
442 18 1
442 21 1
442 22 1
442 28 1
442 29 1
442 31 1
442 32 1
442 34 1
442 36 1
442 44 1
442 56 1
442 66 1
442 73 1
442 81 1
442 93 1
442 94 1
442 99 1
442 102 1
442 103 1
442 105 1
442 106 1
442 115 1
442 116 1
442 133 1
442 137 1
442 143 1
442 145 1
442 149 1
442 151 1
442 153 1
442 161 1
442 162 1
442 168 1
442 172 1
442 181 1
442 187 1
442 194 1
442 195 1
442 197 1
442 212 1
442 215 1
442 220 1
442 223 1
442 229 1
442 235 1
442 240 1
442 241 1
442 245 1
442 246 1
442 251 1
442 254 1
442 258 1
442 259 1
442 260 1
442 262 1
442 268 1
442 272 1
442 277 1
442 280 1
442 288 1
442 299 1
442 300 1
442 302 1
442 304 1
442 305 1
442 307 1
442 310 1
442 314 1
442 317 1
442 324 1
442 330 1
442 333 1
442 334 1
442 339 1
442 340 1
442 342 1
442 344 1
442 345 1
442 377 1
442 381 1
442 385 1
442 390 1
442 397 1
442 398 1
442 399 1
442 401 1
442 413 1
442 427 1
442 429 1
442 432 1
442 439 1
442 443 1
442 444 1
442 457 1
442 459 1
442 462 1
442 464 1
442 468 1
442 488 1
442 496 1
442 501 1
442 502 1
442 506 1
442 531 1
442 532 1
442 535 1
442 536 1
442 543 1
442 546 1
442 549 1
442 550 1
442 551 1
442 555 1
442 560 1
442 563 1
442 572 1
442 576 1
442 589 1
442 612 1
442 616 1
442 621 1
442 623 1
442 628 1
442 637 1
442 642 1
442 663 1
442 673 1
442 689 1
442 693 1
443 1 1
443 3 1
443 5 1
443 7 1
443 12 1
443 18 1
443 23 1
443 29 1
443 31 1
443 37 1
443 38 1
443 39 1
443 40 1
443 41 1
443 44 1
443 57 1
443 58 1
443 65 1
443 70 1
443 75 1
443 76 1
443 78 1
443 81 1
443 82 1
443 85 1
443 98 1
443 99 1
443 100 1
443 103 1
443 104 1
443 106 1
443 107 1
443 108 1
443 121 1
443 126 1
443 127 1
443 134 1
443 136 1
443 138 1
443 142 1
443 146 1
443 149 1
443 150 1
443 151 1
443 165 1
443 174 1
443 181 1
443 186 1
443 191 1
443 196 1
443 208 1
443 210 1
443 217 1
443 219 1
443 221 1
443 224 1
443 225 1
443 234 1
443 238 1
443 241 1
443 254 1
443 258 1
443 260 1
443 263 1
443 265 1
443 268 1
443 269 1
443 272 1
443 274 1
443 275 1
443 276 1
443 285 1
443 288 1
443 289 1
443 296 1
443 306 1
443 312 1
443 318 1
443 324 1
443 326 1
443 331 1
443 334 1
443 340 1
443 350 1
443 354 1
443 357 1
443 358 1
443 360 1
443 368 1
443 369 1
443 372 1
443 373 1
443 377 1
443 381 1
443 388 1
443 390 1
443 396 1
443 401 1
443 404 1
443 413 1
443 420 1
443 429 1
443 436 1
443 441 1
443 442 1
443 447 1
443 451 1
443 455 1
443 462 1
443 484 1
443 486 1
443 488 1
443 494 1
443 496 1
443 502 1
443 507 1
443 512 1
443 517 1
443 519 1
443 528 1
443 531 1
443 533 1
443 536 1
443 541 1
443 542 1
443 545 1
443 546 1
443 547 1
443 559 1
443 561 1
443 562 1
443 567 1
443 568 1
443 570 1
443 576 1
443 581 1
443 582 1
443 583 1
443 597 1
443 605 1
443 607 1
443 610 1
443 623 1
443 637 1
443 647 1
443 652 1
443 657 1
443 659 1
443 663 1
443 664 1
443 670 1
443 672 1
443 678 1
443 683 1
443 689 1
443 698 1
443 700 1
444 3 1
444 9 1
444 12 1
444 16 1
444 25 1
444 27 1
444 31 1
444 40 1
444 43 1
444 50 1
444 64 1
444 66 1
444 70 1
444 72 1
444 81 1
444 84 1
444 90 1
444 101 1
444 104 1
444 105 1
444 109 1
444 111 1
444 122 1
444 134 1
444 136 1
444 145 1
444 146 1
444 149 1
444 152 1
444 163 1
444 175 1
444 180 1
444 181 1
444 193 1
444 198 1
444 200 1
444 210 1
444 219 1
444 220 1
444 231 1
444 235 1
444 237 1
444 241 1
444 243 1
444 256 1
444 263 1
444 265 1
444 273 1
444 275 1
444 277 1
444 280 1
444 281 1
444 293 1
444 294 1
444 304 1
444 308 1
444 316 1
444 319 1
444 322 1
444 326 1
444 328 1
444 333 1
444 339 1
444 346 1
444 347 1
444 352 1
444 354 1
444 356 1
444 362 1
444 364 1
444 365 1
444 369 1
444 379 1
444 383 1
444 387 1
444 388 1
444 394 1
444 399 1
444 401 1
444 403 1
444 406 1
444 411 1
444 423 1
444 424 1
444 425 1
444 432 1
444 437 1
444 442 1
444 458 1
444 478 1
444 488 1
444 501 1
444 503 1
444 520 1
444 523 1
444 524 1
444 526 1
444 536 1
444 548 1
444 549 1
444 553 1
444 556 1
444 558 1
444 561 1
444 563 1
444 576 1
444 577 1
444 578 1
444 586 1
444 590 1
444 593 1
444 599 1
444 617 1
444 622 1
444 631 1
444 632 1
444 633 1
444 635 1
444 641 1
444 642 1
444 646 1
444 667 1
444 671 1
444 673 1
444 675 1
444 680 1
444 681 1
444 685 1
444 686 1
444 689 1
444 691 1
444 696 1
445 1 1
445 6 1
445 7 1
445 9 1
445 10 1
445 13 1
445 15 1
445 16 1
445 24 1
445 25 1
445 27 1
445 34 1
445 38 1
445 39 1
445 42 1
445 44 1
445 52 1
445 56 1
445 59 1
445 69 1
445 81 1
445 86 1
445 91 1
445 92 1
445 98 1
445 99 1
445 105 1
445 115 1
445 139 1
445 147 1
445 148 1
445 151 1
445 152 1
445 153 1
445 164 1
445 184 1
445 191 1
445 194 1
445 215 1
445 217 1
445 220 1
445 222 1
445 226 1
445 230 1
445 236 1
445 242 1
445 254 1
445 256 1
445 257 1
445 264 1
445 275 1
445 276 1
445 280 1
445 283 1
445 284 1
445 290 1
445 297 1
445 298 1
445 303 1
445 304 1
445 309 1
445 313 1
445 317 1
445 319 1
445 320 1
445 326 1
445 328 1
445 330 1
445 337 1
445 343 1
445 346 1
445 348 1
445 353 1
445 366 1
445 371 1
445 372 1
445 373 1
445 374 1
445 382 1
445 389 1
445 409 1
445 412 1
445 415 1
445 419 1
445 421 1
445 422 1
445 424 1
445 428 1
445 434 1
445 448 1
445 450 1
445 476 1
445 480 1
445 483 1
445 484 1
445 490 1
445 491 1
445 501 1
445 502 1
445 503 1
445 516 1
445 518 1
445 526 1
445 530 1
445 532 1
445 537 1
445 539 1
445 547 1
445 556 1
445 559 1
445 560 1
445 569 1
445 573 1
445 575 1
445 589 1
445 597 1
445 600 1
445 605 1
445 607 1
445 611 1
445 612 1
445 613 1
445 615 1
445 616 1
445 621 1
445 622 1
445 628 1
445 629 1
445 635 1
445 639 1
445 643 1
445 646 1
445 647 1
445 652 1
445 653 1
445 657 1
445 668 1
445 669 1
445 671 1
445 675 1
445 688 1
445 689 1
445 693 1
446 6 1
446 8 1
446 12 1
446 18 1
446 19 1
446 21 1
446 27 1
446 30 1
446 33 1
446 34 1
446 43 1
446 46 1
446 47 1
446 49 1
446 52 1
446 58 1
446 60 1
446 70 1
446 73 1
446 78 1
446 83 1
446 86 1
446 91 1
446 93 1
446 99 1
446 100 1
446 102 1
446 111 1
446 120 1
446 123 1
446 125 1
446 128 1
446 129 1
446 130 1
446 132 1
446 135 1
446 162 1
446 163 1
446 194 1
446 197 1
446 200 1
446 201 1
446 205 1
446 206 1
446 207 1
446 210 1
446 211 1
446 214 1
446 221 1
446 232 1
446 234 1
446 235 1
446 242 1
446 251 1
446 257 1
446 267 1
446 268 1
446 276 1
446 279 1
446 280 1
446 294 1
446 299 1
446 314 1
446 318 1
446 324 1
446 332 1
446 334 1
446 335 1
446 337 1
446 343 1
446 346 1
446 348 1
446 351 1
446 353 1
446 356 1
446 366 1
446 379 1
446 380 1
446 382 1
446 387 1
446 390 1
446 396 1
446 399 1
446 401 1
446 402 1
446 414 1
446 415 1
446 417 1
446 418 1
446 420 1
446 421 1
446 427 1
446 433 1
446 436 1
446 440 1
446 452 1
446 458 1
446 464 1
446 469 1
446 476 1
446 483 1
446 484 1
446 487 1
446 489 1
446 490 1
446 496 1
446 503 1
446 506 1
446 509 1
446 510 1
446 520 1
446 530 1
446 531 1
446 533 1
446 553 1
446 557 1
446 561 1
446 563 1
446 570 1
446 578 1
446 582 1
446 585 1
446 587 1
446 592 1
446 596 1
446 597 1
446 603 1
446 605 1
446 611 1
446 614 1
446 648 1
446 657 1
446 659 1
446 661 1
446 665 1
446 682 1
446 692 1
447 15 1
447 20 1
447 21 1
447 44 1
447 45 1
447 54 1
447 55 1
447 64 1
447 76 1
447 83 1
447 84 1
447 86 1
447 87 1
447 88 1
447 100 1
447 105 1
447 107 1
447 108 1
447 109 1
447 113 1
447 116 1
447 126 1
447 127 1
447 132 1
447 140 1
447 147 1
447 149 1
447 152 1
447 154 1
447 164 1
447 165 1
447 167 1
447 171 1
447 175 1
447 177 1
447 184 1
447 187 1
447 193 1
447 195 1
447 196 1
447 204 1
447 205 1
447 230 1
447 236 1
447 244 1
447 245 1
447 251 1
447 252 1
447 254 1
447 258 1
447 260 1
447 265 1
447 283 1
447 285 1
447 286 1
447 290 1
447 293 1
447 294 1
447 295 1
447 297 1
447 306 1
447 307 1
447 315 1
447 316 1
447 317 1
447 331 1
447 335 1
447 336 1
447 342 1
447 347 1
447 353 1
447 354 1
447 360 1
447 362 1
447 366 1
447 370 1
447 375 1
447 377 1
447 378 1
447 382 1
447 384 1
447 385 1
447 398 1
447 402 1
447 403 1
447 406 1
447 410 1
447 412 1
447 418 1
447 421 1
447 440 1
447 443 1
447 448 1
447 453 1
447 457 1
447 468 1
447 472 1
447 477 1
447 481 1
447 489 1
447 490 1
447 496 1
447 498 1
447 503 1
447 504 1
447 512 1
447 519 1
447 528 1
447 534 1
447 538 1
447 539 1
447 542 1
447 548 1
447 554 1
447 561 1
447 570 1
447 573 1
447 578 1
447 590 1
447 607 1
447 612 1
447 613 1
447 617 1
447 618 1
447 629 1
447 634 1
447 637 1
447 651 1
447 653 1
447 656 1
447 661 1
447 664 1
447 669 1
447 674 1
447 675 1
447 683 1
447 686 1
447 690 1
448 6 1
448 11 1
448 15 1
448 18 1
448 19 1
448 20 1
448 21 1
448 29 1
448 35 1
448 41 1
448 43 1
448 50 1
448 51 1
448 54 1
448 73 1
448 77 1
448 80 1
448 81 1
448 83 1
448 100 1
448 108 1
448 116 1
448 118 1
448 121 1
448 127 1
448 130 1
448 131 1
448 140 1
448 142 1
448 155 1
448 160 1
448 163 1
448 169 1
448 179 1
448 182 1
448 185 1
448 187 1
448 189 1
448 195 1
448 202 1
448 206 1
448 226 1
448 227 1
448 229 1
448 254 1
448 256 1
448 266 1
448 288 1
448 295 1
448 302 1
448 305 1
448 314 1
448 322 1
448 330 1
448 344 1
448 345 1
448 346 1
448 349 1
448 356 1
448 357 1
448 358 1
448 362 1
448 366 1
448 367 1
448 371 1
448 372 1
448 373 1
448 398 1
448 402 1
448 403 1
448 405 1
448 409 1
448 412 1
448 416 1
448 418 1
448 421 1
448 429 1
448 436 1
448 437 1
448 445 1
448 447 1
448 450 1
448 453 1
448 455 1
448 459 1
448 470 1
448 477 1
448 483 1
448 489 1
448 494 1
448 495 1
448 507 1
448 508 1
448 511 1
448 516 1
448 526 1
448 528 1
448 531 1
448 532 1
448 533 1
448 534 1
448 540 1
448 544 1
448 547 1
448 556 1
448 563 1
448 574 1
448 586 1
448 590 1
448 599 1
448 602 1
448 613 1
448 631 1
448 632 1
448 633 1
448 638 1
448 642 1
448 646 1
448 649 1
448 653 1
448 658 1
448 668 1
448 670 1
448 672 1
448 685 1
448 687 1
448 691 1
448 692 1
448 695 1
448 696 1
448 697 1
448 698 1
449 2 1
449 11 1
449 18 1
449 20 1
449 21 1
449 22 1
449 23 1
449 25 1
449 30 1
449 33 1
449 42 1
449 44 1
449 48 1
449 49 1
449 52 1
449 67 1
449 80 1
449 86 1
449 92 1
449 102 1
449 108 1
449 113 1
449 121 1
449 123 1
449 125 1
449 133 1
449 139 1
449 140 1
449 144 1
449 155 1
449 161 1
449 169 1
449 173 1
449 183 1
449 186 1
449 192 1
449 196 1
449 199 1
449 200 1
449 202 1
449 206 1
449 214 1
449 216 1
449 223 1
449 231 1
449 238 1
449 241 1
449 243 1
449 248 1
449 249 1
449 255 1
449 264 1
449 267 1
449 270 1
449 271 1
449 272 1
449 276 1
449 283 1
449 285 1
449 289 1
449 294 1
449 302 1
449 307 1
449 316 1
449 320 1
449 321 1
449 330 1
449 331 1
449 332 1
449 335 1
449 340 1
449 342 1
449 346 1
449 355 1
449 361 1
449 366 1
449 367 1
449 368 1
449 377 1
449 382 1
449 383 1
449 384 1
449 389 1
449 405 1
449 409 1
449 420 1
449 424 1
449 438 1
449 451 1
449 454 1
449 455 1
449 459 1
449 464 1
449 465 1
449 481 1
449 483 1
449 484 1
449 495 1
449 507 1
449 509 1
449 515 1
449 517 1
449 520 1
449 522 1
449 528 1
449 533 1
449 546 1
449 557 1
449 560 1
449 577 1
449 580 1
449 583 1
449 586 1
449 598 1
449 600 1
449 604 1
449 609 1
449 619 1
449 621 1
449 628 1
449 632 1
449 637 1
449 646 1
449 656 1
449 662 1
449 678 1
449 679 1
449 684 1
449 686 1
449 688 1
449 697 1
449 698 1
449 699 1
450 5 1
450 11 1
450 17 1
450 20 1
450 28 1
450 30 1
450 34 1
450 44 1
450 54 1
450 61 1
450 63 1
450 65 1
450 67 1
450 69 1
450 81 1
450 87 1
450 91 1
450 98 1
450 107 1
450 110 1
450 121 1
450 123 1
450 125 1
450 132 1
450 140 1
450 145 1
450 165 1
450 180 1
450 184 1
450 187 1
450 191 1
450 193 1
450 202 1
450 209 1
450 210 1
450 211 1
450 214 1
450 225 1
450 227 1
450 234 1
450 239 1
450 256 1
450 267 1
450 268 1
450 277 1
450 280 1
450 289 1
450 294 1
450 305 1
450 311 1
450 315 1
450 316 1
450 325 1
450 328 1
450 333 1
450 348 1
450 353 1
450 357 1
450 360 1
450 370 1
450 377 1
450 380 1
450 383 1
450 386 1
450 397 1
450 399 1
450 401 1
450 413 1
450 415 1
450 422 1
450 423 1
450 425 1
450 434 1
450 439 1
450 445 1
450 448 1
450 468 1
450 469 1
450 477 1
450 478 1
450 485 1
450 486 1
450 487 1
450 493 1
450 499 1
450 502 1
450 513 1
450 521 1
450 530 1
450 541 1
450 547 1
450 551 1
450 559 1
450 563 1
450 568 1
450 575 1
450 588 1
450 591 1
450 595 1
450 597 1
450 598 1
450 605 1
450 606 1
450 608 1
450 615 1
450 627 1
450 635 1
450 637 1
450 639 1
450 645 1
450 647 1
450 656 1
450 664 1
450 676 1
450 677 1
450 692 1
451 3 1
451 11 1
451 17 1
451 20 1
451 21 1
451 25 1
451 29 1
451 34 1
451 43 1
451 51 1
451 58 1
451 75 1
451 78 1
451 88 1
451 91 1
451 97 1
451 100 1
451 101 1
451 110 1
451 117 1
451 125 1
451 127 1
451 128 1
451 134 1
451 138 1
451 161 1
451 169 1
451 185 1
451 187 1
451 188 1
451 202 1
451 203 1
451 210 1
451 212 1
451 216 1
451 218 1
451 220 1
451 226 1
451 229 1
451 230 1
451 231 1
451 247 1
451 250 1
451 260 1
451 264 1
451 265 1
451 268 1
451 286 1
451 287 1
451 291 1
451 301 1
451 303 1
451 306 1
451 309 1
451 310 1
451 319 1
451 323 1
451 326 1
451 330 1
451 335 1
451 338 1
451 339 1
451 342 1
451 343 1
451 348 1
451 349 1
451 355 1
451 356 1
451 358 1
451 365 1
451 367 1
451 374 1
451 380 1
451 381 1
451 387 1
451 393 1
451 395 1
451 396 1
451 397 1
451 408 1
451 413 1
451 414 1
451 421 1
451 422 1
451 429 1
451 439 1
451 443 1
451 449 1
451 456 1
451 465 1
451 468 1
451 473 1
451 478 1
451 479 1
451 481 1
451 485 1
451 492 1
451 495 1
451 503 1
451 506 1
451 512 1
451 521 1
451 522 1
451 536 1
451 539 1
451 541 1
451 542 1
451 543 1
451 547 1
451 551 1
451 558 1
451 565 1
451 574 1
451 575 1
451 579 1
451 581 1
451 584 1
451 589 1
451 593 1
451 606 1
451 612 1
451 627 1
451 629 1
451 644 1
451 657 1
451 658 1
451 666 1
451 667 1
451 668 1
451 670 1
451 674 1
451 680 1
451 681 1
451 689 1
451 691 1
451 697 1
451 699 1
452 3 1
452 5 1
452 13 1
452 16 1
452 17 1
452 21 1
452 29 1
452 34 1
452 41 1
452 42 1
452 43 1
452 44 1
452 45 1
452 46 1
452 56 1
452 57 1
452 58 1
452 61 1
452 62 1
452 64 1
452 67 1
452 70 1
452 75 1
452 77 1
452 88 1
452 90 1
452 91 1
452 92 1
452 99 1
452 100 1
452 101 1
452 102 1
452 105 1
452 109 1
452 111 1
452 116 1
452 117 1
452 119 1
452 121 1
452 122 1
452 128 1
452 134 1
452 150 1
452 152 1
452 156 1
452 159 1
452 160 1
452 166 1
452 170 1
452 174 1
452 178 1
452 180 1
452 193 1
452 197 1
452 199 1
452 205 1
452 208 1
452 214 1
452 218 1
452 223 1
452 224 1
452 230 1
452 232 1
452 236 1
452 244 1
452 245 1
452 246 1
452 250 1
452 251 1
452 254 1
452 255 1
452 257 1
452 262 1
452 275 1
452 279 1
452 283 1
452 288 1
452 290 1
452 303 1
452 308 1
452 310 1
452 316 1
452 321 1
452 325 1
452 329 1
452 337 1
452 339 1
452 346 1
452 352 1
452 359 1
452 374 1
452 376 1
452 378 1
452 385 1
452 387 1
452 388 1
452 390 1
452 393 1
452 400 1
452 410 1
452 411 1
452 433 1
452 434 1
452 446 1
452 453 1
452 455 1
452 470 1
452 473 1
452 476 1
452 481 1
452 488 1
452 492 1
452 495 1
452 505 1
452 507 1
452 510 1
452 511 1
452 512 1
452 530 1
452 534 1
452 540 1
452 549 1
452 558 1
452 569 1
452 581 1
452 585 1
452 589 1
452 590 1
452 591 1
452 594 1
452 597 1
452 605 1
452 606 1
452 616 1
452 620 1
452 622 1
452 624 1
452 625 1
452 636 1
452 637 1
452 642 1
452 649 1
452 652 1
452 663 1
452 664 1
452 669 1
452 670 1
452 674 1
452 676 1
452 687 1
452 690 1
452 694 1
452 697 1
453 1 1
453 12 1
453 22 1
453 28 1
453 35 1
453 47 1
453 51 1
453 55 1
453 56 1
453 59 1
453 66 1
453 73 1
453 74 1
453 83 1
453 84 1
453 88 1
453 92 1
453 94 1
453 102 1
453 103 1
453 111 1
453 114 1
453 116 1
453 123 1
453 135 1
453 137 1
453 143 1
453 149 1
453 155 1
453 160 1
453 166 1
453 167 1
453 170 1
453 171 1
453 173 1
453 178 1
453 184 1
453 189 1
453 190 1
453 201 1
453 208 1
453 212 1
453 216 1
453 217 1
453 218 1
453 220 1
453 222 1
453 223 1
453 237 1
453 239 1
453 242 1
453 266 1
453 267 1
453 274 1
453 286 1
453 289 1
453 290 1
453 306 1
453 312 1
453 314 1
453 319 1
453 320 1
453 321 1
453 323 1
453 331 1
453 332 1
453 333 1
453 336 1
453 340 1
453 341 1
453 345 1
453 362 1
453 365 1
453 372 1
453 379 1
453 380 1
453 383 1
453 388 1
453 389 1
453 390 1
453 401 1
453 411 1
453 414 1
453 416 1
453 418 1
453 428 1
453 430 1
453 435 1
453 447 1
453 448 1
453 452 1
453 467 1
453 472 1
453 473 1
453 478 1
453 479 1
453 483 1
453 486 1
453 493 1
453 499 1
453 503 1
453 507 1
453 509 1
453 510 1
453 511 1
453 516 1
453 517 1
453 518 1
453 526 1
453 528 1
453 539 1
453 545 1
453 551 1
453 552 1
453 556 1
453 563 1
453 569 1
453 570 1
453 574 1
453 575 1
453 577 1
453 582 1
453 586 1
453 589 1
453 590 1
453 597 1
453 599 1
453 602 1
453 604 1
453 605 1
453 606 1
453 607 1
453 609 1
453 611 1
453 617 1
453 622 1
453 626 1
453 635 1
453 638 1
453 653 1
453 662 1
453 666 1
453 673 1
453 674 1
453 676 1
453 681 1
453 685 1
453 696 1
453 697 1
453 700 1
454 2 1
454 5 1
454 13 1
454 15 1
454 22 1
454 26 1
454 32 1
454 38 1
454 39 1
454 44 1
454 54 1
454 61 1
454 71 1
454 82 1
454 85 1
454 91 1
454 94 1
454 99 1
454 101 1
454 105 1
454 112 1
454 113 1
454 116 1
454 117 1
454 127 1
454 128 1
454 129 1
454 130 1
454 131 1
454 133 1
454 134 1
454 139 1
454 140 1
454 146 1
454 156 1
454 166 1
454 176 1
454 186 1
454 187 1
454 188 1
454 194 1
454 199 1
454 205 1
454 208 1
454 211 1
454 213 1
454 215 1
454 217 1
454 224 1
454 233 1
454 242 1
454 245 1
454 246 1
454 249 1
454 254 1
454 258 1
454 259 1
454 260 1
454 269 1
454 272 1
454 274 1
454 275 1
454 283 1
454 289 1
454 291 1
454 292 1
454 297 1
454 304 1
454 307 1
454 308 1
454 316 1
454 326 1
454 327 1
454 337 1
454 339 1
454 345 1
454 360 1
454 361 1
454 364 1
454 365 1
454 374 1
454 382 1
454 388 1
454 393 1
454 396 1
454 398 1
454 401 1
454 402 1
454 417 1
454 421 1
454 430 1
454 431 1
454 432 1
454 434 1
454 437 1
454 438 1
454 439 1
454 441 1
454 449 1
454 455 1
454 458 1
454 463 1
454 465 1
454 468 1
454 469 1
454 471 1
454 478 1
454 492 1
454 505 1
454 519 1
454 527 1
454 528 1
454 532 1
454 537 1
454 545 1
454 547 1
454 549 1
454 551 1
454 553 1
454 554 1
454 561 1
454 564 1
454 566 1
454 567 1
454 575 1
454 585 1
454 588 1
454 590 1
454 597 1
454 600 1
454 601 1
454 603 1
454 609 1
454 621 1
454 625 1
454 644 1
454 654 1
454 658 1
454 659 1
454 665 1
454 668 1
454 669 1
454 675 1
454 676 1
454 679 1
454 680 1
454 684 1
454 685 1
454 690 1
455 1 1
455 8 1
455 9 1
455 20 1
455 27 1
455 29 1
455 33 1
455 35 1
455 43 1
455 45 1
455 48 1
455 52 1
455 55 1
455 60 1
455 61 1
455 68 1
455 69 1
455 73 1
455 85 1
455 91 1
455 92 1
455 98 1
455 100 1
455 101 1
455 102 1
455 110 1
455 115 1
455 117 1
455 121 1
455 122 1
455 126 1
455 130 1
455 139 1
455 146 1
455 149 1
455 151 1
455 152 1
455 156 1
455 160 1
455 162 1
455 167 1
455 202 1
455 224 1
455 233 1
455 234 1
455 236 1
455 239 1
455 242 1
455 243 1
455 261 1
455 265 1
455 273 1
455 274 1
455 280 1
455 281 1
455 282 1
455 292 1
455 294 1
455 298 1
455 299 1
455 309 1
455 316 1
455 321 1
455 323 1
455 331 1
455 332 1
455 338 1
455 349 1
455 352 1
455 353 1
455 363 1
455 369 1
455 371 1
455 375 1
455 379 1
455 380 1
455 382 1
455 383 1
455 390 1
455 399 1
455 400 1
455 402 1
455 405 1
455 410 1
455 413 1
455 416 1
455 418 1
455 419 1
455 423 1
455 428 1
455 438 1
455 443 1
455 448 1
455 449 1
455 452 1
455 454 1
455 461 1
455 474 1
455 479 1
455 495 1
455 497 1
455 502 1
455 503 1
455 507 1
455 514 1
455 518 1
455 520 1
455 523 1
455 529 1
455 533 1
455 544 1
455 547 1
455 556 1
455 561 1
455 563 1
455 568 1
455 569 1
455 572 1
455 577 1
455 578 1
455 582 1
455 584 1
455 586 1
455 587 1
455 594 1
455 600 1
455 607 1
455 622 1
455 632 1
455 634 1
455 642 1
455 647 1
455 655 1
455 656 1
455 658 1
455 669 1
455 680 1
455 681 1
455 682 1
455 688 1
455 696 1
455 697 1
455 699 1
456 5 1
456 9 1
456 13 1
456 14 1
456 20 1
456 23 1
456 24 1
456 25 1
456 48 1
456 59 1
456 65 1
456 77 1
456 78 1
456 82 1
456 89 1
456 92 1
456 100 1
456 103 1
456 105 1
456 111 1
456 112 1
456 115 1
456 117 1
456 121 1
456 128 1
456 137 1
456 144 1
456 145 1
456 150 1
456 161 1
456 162 1
456 169 1
456 173 1
456 174 1
456 178 1
456 180 1
456 183 1
456 205 1
456 206 1
456 209 1
456 219 1
456 220 1
456 226 1
456 231 1
456 234 1
456 235 1
456 239 1
456 254 1
456 259 1
456 269 1
456 273 1
456 278 1
456 288 1
456 294 1
456 310 1
456 311 1
456 312 1
456 317 1
456 335 1
456 336 1
456 343 1
456 345 1
456 346 1
456 350 1
456 351 1
456 361 1
456 368 1
456 373 1
456 377 1
456 378 1
456 379 1
456 383 1
456 400 1
456 406 1
456 409 1
456 420 1
456 425 1
456 434 1
456 436 1
456 439 1
456 451 1
456 461 1
456 465 1
456 469 1
456 480 1
456 487 1
456 502 1
456 509 1
456 521 1
456 526 1
456 530 1
456 533 1
456 543 1
456 548 1
456 549 1
456 550 1
456 560 1
456 562 1
456 578 1
456 582 1
456 588 1
456 589 1
456 594 1
456 598 1
456 607 1
456 608 1
456 609 1
456 612 1
456 613 1
456 614 1
456 616 1
456 617 1
456 619 1
456 622 1
456 627 1
456 633 1
456 638 1
456 639 1
456 640 1
456 645 1
456 650 1
456 651 1
456 667 1
456 670 1
456 679 1
456 682 1
456 687 1
456 699 1
457 1 1
457 3 1
457 12 1
457 15 1
457 19 1
457 29 1
457 31 1
457 32 1
457 39 1
457 53 1
457 60 1
457 68 1
457 69 1
457 72 1
457 88 1
457 100 1
457 103 1
457 106 1
457 110 1
457 116 1
457 118 1
457 122 1
457 123 1
457 124 1
457 128 1
457 132 1
457 144 1
457 146 1
457 147 1
457 153 1
457 167 1
457 174 1
457 186 1
457 189 1
457 196 1
457 202 1
457 213 1
457 214 1
457 221 1
457 237 1
457 247 1
457 248 1
457 251 1
457 254 1
457 266 1
457 274 1
457 277 1
457 282 1
457 283 1
457 287 1
457 289 1
457 296 1
457 299 1
457 301 1
457 302 1
457 304 1
457 309 1
457 314 1
457 317 1
457 321 1
457 322 1
457 325 1
457 327 1
457 330 1
457 332 1
457 333 1
457 336 1
457 338 1
457 339 1
457 345 1
457 350 1
457 351 1
457 352 1
457 354 1
457 355 1
457 358 1
457 361 1
457 372 1
457 380 1
457 381 1
457 389 1
457 397 1
457 402 1
457 403 1
457 404 1
457 406 1
457 410 1
457 411 1
457 418 1
457 419 1
457 421 1
457 423 1
457 425 1
457 426 1
457 430 1
457 436 1
457 442 1
457 447 1
457 462 1
457 464 1
457 469 1
457 473 1
457 478 1
457 483 1
457 489 1
457 491 1
457 494 1
457 495 1
457 498 1
457 500 1
457 507 1
457 517 1
457 522 1
457 523 1
457 524 1
457 528 1
457 534 1
457 543 1
457 545 1
457 550 1
457 552 1
457 573 1
457 580 1
457 582 1
457 583 1
457 592 1
457 599 1
457 601 1
457 604 1
457 606 1
457 610 1
457 614 1
457 617 1
457 628 1
457 635 1
457 642 1
457 646 1
457 649 1
457 657 1
457 666 1
457 673 1
457 677 1
457 684 1
457 685 1
457 687 1
457 689 1
457 691 1
457 693 1
457 696 1
457 697 1
458 1 1
458 2 1
458 4 1
458 7 1
458 10 1
458 11 1
458 18 1
458 27 1
458 28 1
458 31 1
458 37 1
458 40 1
458 43 1
458 44 1
458 50 1
458 51 1
458 54 1
458 55 1
458 59 1
458 63 1
458 69 1
458 74 1
458 78 1
458 82 1
458 88 1
458 89 1
458 98 1
458 101 1
458 103 1
458 111 1
458 116 1
458 118 1
458 131 1
458 136 1
458 143 1
458 150 1
458 155 1
458 158 1
458 159 1
458 160 1
458 165 1
458 167 1
458 168 1
458 169 1
458 171 1
458 182 1
458 190 1
458 191 1
458 194 1
458 195 1
458 200 1
458 201 1
458 207 1
458 210 1
458 212 1
458 213 1
458 219 1
458 226 1
458 229 1
458 234 1
458 244 1
458 246 1
458 248 1
458 254 1
458 255 1
458 257 1
458 260 1
458 261 1
458 275 1
458 278 1
458 288 1
458 304 1
458 307 1
458 317 1
458 324 1
458 325 1
458 327 1
458 330 1
458 331 1
458 334 1
458 341 1
458 349 1
458 358 1
458 366 1
458 371 1
458 372 1
458 375 1
458 380 1
458 388 1
458 390 1
458 408 1
458 411 1
458 412 1
458 414 1
458 418 1
458 420 1
458 422 1
458 429 1
458 435 1
458 440 1
458 444 1
458 446 1
458 454 1
458 461 1
458 465 1
458 471 1
458 481 1
458 485 1
458 487 1
458 491 1
458 494 1
458 508 1
458 515 1
458 521 1
458 528 1
458 533 1
458 540 1
458 546 1
458 547 1
458 552 1
458 555 1
458 559 1
458 564 1
458 579 1
458 590 1
458 594 1
458 603 1
458 607 1
458 620 1
458 627 1
458 628 1
458 646 1
458 647 1
458 651 1
458 655 1
458 667 1
458 680 1
458 698 1
458 700 1
459 2 1
459 5 1
459 8 1
459 15 1
459 16 1
459 20 1
459 24 1
459 31 1
459 52 1
459 66 1
459 87 1
459 88 1
459 89 1
459 90 1
459 104 1
459 105 1
459 108 1
459 109 1
459 112 1
459 118 1
459 132 1
459 134 1
459 137 1
459 138 1
459 140 1
459 141 1
459 142 1
459 169 1
459 176 1
459 184 1
459 194 1
459 200 1
459 205 1
459 211 1
459 215 1
459 219 1
459 223 1
459 228 1
459 231 1
459 235 1
459 244 1
459 247 1
459 249 1
459 250 1
459 258 1
459 259 1
459 264 1
459 277 1
459 278 1
459 279 1
459 285 1
459 286 1
459 288 1
459 292 1
459 296 1
459 303 1
459 309 1
459 331 1
459 332 1
459 335 1
459 338 1
459 349 1
459 352 1
459 357 1
459 360 1
459 363 1
459 372 1
459 376 1
459 378 1
459 383 1
459 386 1
459 398 1
459 401 1
459 412 1
459 416 1
459 424 1
459 425 1
459 426 1
459 428 1
459 429 1
459 442 1
459 448 1
459 449 1
459 463 1
459 464 1
459 466 1
459 469 1
459 476 1
459 477 1
459 486 1
459 492 1
459 497 1
459 500 1
459 503 1
459 507 1
459 521 1
459 532 1
459 543 1
459 548 1
459 552 1
459 553 1
459 555 1
459 557 1
459 558 1
459 569 1
459 570 1
459 572 1
459 573 1
459 575 1
459 577 1
459 579 1
459 587 1
459 588 1
459 589 1
459 594 1
459 595 1
459 602 1
459 603 1
459 604 1
459 609 1
459 615 1
459 648 1
459 656 1
459 659 1
459 663 1
459 664 1
459 669 1
459 671 1
459 681 1
459 687 1
459 690 1
459 696 1
460 7 1
460 9 1
460 19 1
460 20 1
460 21 1
460 24 1
460 34 1
460 41 1
460 48 1
460 52 1
460 53 1
460 63 1
460 66 1
460 70 1
460 83 1
460 86 1
460 109 1
460 113 1
460 117 1
460 123 1
460 126 1
460 131 1
460 134 1
460 136 1
460 137 1
460 138 1
460 140 1
460 142 1
460 145 1
460 147 1
460 154 1
460 165 1
460 168 1
460 170 1
460 171 1
460 176 1
460 185 1
460 186 1
460 188 1
460 196 1
460 197 1
460 199 1
460 203 1
460 214 1
460 219 1
460 220 1
460 222 1
460 224 1
460 227 1
460 228 1
460 231 1
460 232 1
460 236 1
460 248 1
460 250 1
460 255 1
460 266 1
460 267 1
460 268 1
460 270 1
460 271 1
460 279 1
460 281 1
460 288 1
460 293 1
460 296 1
460 299 1
460 305 1
460 313 1
460 314 1
460 316 1
460 320 1
460 327 1
460 329 1
460 332 1
460 340 1
460 348 1
460 353 1
460 356 1
460 362 1
460 366 1
460 367 1
460 371 1
460 387 1
460 388 1
460 399 1
460 417 1
460 419 1
460 425 1
460 428 1
460 462 1
460 467 1
460 468 1
460 475 1
460 476 1
460 480 1
460 482 1
460 490 1
460 492 1
460 493 1
460 498 1
460 500 1
460 504 1
460 505 1
460 515 1
460 523 1
460 525 1
460 529 1
460 530 1
460 533 1
460 534 1
460 541 1
460 563 1
460 566 1
460 578 1
460 584 1
460 586 1
460 588 1
460 594 1
460 595 1
460 597 1
460 598 1
460 611 1
460 616 1
460 621 1
460 631 1
460 633 1
460 637 1
460 640 1
460 643 1
460 652 1
460 655 1
460 657 1
460 659 1
460 661 1
460 669 1
460 671 1
460 684 1
460 692 1
460 697 1
461 1 1
461 4 1
461 13 1
461 15 1
461 20 1
461 27 1
461 31 1
461 38 1
461 42 1
461 44 1
461 49 1
461 58 1
461 70 1
461 76 1
461 79 1
461 81 1
461 84 1
461 94 1
461 104 1
461 105 1
461 110 1
461 122 1
461 127 1
461 128 1
461 133 1
461 141 1
461 155 1
461 161 1
461 179 1
461 181 1
461 183 1
461 191 1
461 192 1
461 193 1
461 204 1
461 208 1
461 210 1
461 219 1
461 221 1
461 230 1
461 231 1
461 232 1
461 243 1
461 248 1
461 262 1
461 267 1
461 281 1
461 282 1
461 284 1
461 285 1
461 286 1
461 290 1
461 292 1
461 296 1
461 297 1
461 298 1
461 300 1
461 308 1
461 312 1
461 314 1
461 326 1
461 328 1
461 345 1
461 352 1
461 356 1
461 358 1
461 361 1
461 363 1
461 365 1
461 373 1
461 375 1
461 376 1
461 377 1
461 381 1
461 391 1
461 403 1
461 404 1
461 405 1
461 409 1
461 410 1
461 414 1
461 424 1
461 431 1
461 436 1
461 455 1
461 456 1
461 458 1
461 463 1
461 466 1
461 474 1
461 479 1
461 482 1
461 484 1
461 486 1
461 488 1
461 489 1
461 492 1
461 494 1
461 496 1
461 509 1
461 516 1
461 531 1
461 544 1
461 546 1
461 548 1
461 555 1
461 556 1
461 558 1
461 560 1
461 563 1
461 573 1
461 574 1
461 576 1
461 581 1
461 599 1
461 603 1
461 612 1
461 615 1
461 623 1
461 627 1
461 628 1
461 634 1
461 635 1
461 640 1
461 646 1
461 664 1
461 665 1
461 666 1
461 672 1
461 689 1
461 695 1
461 698 1
462 3 1
462 14 1
462 19 1
462 20 1
462 23 1
462 26 1
462 38 1
462 39 1
462 44 1
462 52 1
462 54 1
462 59 1
462 65 1
462 75 1
462 83 1
462 86 1
462 91 1
462 94 1
462 95 1
462 99 1
462 101 1
462 113 1
462 114 1
462 115 1
462 121 1
462 123 1
462 126 1
462 128 1
462 129 1
462 133 1
462 135 1
462 139 1
462 144 1
462 161 1
462 165 1
462 178 1
462 181 1
462 183 1
462 186 1
462 188 1
462 195 1
462 198 1
462 205 1
462 210 1
462 218 1
462 225 1
462 228 1
462 230 1
462 237 1
462 243 1
462 249 1
462 252 1
462 253 1
462 263 1
462 265 1
462 269 1
462 272 1
462 287 1
462 301 1
462 304 1
462 317 1
462 327 1
462 329 1
462 330 1
462 335 1
462 343 1
462 346 1
462 354 1
462 359 1
462 362 1
462 371 1
462 375 1
462 381 1
462 384 1
462 392 1
462 399 1
462 403 1
462 417 1
462 418 1
462 423 1
462 432 1
462 436 1
462 437 1
462 442 1
462 443 1
462 457 1
462 460 1
462 463 1
462 464 1
462 467 1
462 470 1
462 481 1
462 489 1
462 490 1
462 500 1
462 506 1
462 507 1
462 511 1
462 514 1
462 520 1
462 541 1
462 546 1
462 552 1
462 553 1
462 559 1
462 580 1
462 592 1
462 595 1
462 596 1
462 599 1
462 615 1
462 619 1
462 632 1
462 641 1
462 647 1
462 648 1
462 650 1
462 651 1
462 659 1
462 660 1
462 665 1
462 670 1
462 679 1
462 682 1
462 683 1
462 692 1
462 696 1
463 3 1
463 10 1
463 23 1
463 31 1
463 32 1
463 34 1
463 40 1
463 44 1
463 45 1
463 49 1
463 50 1
463 54 1
463 55 1
463 56 1
463 57 1
463 65 1
463 72 1
463 77 1
463 78 1
463 89 1
463 91 1
463 99 1
463 100 1
463 102 1
463 118 1
463 120 1
463 129 1
463 130 1
463 140 1
463 162 1
463 165 1
463 176 1
463 177 1
463 179 1
463 188 1
463 199 1
463 202 1
463 210 1
463 215 1
463 217 1
463 221 1
463 234 1
463 235 1
463 238 1
463 241 1
463 242 1
463 251 1
463 259 1
463 263 1
463 277 1
463 280 1
463 285 1
463 296 1
463 305 1
463 306 1
463 308 1
463 313 1
463 314 1
463 321 1
463 323 1
463 328 1
463 332 1
463 338 1
463 344 1
463 346 1
463 347 1
463 355 1
463 358 1
463 363 1
463 380 1
463 386 1
463 397 1
463 402 1
463 404 1
463 406 1
463 408 1
463 413 1
463 416 1
463 419 1
463 422 1
463 424 1
463 439 1
463 454 1
463 459 1
463 461 1
463 462 1
463 465 1
463 470 1
463 475 1
463 486 1
463 488 1
463 490 1
463 499 1
463 510 1
463 511 1
463 519 1
463 524 1
463 526 1
463 528 1
463 536 1
463 538 1
463 539 1
463 544 1
463 551 1
463 555 1
463 563 1
463 570 1
463 579 1
463 583 1
463 587 1
463 590 1
463 591 1
463 605 1
463 614 1
463 622 1
463 626 1
463 627 1
463 639 1
463 646 1
463 651 1
463 663 1
463 673 1
463 675 1
463 681 1
463 684 1
463 688 1
463 699 1
464 8 1
464 9 1
464 15 1
464 22 1
464 28 1
464 32 1
464 36 1
464 43 1
464 44 1
464 45 1
464 47 1
464 48 1
464 55 1
464 56 1
464 61 1
464 66 1
464 67 1
464 71 1
464 74 1
464 75 1
464 76 1
464 78 1
464 80 1
464 84 1
464 96 1
464 97 1
464 100 1
464 105 1
464 112 1
464 115 1
464 123 1
464 126 1
464 138 1
464 141 1
464 149 1
464 152 1
464 165 1
464 174 1
464 179 1
464 182 1
464 184 1
464 185 1
464 189 1
464 192 1
464 202 1
464 217 1
464 219 1
464 221 1
464 223 1
464 229 1
464 230 1
464 234 1
464 245 1
464 253 1
464 260 1
464 262 1
464 264 1
464 267 1
464 268 1
464 272 1
464 278 1
464 288 1
464 289 1
464 290 1
464 294 1
464 295 1
464 296 1
464 310 1
464 315 1
464 316 1
464 324 1
464 325 1
464 330 1
464 335 1
464 339 1
464 341 1
464 347 1
464 353 1
464 355 1
464 360 1
464 361 1
464 362 1
464 365 1
464 367 1
464 371 1
464 382 1
464 397 1
464 404 1
464 408 1
464 413 1
464 415 1
464 423 1
464 426 1
464 431 1
464 442 1
464 446 1
464 449 1
464 457 1
464 459 1
464 462 1
464 468 1
464 480 1
464 488 1
464 490 1
464 494 1
464 509 1
464 510 1
464 511 1
464 520 1
464 528 1
464 529 1
464 531 1
464 544 1
464 549 1
464 555 1
464 556 1
464 558 1
464 561 1
464 565 1
464 571 1
464 585 1
464 586 1
464 589 1
464 599 1
464 605 1
464 608 1
464 620 1
464 627 1
464 633 1
464 635 1
464 642 1
464 645 1
464 657 1
464 662 1
464 665 1
464 666 1
464 670 1
464 679 1
464 682 1
464 689 1
464 690 1
464 694 1
464 695 1
465 5 1
465 7 1
465 10 1
465 16 1
465 18 1
465 23 1
465 29 1
465 30 1
465 31 1
465 37 1
465 41 1
465 42 1
465 43 1
465 45 1
465 46 1
465 51 1
465 58 1
465 60 1
465 67 1
465 75 1
465 80 1
465 81 1
465 83 1
465 89 1
465 98 1
465 112 1
465 134 1
465 149 1
465 152 1
465 157 1
465 160 1
465 173 1
465 178 1
465 181 1
465 184 1
465 192 1
465 194 1
465 197 1
465 198 1
465 200 1
465 203 1
465 206 1
465 210 1
465 220 1
465 221 1
465 223 1
465 226 1
465 227 1
465 230 1
465 236 1
465 245 1
465 246 1
465 252 1
465 254 1
465 257 1
465 263 1
465 267 1
465 273 1
465 278 1
465 282 1
465 283 1
465 293 1
465 297 1
465 301 1
465 309 1
465 312 1
465 315 1
465 319 1
465 323 1
465 327 1
465 329 1
465 336 1
465 341 1
465 343 1
465 344 1
465 362 1
465 364 1
465 367 1
465 368 1
465 371 1
465 375 1
465 376 1
465 377 1
465 386 1
465 389 1
465 396 1
465 400 1
465 411 1
465 413 1
465 414 1
465 423 1
465 431 1
465 436 1
465 437 1
465 449 1
465 451 1
465 454 1
465 456 1
465 458 1
465 463 1
465 468 1
465 469 1
465 471 1
465 479 1
465 484 1
465 496 1
465 510 1
465 515 1
465 519 1
465 522 1
465 528 1
465 531 1
465 532 1
465 535 1
465 537 1
465 542 1
465 545 1
465 556 1
465 563 1
465 568 1
465 572 1
465 574 1
465 582 1
465 586 1
465 592 1
465 594 1
465 596 1
465 597 1
465 601 1
465 602 1
465 603 1
465 604 1
465 605 1
465 608 1
465 609 1
465 610 1
465 611 1
465 620 1
465 627 1
465 628 1
465 630 1
465 641 1
465 652 1
465 654 1
465 655 1
465 668 1
465 670 1
465 675 1
465 682 1
465 684 1
465 691 1
466 1 1
466 7 1
466 11 1
466 15 1
466 20 1
466 23 1
466 24 1
466 25 1
466 30 1
466 34 1
466 35 1
466 37 1
466 40 1
466 41 1
466 45 1
466 55 1
466 58 1
466 63 1
466 66 1
466 68 1
466 69 1
466 77 1
466 81 1
466 83 1
466 86 1
466 88 1
466 89 1
466 91 1
466 92 1
466 94 1
466 95 1
466 99 1
466 100 1
466 110 1
466 114 1
466 116 1
466 124 1
466 125 1
466 126 1
466 131 1
466 135 1
466 138 1
466 140 1
466 143 1
466 152 1
466 161 1
466 162 1
466 163 1
466 165 1
466 166 1
466 167 1
466 168 1
466 176 1
466 178 1
466 186 1
466 199 1
466 204 1
466 208 1
466 217 1
466 219 1
466 220 1
466 221 1
466 236 1
466 250 1
466 251 1
466 252 1
466 269 1
466 271 1
466 275 1
466 278 1
466 282 1
466 284 1
466 287 1
466 300 1
466 301 1
466 306 1
466 308 1
466 319 1
466 326 1
466 338 1
466 348 1
466 350 1
466 353 1
466 355 1
466 357 1
466 361 1
466 363 1
466 365 1
466 366 1
466 374 1
466 378 1
466 383 1
466 384 1
466 392 1
466 399 1
466 411 1
466 413 1
466 415 1
466 419 1
466 428 1
466 431 1
466 434 1
466 437 1
466 439 1
466 459 1
466 461 1
466 470 1
466 489 1
466 491 1
466 494 1
466 495 1
466 499 1
466 505 1
466 508 1
466 513 1
466 516 1
466 523 1
466 529 1
466 530 1
466 540 1
466 551 1
466 552 1
466 553 1
466 557 1
466 564 1
466 565 1
466 583 1
466 588 1
466 589 1
466 591 1
466 596 1
466 601 1
466 611 1
466 612 1
466 615 1
466 616 1
466 622 1
466 623 1
466 634 1
466 641 1
466 644 1
466 647 1
466 650 1
466 658 1
466 659 1
466 662 1
466 670 1
466 672 1
466 684 1
466 686 1
467 6 1
467 10 1
467 13 1
467 19 1
467 26 1
467 29 1
467 32 1
467 38 1
467 39 1
467 41 1
467 45 1
467 47 1
467 48 1
467 50 1
467 52 1
467 63 1
467 66 1
467 67 1
467 69 1
467 72 1
467 73 1
467 86 1
467 89 1
467 90 1
467 95 1
467 101 1
467 106 1
467 111 1
467 115 1
467 117 1
467 123 1
467 125 1
467 130 1
467 131 1
467 133 1
467 136 1
467 137 1
467 142 1
467 144 1
467 147 1
467 154 1
467 158 1
467 159 1
467 164 1
467 165 1
467 168 1
467 178 1
467 187 1
467 192 1
467 200 1
467 201 1
467 205 1
467 209 1
467 233 1
467 241 1
467 243 1
467 244 1
467 252 1
467 253 1
467 254 1
467 255 1
467 268 1
467 271 1
467 274 1
467 277 1
467 278 1
467 279 1
467 287 1
467 291 1
467 292 1
467 318 1
467 319 1
467 326 1
467 335 1
467 344 1
467 351 1
467 352 1
467 353 1
467 360 1
467 361 1
467 365 1
467 369 1
467 370 1
467 372 1
467 388 1
467 389 1
467 394 1
467 397 1
467 398 1
467 401 1
467 409 1
467 411 1
467 413 1
467 422 1
467 430 1
467 431 1
467 434 1
467 437 1
467 439 1
467 440 1
467 453 1
467 460 1
467 462 1
467 475 1
467 476 1
467 480 1
467 484 1
467 487 1
467 491 1
467 493 1
467 501 1
467 505 1
467 515 1
467 521 1
467 524 1
467 537 1
467 538 1
467 547 1
467 555 1
467 559 1
467 560 1
467 562 1
467 570 1
467 577 1
467 583 1
467 585 1
467 586 1
467 602 1
467 606 1
467 611 1
467 612 1
467 625 1
467 629 1
467 630 1
467 633 1
467 634 1
467 635 1
467 641 1
467 643 1
467 644 1
467 648 1
467 651 1
467 663 1
467 672 1
467 674 1
467 684 1
467 685 1
467 687 1
467 689 1
467 691 1
468 1 1
468 5 1
468 10 1
468 15 1
468 18 1
468 29 1
468 41 1
468 43 1
468 48 1
468 52 1
468 64 1
468 69 1
468 71 1
468 72 1
468 75 1
468 80 1
468 87 1
468 91 1
468 97 1
468 100 1
468 101 1
468 112 1
468 140 1
468 142 1
468 144 1
468 146 1
468 164 1
468 170 1
468 171 1
468 172 1
468 174 1
468 181 1
468 182 1
468 185 1
468 204 1
468 205 1
468 206 1
468 207 1
468 208 1
468 211 1
468 221 1
468 223 1
468 226 1
468 229 1
468 231 1
468 233 1
468 234 1
468 237 1
468 239 1
468 242 1
468 248 1
468 269 1
468 270 1
468 281 1
468 283 1
468 288 1
468 289 1
468 302 1
468 305 1
468 311 1
468 321 1
468 323 1
468 324 1
468 326 1
468 331 1
468 336 1
468 339 1
468 344 1
468 347 1
468 350 1
468 363 1
468 366 1
468 371 1
468 400 1
468 406 1
468 414 1
468 422 1
468 427 1
468 428 1
468 432 1
468 438 1
468 442 1
468 447 1
468 450 1
468 451 1
468 454 1
468 460 1
468 464 1
468 465 1
468 470 1
468 472 1
468 476 1
468 481 1
468 483 1
468 488 1
468 492 1
468 501 1
468 502 1
468 512 1
468 517 1
468 522 1
468 525 1
468 530 1
468 535 1
468 541 1
468 544 1
468 547 1
468 552 1
468 553 1
468 563 1
468 569 1
468 573 1
468 575 1
468 576 1
468 577 1
468 579 1
468 582 1
468 591 1
468 596 1
468 598 1
468 610 1
468 622 1
468 626 1
468 627 1
468 630 1
468 632 1
468 634 1
468 635 1
468 636 1
468 639 1
468 640 1
468 645 1
468 646 1
468 660 1
468 664 1
468 670 1
468 671 1
468 672 1
468 678 1
468 688 1
468 693 1
468 697 1
469 11 1
469 17 1
469 24 1
469 27 1
469 38 1
469 41 1
469 46 1
469 47 1
469 54 1
469 60 1
469 63 1
469 67 1
469 71 1
469 74 1
469 87 1
469 90 1
469 121 1
469 122 1
469 123 1
469 127 1
469 129 1
469 133 1
469 137 1
469 139 1
469 140 1
469 147 1
469 148 1
469 149 1
469 156 1
469 157 1
469 164 1
469 165 1
469 170 1
469 172 1
469 174 1
469 175 1
469 177 1
469 179 1
469 181 1
469 183 1
469 184 1
469 188 1
469 189 1
469 190 1
469 191 1
469 197 1
469 205 1
469 206 1
469 212 1
469 221 1
469 227 1
469 231 1
469 235 1
469 238 1
469 241 1
469 243 1
469 245 1
469 249 1
469 254 1
469 271 1
469 283 1
469 286 1
469 291 1
469 294 1
469 297 1
469 302 1
469 306 1
469 311 1
469 320 1
469 324 1
469 326 1
469 334 1
469 338 1
469 340 1
469 350 1
469 362 1
469 364 1
469 367 1
469 369 1
469 373 1
469 374 1
469 379 1
469 381 1
469 382 1
469 385 1
469 393 1
469 398 1
469 400 1
469 402 1
469 424 1
469 426 1
469 427 1
469 428 1
469 430 1
469 440 1
469 441 1
469 446 1
469 450 1
469 454 1
469 456 1
469 457 1
469 459 1
469 465 1
469 474 1
469 475 1
469 476 1
469 477 1
469 480 1
469 481 1
469 484 1
469 486 1
469 488 1
469 490 1
469 492 1
469 493 1
469 494 1
469 507 1
469 527 1
469 528 1
469 535 1
469 536 1
469 540 1
469 545 1
469 547 1
469 548 1
469 555 1
469 556 1
469 558 1
469 559 1
469 560 1
469 565 1
469 567 1
469 575 1
469 585 1
469 590 1
469 591 1
469 605 1
469 607 1
469 611 1
469 614 1
469 615 1
469 616 1
469 620 1
469 621 1
469 624 1
469 631 1
469 634 1
469 642 1
469 659 1
469 663 1
469 665 1
469 671 1
469 673 1
469 675 1
469 678 1
469 688 1
469 690 1
469 695 1
469 697 1
469 698 1
470 9 1
470 12 1
470 14 1
470 18 1
470 28 1
470 33 1
470 40 1
470 55 1
470 65 1
470 74 1
470 78 1
470 79 1
470 84 1
470 87 1
470 94 1
470 100 1
470 106 1
470 110 1
470 117 1
470 119 1
470 122 1
470 133 1
470 143 1
470 148 1
470 159 1
470 160 1
470 161 1
470 163 1
470 165 1
470 175 1
470 182 1
470 189 1
470 190 1
470 193 1
470 200 1
470 204 1
470 206 1
470 210 1
470 217 1
470 221 1
470 225 1
470 231 1
470 232 1
470 239 1
470 247 1
470 250 1
470 253 1
470 255 1
470 257 1
470 258 1
470 259 1
470 270 1
470 275 1
470 282 1
470 287 1
470 290 1
470 291 1
470 294 1
470 303 1
470 309 1
470 314 1
470 318 1
470 331 1
470 358 1
470 365 1
470 366 1
470 373 1
470 380 1
470 390 1
470 398 1
470 400 1
470 403 1
470 406 1
470 416 1
470 424 1
470 428 1
470 429 1
470 432 1
470 435 1
470 448 1
470 452 1
470 462 1
470 463 1
470 466 1
470 468 1
470 475 1
470 480 1
470 494 1
470 503 1
470 505 1
470 507 1
470 509 1
470 512 1
470 514 1
470 518 1
470 526 1
470 528 1
470 536 1
470 540 1
470 543 1
470 544 1
470 547 1
470 548 1
470 552 1
470 559 1
470 560 1
470 566 1
470 571 1
470 573 1
470 575 1
470 585 1
470 588 1
470 592 1
470 599 1
470 602 1
470 606 1
470 613 1
470 614 1
470 615 1
470 620 1
470 628 1
470 634 1
470 638 1
470 647 1
470 648 1
470 650 1
470 652 1
470 653 1
470 657 1
470 658 1
470 663 1
470 672 1
470 677 1
470 688 1
470 694 1
470 696 1
470 697 1
471 2 1
471 7 1
471 10 1
471 18 1
471 21 1
471 22 1
471 26 1
471 27 1
471 31 1
471 37 1
471 38 1
471 41 1
471 43 1
471 46 1
471 47 1
471 53 1
471 66 1
471 68 1
471 71 1
471 74 1
471 75 1
471 80 1
471 88 1
471 90 1
471 91 1
471 93 1
471 95 1
471 102 1
471 107 1
471 111 1
471 113 1
471 116 1
471 121 1
471 122 1
471 136 1
471 137 1
471 143 1
471 146 1
471 149 1
471 150 1
471 152 1
471 153 1
471 161 1
471 164 1
471 172 1
471 174 1
471 179 1
471 188 1
471 193 1
471 198 1
471 199 1
471 202 1
471 204 1
471 208 1
471 212 1
471 214 1
471 215 1
471 231 1
471 232 1
471 238 1
471 258 1
471 265 1
471 272 1
471 274 1
471 275 1
471 280 1
471 284 1
471 285 1
471 291 1
471 295 1
471 296 1
471 304 1
471 305 1
471 308 1
471 310 1
471 312 1
471 313 1
471 317 1
471 320 1
471 328 1
471 329 1
471 333 1
471 337 1
471 338 1
471 342 1
471 343 1
471 346 1
471 347 1
471 348 1
471 356 1
471 362 1
471 378 1
471 381 1
471 388 1
471 394 1
471 397 1
471 411 1
471 414 1
471 425 1
471 426 1
471 431 1
471 434 1
471 454 1
471 458 1
471 465 1
471 472 1
471 474 1
471 481 1
471 490 1
471 492 1
471 494 1
471 498 1
471 502 1
471 505 1
471 507 1
471 513 1
471 514 1
471 517 1
471 532 1
471 533 1
471 534 1
471 537 1
471 542 1
471 544 1
471 549 1
471 550 1
471 551 1
471 555 1
471 558 1
471 563 1
471 568 1
471 572 1
471 574 1
471 580 1
471 588 1
471 592 1
471 595 1
471 597 1
471 598 1
471 605 1
471 606 1
471 616 1
471 619 1
471 620 1
471 625 1
471 633 1
471 641 1
471 642 1
471 654 1
471 655 1
471 677 1
471 687 1
471 698 1
471 699 1
472 3 1
472 17 1
472 24 1
472 31 1
472 40 1
472 42 1
472 43 1
472 44 1
472 47 1
472 52 1
472 61 1
472 76 1
472 78 1
472 87 1
472 101 1
472 107 1
472 115 1
472 117 1
472 121 1
472 134 1
472 138 1
472 141 1
472 142 1
472 146 1
472 147 1
472 148 1
472 155 1
472 157 1
472 159 1
472 175 1
472 186 1
472 188 1
472 191 1
472 202 1
472 210 1
472 213 1
472 216 1
472 217 1
472 223 1
472 232 1
472 233 1
472 237 1
472 240 1
472 242 1
472 244 1
472 249 1
472 252 1
472 254 1
472 257 1
472 265 1
472 269 1
472 274 1
472 283 1
472 285 1
472 294 1
472 295 1
472 314 1
472 318 1
472 319 1
472 320 1
472 323 1
472 328 1
472 329 1
472 331 1
472 337 1
472 348 1
472 356 1
472 360 1
472 363 1
472 365 1
472 367 1
472 368 1
472 369 1
472 383 1
472 394 1
472 400 1
472 401 1
472 407 1
472 408 1
472 413 1
472 417 1
472 418 1
472 419 1
472 426 1
472 427 1
472 433 1
472 434 1
472 439 1
472 440 1
472 447 1
472 453 1
472 468 1
472 471 1
472 477 1
472 480 1
472 486 1
472 492 1
472 496 1
472 505 1
472 506 1
472 508 1
472 509 1
472 522 1
472 526 1
472 528 1
472 532 1
472 533 1
472 537 1
472 543 1
472 544 1
472 549 1
472 553 1
472 554 1
472 559 1
472 563 1
472 564 1
472 570 1
472 574 1
472 590 1
472 604 1
472 611 1
472 613 1
472 614 1
472 625 1
472 626 1
472 637 1
472 642 1
472 649 1
472 660 1
472 666 1
472 670 1
472 671 1
472 679 1
472 681 1
472 684 1
472 685 1
472 690 1
472 691 1
472 692 1
472 699 1
472 700 1
473 4 1
473 6 1
473 18 1
473 20 1
473 24 1
473 28 1
473 32 1
473 39 1
473 43 1
473 45 1
473 50 1
473 54 1
473 64 1
473 71 1
473 72 1
473 75 1
473 76 1
473 86 1
473 87 1
473 100 1
473 102 1
473 104 1
473 106 1
473 107 1
473 109 1
473 110 1
473 113 1
473 123 1
473 125 1
473 126 1
473 127 1
473 129 1
473 143 1
473 146 1
473 147 1
473 154 1
473 156 1
473 157 1
473 159 1
473 176 1
473 186 1
473 189 1
473 192 1
473 199 1
473 200 1
473 201 1
473 205 1
473 208 1
473 214 1
473 223 1
473 225 1
473 230 1
473 241 1
473 274 1
473 277 1
473 284 1
473 292 1
473 294 1
473 297 1
473 299 1
473 301 1
473 302 1
473 303 1
473 306 1
473 314 1
473 320 1
473 326 1
473 333 1
473 335 1
473 336 1
473 341 1
473 342 1
473 343 1
473 346 1
473 358 1
473 360 1
473 362 1
473 375 1
473 376 1
473 378 1
473 379 1
473 385 1
473 395 1
473 399 1
473 402 1
473 404 1
473 409 1
473 410 1
473 413 1
473 420 1
473 421 1
473 427 1
473 429 1
473 431 1
473 437 1
473 440 1
473 451 1
473 452 1
473 453 1
473 457 1
473 477 1
473 478 1
473 498 1
473 507 1
473 509 1
473 512 1
473 520 1
473 522 1
473 533 1
473 535 1
473 538 1
473 539 1
473 546 1
473 553 1
473 570 1
473 575 1
473 584 1
473 587 1
473 588 1
473 590 1
473 591 1
473 592 1
473 594 1
473 609 1
473 611 1
473 612 1
473 617 1
473 618 1
473 623 1
473 628 1
473 629 1
473 634 1
473 646 1
473 650 1
473 651 1
473 652 1
473 661 1
473 663 1
473 664 1
473 665 1
473 671 1
473 672 1
473 675 1
473 676 1
473 677 1
473 684 1
474 4 1
474 10 1
474 13 1
474 18 1
474 21 1
474 24 1
474 28 1
474 29 1
474 34 1
474 39 1
474 41 1
474 44 1
474 53 1
474 55 1
474 57 1
474 58 1
474 63 1
474 67 1
474 74 1
474 78 1
474 80 1
474 84 1
474 91 1
474 92 1
474 103 1
474 109 1
474 112 1
474 119 1
474 123 1
474 131 1
474 136 1
474 137 1
474 140 1
474 141 1
474 155 1
474 157 1
474 170 1
474 177 1
474 179 1
474 182 1
474 184 1
474 188 1
474 189 1
474 191 1
474 203 1
474 212 1
474 231 1
474 252 1
474 254 1
474 257 1
474 259 1
474 262 1
474 267 1
474 271 1
474 272 1
474 278 1
474 279 1
474 287 1
474 290 1
474 291 1
474 292 1
474 297 1
474 302 1
474 311 1
474 314 1
474 326 1
474 327 1
474 333 1
474 334 1
474 337 1
474 340 1
474 355 1
474 356 1
474 359 1
474 361 1
474 363 1
474 366 1
474 371 1
474 375 1
474 379 1
474 383 1
474 384 1
474 389 1
474 391 1
474 408 1
474 410 1
474 414 1
474 423 1
474 424 1
474 428 1
474 436 1
474 439 1
474 455 1
474 461 1
474 469 1
474 471 1
474 475 1
474 477 1
474 479 1
474 482 1
474 486 1
474 489 1
474 494 1
474 497 1
474 503 1
474 519 1
474 520 1
474 523 1
474 529 1
474 531 1
474 535 1
474 536 1
474 538 1
474 540 1
474 542 1
474 543 1
474 544 1
474 548 1
474 549 1
474 550 1
474 554 1
474 557 1
474 562 1
474 564 1
474 570 1
474 571 1
474 580 1
474 582 1
474 583 1
474 591 1
474 592 1
474 593 1
474 598 1
474 600 1
474 603 1
474 605 1
474 606 1
474 607 1
474 609 1
474 611 1
474 633 1
474 647 1
474 654 1
474 655 1
474 666 1
474 685 1
474 689 1
474 693 1
474 695 1
474 700 1
475 2 1
475 12 1
475 18 1
475 35 1
475 37 1
475 47 1
475 50 1
475 54 1
475 60 1
475 61 1
475 66 1
475 89 1
475 91 1
475 95 1
475 97 1
475 98 1
475 99 1
475 106 1
475 111 1
475 116 1
475 121 1
475 126 1
475 133 1
475 134 1
475 147 1
475 151 1
475 156 1
475 158 1
475 172 1
475 179 1
475 181 1
475 193 1
475 194 1
475 196 1
475 197 1
475 202 1
475 212 1
475 217 1
475 226 1
475 232 1
475 233 1
475 235 1
475 237 1
475 241 1
475 248 1
475 257 1
475 259 1
475 279 1
475 280 1
475 281 1
475 282 1
475 297 1
475 300 1
475 305 1
475 306 1
475 309 1
475 311 1
475 313 1
475 314 1
475 315 1
475 320 1
475 330 1
475 340 1
475 341 1
475 345 1
475 346 1
475 348 1
475 356 1
475 357 1
475 365 1
475 373 1
475 376 1
475 377 1
475 388 1
475 391 1
475 394 1
475 395 1
475 396 1
475 398 1
475 404 1
475 414 1
475 415 1
475 416 1
475 424 1
475 425 1
475 428 1
475 434 1
475 435 1
475 439 1
475 460 1
475 463 1
475 467 1
475 469 1
475 470 1
475 474 1
475 479 1
475 483 1
475 487 1
475 493 1
475 494 1
475 497 1
475 499 1
475 503 1
475 506 1
475 508 1
475 519 1
475 526 1
475 531 1
475 532 1
475 536 1
475 537 1
475 541 1
475 543 1
475 545 1
475 546 1
475 561 1
475 571 1
475 572 1
475 577 1
475 580 1
475 581 1
475 585 1
475 588 1
475 595 1
475 598 1
475 600 1
475 604 1
475 608 1
475 617 1
475 618 1
475 629 1
475 640 1
475 648 1
475 649 1
475 654 1
475 660 1
475 661 1
475 673 1
475 690 1
475 692 1
475 693 1
475 698 1
475 700 1
476 6 1
476 14 1
476 20 1
476 21 1
476 33 1
476 35 1
476 36 1
476 41 1
476 52 1
476 57 1
476 64 1
476 78 1
476 86 1
476 93 1
476 95 1
476 100 1
476 109 1
476 112 1
476 115 1
476 120 1
476 125 1
476 131 1
476 135 1
476 138 1
476 143 1
476 154 1
476 156 1
476 157 1
476 161 1
476 162 1
476 168 1
476 169 1
476 171 1
476 173 1
476 175 1
476 184 1
476 188 1
476 189 1
476 191 1
476 192 1
476 209 1
476 223 1
476 226 1
476 227 1
476 242 1
476 246 1
476 253 1
476 255 1
476 263 1
476 274 1
476 275 1
476 283 1
476 286 1
476 294 1
476 299 1
476 301 1
476 309 1
476 323 1
476 324 1
476 334 1
476 338 1
476 339 1
476 344 1
476 350 1
476 353 1
476 357 1
476 361 1
476 366 1
476 372 1
476 379 1
476 382 1
476 391 1
476 393 1
476 403 1
476 415 1
476 416 1
476 432 1
476 445 1
476 446 1
476 452 1
476 459 1
476 460 1
476 467 1
476 468 1
476 469 1
476 479 1
476 480 1
476 483 1
476 487 1
476 489 1
476 491 1
476 507 1
476 513 1
476 514 1
476 525 1
476 527 1
476 529 1
476 531 1
476 537 1
476 544 1
476 546 1
476 552 1
476 564 1
476 569 1
476 571 1
476 576 1
476 577 1
476 583 1
476 586 1
476 589 1
476 590 1
476 591 1
476 599 1
476 604 1
476 605 1
476 610 1
476 614 1
476 615 1
476 620 1
476 624 1
476 631 1
476 641 1
476 642 1
476 644 1
476 645 1
476 647 1
476 650 1
476 654 1
476 666 1
476 670 1
476 678 1
476 683 1
476 687 1
476 689 1
476 691 1
476 693 1
476 698 1
476 699 1
477 4 1
477 16 1
477 19 1
477 22 1
477 29 1
477 36 1
477 41 1
477 57 1
477 76 1
477 77 1
477 79 1
477 90 1
477 98 1
477 104 1
477 115 1
477 121 1
477 131 1
477 135 1
477 142 1
477 144 1
477 148 1
477 149 1
477 150 1
477 155 1
477 159 1
477 160 1
477 169 1
477 175 1
477 178 1
477 182 1
477 184 1
477 192 1
477 194 1
477 196 1
477 208 1
477 211 1
477 212 1
477 216 1
477 222 1
477 223 1
477 227 1
477 236 1
477 237 1
477 239 1
477 241 1
477 242 1
477 244 1
477 248 1
477 263 1
477 268 1
477 270 1
477 276 1
477 277 1
477 289 1
477 290 1
477 296 1
477 302 1
477 310 1
477 316 1
477 320 1
477 323 1
477 330 1
477 332 1
477 333 1
477 334 1
477 336 1
477 337 1
477 341 1
477 344 1
477 346 1
477 352 1
477 361 1
477 376 1
477 387 1
477 392 1
477 396 1
477 400 1
477 401 1
477 403 1
477 412 1
477 416 1
477 418 1
477 422 1
477 427 1
477 429 1
477 435 1
477 436 1
477 438 1
477 439 1
477 440 1
477 447 1
477 448 1
477 450 1
477 459 1
477 469 1
477 472 1
477 473 1
477 474 1
477 478 1
477 480 1
477 485 1
477 489 1
477 490 1
477 491 1
477 495 1
477 498 1
477 501 1
477 508 1
477 510 1
477 512 1
477 517 1
477 521 1
477 526 1
477 530 1
477 532 1
477 534 1
477 535 1
477 545 1
477 549 1
477 553 1
477 554 1
477 555 1
477 558 1
477 560 1
477 569 1
477 570 1
477 582 1
477 600 1
477 605 1
477 610 1
477 615 1
477 619 1
477 631 1
477 637 1
477 647 1
477 648 1
477 652 1
477 654 1
477 655 1
477 661 1
477 670 1
477 672 1
477 679 1
477 680 1
477 681 1
477 683 1
477 687 1
477 691 1
477 700 1
478 13 1
478 18 1
478 26 1
478 32 1
478 47 1
478 59 1
478 65 1
478 67 1
478 75 1
478 77 1
478 81 1
478 84 1
478 85 1
478 91 1
478 92 1
478 93 1
478 94 1
478 116 1
478 120 1
478 124 1
478 146 1
478 150 1
478 154 1
478 160 1
478 167 1
478 169 1
478 178 1
478 180 1
478 183 1
478 194 1
478 198 1
478 199 1
478 200 1
478 202 1
478 203 1
478 208 1
478 210 1
478 216 1
478 219 1
478 229 1
478 231 1
478 235 1
478 240 1
478 257 1
478 272 1
478 278 1
478 281 1
478 290 1
478 291 1
478 296 1
478 312 1
478 318 1
478 319 1
478 334 1
478 335 1
478 339 1
478 340 1
478 341 1
478 344 1
478 352 1
478 366 1
478 369 1
478 372 1
478 379 1
478 380 1
478 394 1
478 398 1
478 402 1
478 417 1
478 422 1
478 431 1
478 434 1
478 436 1
478 440 1
478 444 1
478 450 1
478 451 1
478 453 1
478 454 1
478 457 1
478 473 1
478 477 1
478 480 1
478 484 1
478 487 1
478 489 1
478 497 1
478 502 1
478 503 1
478 517 1
478 519 1
478 524 1
478 530 1
478 531 1
478 532 1
478 533 1
478 535 1
478 540 1
478 546 1
478 547 1
478 554 1
478 557 1
478 562 1
478 564 1
478 566 1
478 570 1
478 573 1
478 575 1
478 578 1
478 579 1
478 583 1
478 599 1
478 600 1
478 602 1
478 611 1
478 615 1
478 616 1
478 619 1
478 620 1
478 622 1
478 626 1
478 627 1
478 638 1
478 639 1
478 648 1
478 653 1
478 654 1
478 656 1
478 660 1
478 665 1
478 667 1
478 671 1
478 674 1
478 677 1
478 681 1
478 686 1
478 692 1
479 5 1
479 11 1
479 12 1
479 15 1
479 22 1
479 27 1
479 29 1
479 30 1
479 34 1
479 41 1
479 43 1
479 44 1
479 46 1
479 51 1
479 62 1
479 75 1
479 76 1
479 85 1
479 87 1
479 96 1
479 103 1
479 104 1
479 111 1
479 121 1
479 124 1
479 128 1
479 131 1
479 141 1
479 147 1
479 150 1
479 152 1
479 154 1
479 156 1
479 165 1
479 166 1
479 169 1
479 170 1
479 172 1
479 174 1
479 176 1
479 179 1
479 181 1
479 187 1
479 191 1
479 195 1
479 196 1
479 198 1
479 205 1
479 207 1
479 208 1
479 212 1
479 221 1
479 222 1
479 225 1
479 228 1
479 232 1
479 233 1
479 234 1
479 239 1
479 244 1
479 248 1
479 263 1
479 270 1
479 273 1
479 285 1
479 286 1
479 288 1
479 290 1
479 291 1
479 298 1
479 301 1
479 303 1
479 306 1
479 311 1
479 315 1
479 319 1
479 322 1
479 326 1
479 336 1
479 340 1
479 347 1
479 351 1
479 354 1
479 356 1
479 358 1
479 360 1
479 361 1
479 365 1
479 367 1
479 375 1
479 376 1
479 385 1
479 386 1
479 388 1
479 394 1
479 395 1
479 406 1
479 411 1
479 418 1
479 420 1
479 433 1
479 437 1
479 438 1
479 440 1
479 451 1
479 453 1
479 455 1
479 461 1
479 465 1
479 474 1
479 475 1
479 476 1
479 488 1
479 498 1
479 499 1
479 505 1
479 510 1
479 513 1
479 515 1
479 523 1
479 526 1
479 530 1
479 536 1
479 540 1
479 547 1
479 553 1
479 556 1
479 559 1
479 560 1
479 562 1
479 565 1
479 569 1
479 574 1
479 575 1
479 595 1
479 597 1
479 599 1
479 601 1
479 602 1
479 603 1
479 609 1
479 614 1
479 617 1
479 618 1
479 623 1
479 624 1
479 631 1
479 641 1
479 642 1
479 644 1
479 645 1
479 647 1
479 652 1
479 653 1
479 655 1
479 656 1
479 663 1
479 665 1
479 667 1
479 669 1
479 672 1
479 678 1
479 682 1
479 686 1
479 690 1
479 692 1
480 4 1
480 16 1
480 17 1
480 23 1
480 28 1
480 30 1
480 36 1
480 37 1
480 38 1
480 43 1
480 50 1
480 55 1
480 57 1
480 61 1
480 64 1
480 66 1
480 67 1
480 70 1
480 75 1
480 77 1
480 80 1
480 81 1
480 83 1
480 87 1
480 89 1
480 103 1
480 104 1
480 110 1
480 121 1
480 125 1
480 128 1
480 140 1
480 144 1
480 146 1
480 150 1
480 156 1
480 157 1
480 159 1
480 161 1
480 163 1
480 166 1
480 167 1
480 171 1
480 173 1
480 176 1
480 182 1
480 192 1
480 196 1
480 197 1
480 199 1
480 200 1
480 208 1
480 218 1
480 225 1
480 227 1
480 237 1
480 242 1
480 246 1
480 249 1
480 257 1
480 258 1
480 263 1
480 264 1
480 269 1
480 273 1
480 275 1
480 284 1
480 287 1
480 305 1
480 309 1
480 311 1
480 313 1
480 316 1
480 319 1
480 320 1
480 321 1
480 324 1
480 327 1
480 329 1
480 330 1
480 337 1
480 345 1
480 354 1
480 359 1
480 361 1
480 372 1
480 375 1
480 378 1
480 379 1
480 383 1
480 401 1
480 403 1
480 413 1
480 419 1
480 420 1
480 424 1
480 428 1
480 432 1
480 433 1
480 434 1
480 445 1
480 456 1
480 460 1
480 464 1
480 467 1
480 469 1
480 470 1
480 472 1
480 476 1
480 477 1
480 478 1
480 481 1
480 482 1
480 485 1
480 487 1
480 499 1
480 501 1
480 504 1
480 505 1
480 511 1
480 515 1
480 516 1
480 517 1
480 522 1
480 534 1
480 542 1
480 548 1
480 553 1
480 554 1
480 555 1
480 562 1
480 572 1
480 574 1
480 581 1
480 583 1
480 587 1
480 599 1
480 604 1
480 606 1
480 607 1
480 617 1
480 619 1
480 620 1
480 633 1
480 636 1
480 637 1
480 640 1
480 642 1
480 647 1
480 649 1
480 652 1
480 665 1
480 680 1
480 685 1
480 696 1
481 16 1
481 29 1
481 31 1
481 37 1
481 39 1
481 42 1
481 47 1
481 51 1
481 54 1
481 56 1
481 60 1
481 61 1
481 77 1
481 88 1
481 90 1
481 96 1
481 102 1
481 104 1
481 105 1
481 107 1
481 112 1
481 117 1
481 124 1
481 125 1
481 127 1
481 129 1
481 130 1
481 133 1
481 144 1
481 154 1
481 161 1
481 168 1
481 169 1
481 173 1
481 178 1
481 183 1
481 185 1
481 191 1
481 214 1
481 216 1
481 226 1
481 230 1
481 237 1
481 247 1
481 250 1
481 251 1
481 253 1
481 261 1
481 263 1
481 270 1
481 272 1
481 280 1
481 282 1
481 305 1
481 308 1
481 309 1
481 310 1
481 311 1
481 313 1
481 315 1
481 316 1
481 321 1
481 330 1
481 331 1
481 337 1
481 339 1
481 344 1
481 346 1
481 347 1
481 350 1
481 351 1
481 358 1
481 359 1
481 363 1
481 366 1
481 369 1
481 376 1
481 377 1
481 389 1
481 393 1
481 394 1
481 396 1
481 401 1
481 405 1
481 415 1
481 422 1
481 430 1
481 435 1
481 436 1
481 447 1
481 449 1
481 451 1
481 452 1
481 458 1
481 462 1
481 468 1
481 469 1
481 471 1
481 480 1
481 483 1
481 485 1
481 495 1
481 510 1
481 517 1
481 518 1
481 524 1
481 533 1
481 546 1
481 548 1
481 557 1
481 562 1
481 572 1
481 579 1
481 581 1
481 583 1
481 587 1
481 592 1
481 608 1
481 615 1
481 630 1
481 631 1
481 636 1
481 662 1
481 663 1
481 666 1
481 669 1
481 678 1
481 682 1
481 684 1
482 2 1
482 5 1
482 11 1
482 14 1
482 16 1
482 22 1
482 33 1
482 34 1
482 36 1
482 50 1
482 51 1
482 55 1
482 67 1
482 71 1
482 72 1
482 75 1
482 89 1
482 94 1
482 97 1
482 99 1
482 101 1
482 103 1
482 110 1
482 114 1
482 128 1
482 129 1
482 130 1
482 140 1
482 146 1
482 148 1
482 152 1
482 157 1
482 166 1
482 167 1
482 168 1
482 171 1
482 176 1
482 188 1
482 194 1
482 196 1
482 197 1
482 206 1
482 216 1
482 219 1
482 220 1
482 225 1
482 226 1
482 229 1
482 234 1
482 239 1
482 242 1
482 243 1
482 247 1
482 249 1
482 250 1
482 253 1
482 254 1
482 259 1
482 266 1
482 267 1
482 271 1
482 272 1
482 274 1
482 280 1
482 281 1
482 285 1
482 288 1
482 289 1
482 295 1
482 296 1
482 299 1
482 300 1
482 304 1
482 306 1
482 307 1
482 311 1
482 312 1
482 313 1
482 321 1
482 324 1
482 325 1
482 327 1
482 335 1
482 342 1
482 346 1
482 353 1
482 365 1
482 368 1
482 371 1
482 383 1
482 385 1
482 387 1
482 388 1
482 391 1
482 396 1
482 399 1
482 402 1
482 406 1
482 412 1
482 422 1
482 424 1
482 430 1
482 434 1
482 460 1
482 461 1
482 474 1
482 480 1
482 487 1
482 506 1
482 517 1
482 522 1
482 525 1
482 531 1
482 535 1
482 543 1
482 549 1
482 550 1
482 551 1
482 553 1
482 556 1
482 559 1
482 561 1
482 562 1
482 563 1
482 564 1
482 565 1
482 566 1
482 588 1
482 593 1
482 596 1
482 598 1
482 618 1
482 632 1
482 638 1
482 646 1
482 649 1
482 650 1
482 651 1
482 664 1
482 665 1
482 669 1
482 677 1
482 680 1
482 683 1
482 689 1
482 694 1
483 2 1
483 9 1
483 10 1
483 17 1
483 20 1
483 44 1
483 45 1
483 48 1
483 53 1
483 56 1
483 58 1
483 65 1
483 74 1
483 75 1
483 83 1
483 84 1
483 87 1
483 88 1
483 89 1
483 93 1
483 95 1
483 98 1
483 102 1
483 103 1
483 108 1
483 109 1
483 114 1
483 121 1
483 127 1
483 128 1
483 132 1
483 136 1
483 138 1
483 151 1
483 156 1
483 159 1
483 160 1
483 161 1
483 162 1
483 164 1
483 168 1
483 172 1
483 183 1
483 185 1
483 186 1
483 189 1
483 195 1
483 201 1
483 209 1
483 220 1
483 222 1
483 223 1
483 225 1
483 229 1
483 241 1
483 245 1
483 246 1
483 248 1
483 254 1
483 255 1
483 256 1
483 263 1
483 265 1
483 271 1
483 272 1
483 282 1
483 283 1
483 284 1
483 287 1
483 288 1
483 293 1
483 301 1
483 303 1
483 306 1
483 307 1
483 308 1
483 310 1
483 312 1
483 324 1
483 325 1
483 330 1
483 335 1
483 341 1
483 366 1
483 374 1
483 375 1
483 376 1
483 395 1
483 396 1
483 399 1
483 408 1
483 411 1
483 416 1
483 417 1
483 423 1
483 428 1
483 431 1
483 434 1
483 440 1
483 445 1
483 446 1
483 448 1
483 449 1
483 453 1
483 457 1
483 468 1
483 475 1
483 476 1
483 481 1
483 487 1
483 493 1
483 502 1
483 506 1
483 510 1
483 515 1
483 516 1
483 518 1
483 545 1
483 546 1
483 549 1
483 550 1
483 551 1
483 555 1
483 559 1
483 561 1
483 564 1
483 567 1
483 573 1
483 574 1
483 583 1
483 586 1
483 590 1
483 594 1
483 597 1
483 599 1
483 607 1
483 613 1
483 615 1
483 617 1
483 618 1
483 621 1
483 627 1
483 628 1
483 631 1
483 642 1
483 643 1
483 650 1
483 657 1
483 659 1
483 661 1
483 663 1
483 666 1
483 668 1
483 669 1
483 678 1
483 680 1
483 684 1
483 688 1
483 689 1
483 695 1
483 696 1
483 700 1
484 3 1
484 7 1
484 8 1
484 15 1
484 16 1
484 18 1
484 23 1
484 28 1
484 31 1
484 35 1
484 40 1
484 42 1
484 55 1
484 56 1
484 58 1
484 61 1
484 62 1
484 68 1
484 69 1
484 73 1
484 78 1
484 80 1
484 82 1
484 93 1
484 94 1
484 98 1
484 106 1
484 107 1
484 112 1
484 125 1
484 130 1
484 132 1
484 148 1
484 150 1
484 151 1
484 157 1
484 158 1
484 161 1
484 166 1
484 169 1
484 174 1
484 177 1
484 181 1
484 184 1
484 202 1
484 203 1
484 214 1
484 220 1
484 226 1
484 236 1
484 239 1
484 243 1
484 247 1
484 250 1
484 251 1
484 255 1
484 262 1
484 272 1
484 273 1
484 277 1
484 291 1
484 299 1
484 312 1
484 315 1
484 317 1
484 324 1
484 325 1
484 332 1
484 347 1
484 349 1
484 352 1
484 354 1
484 356 1
484 357 1
484 364 1
484 366 1
484 372 1
484 376 1
484 389 1
484 399 1
484 403 1
484 407 1
484 411 1
484 412 1
484 414 1
484 419 1
484 428 1
484 433 1
484 436 1
484 440 1
484 443 1
484 445 1
484 446 1
484 449 1
484 461 1
484 465 1
484 467 1
484 469 1
484 478 1
484 492 1
484 500 1
484 506 1
484 519 1
484 534 1
484 549 1
484 550 1
484 553 1
484 558 1
484 565 1
484 575 1
484 581 1
484 584 1
484 590 1
484 592 1
484 597 1
484 604 1
484 611 1
484 613 1
484 620 1
484 622 1
484 627 1
484 633 1
484 635 1
484 646 1
484 651 1
484 652 1
484 653 1
484 654 1
484 660 1
484 669 1
484 670 1
484 675 1
484 680 1
484 682 1
484 683 1
484 684 1
484 690 1
484 692 1
484 699 1
485 1 1
485 3 1
485 4 1
485 13 1
485 14 1
485 15 1
485 16 1
485 20 1
485 21 1
485 22 1
485 24 1
485 37 1
485 44 1
485 45 1
485 48 1
485 61 1
485 62 1
485 65 1
485 66 1
485 71 1
485 73 1
485 76 1
485 78 1
485 86 1
485 100 1
485 101 1
485 111 1
485 115 1
485 119 1
485 121 1
485 124 1
485 127 1
485 135 1
485 142 1
485 146 1
485 149 1
485 156 1
485 157 1
485 165 1
485 166 1
485 168 1
485 172 1
485 173 1
485 175 1
485 186 1
485 188 1
485 190 1
485 191 1
485 193 1
485 194 1
485 195 1
485 196 1
485 200 1
485 201 1
485 207 1
485 209 1
485 213 1
485 215 1
485 218 1
485 222 1
485 242 1
485 245 1
485 246 1
485 247 1
485 248 1
485 258 1
485 260 1
485 264 1
485 273 1
485 281 1
485 290 1
485 313 1
485 321 1
485 324 1
485 325 1
485 326 1
485 334 1
485 339 1
485 343 1
485 350 1
485 351 1
485 356 1
485 358 1
485 359 1
485 372 1
485 376 1
485 380 1
485 384 1
485 391 1
485 393 1
485 403 1
485 407 1
485 413 1
485 425 1
485 438 1
485 450 1
485 451 1
485 458 1
485 477 1
485 480 1
485 481 1
485 496 1
485 497 1
485 500 1
485 501 1
485 505 1
485 506 1
485 515 1
485 516 1
485 519 1
485 523 1
485 528 1
485 532 1
485 534 1
485 535 1
485 537 1
485 538 1
485 550 1
485 553 1
485 564 1
485 566 1
485 568 1
485 576 1
485 578 1
485 591 1
485 592 1
485 594 1
485 597 1
485 608 1
485 612 1
485 622 1
485 626 1
485 628 1
485 629 1
485 634 1
485 639 1
485 642 1
485 645 1
485 653 1
485 654 1
485 668 1
485 675 1
485 676 1
485 677 1
485 682 1
485 689 1
485 696 1
486 7 1
486 16 1
486 19 1
486 25 1
486 31 1
486 40 1
486 50 1
486 53 1
486 56 1
486 65 1
486 68 1
486 72 1
486 83 1
486 86 1
486 97 1
486 106 1
486 110 1
486 120 1
486 121 1
486 126 1
486 133 1
486 156 1
486 160 1
486 161 1
486 164 1
486 165 1
486 166 1
486 173 1
486 175 1
486 180 1
486 182 1
486 189 1
486 195 1
486 203 1
486 208 1
486 210 1
486 218 1
486 220 1
486 222 1
486 223 1
486 225 1
486 231 1
486 232 1
486 234 1
486 247 1
486 248 1
486 249 1
486 256 1
486 257 1
486 268 1
486 271 1
486 287 1
486 288 1
486 290 1
486 294 1
486 302 1
486 321 1
486 330 1
486 333 1
486 334 1
486 345 1
486 349 1
486 361 1
486 362 1
486 366 1
486 367 1
486 368 1
486 374 1
486 375 1
486 377 1
486 380 1
486 386 1
486 387 1
486 391 1
486 396 1
486 407 1
486 427 1
486 433 1
486 434 1
486 441 1
486 443 1
486 450 1
486 453 1
486 459 1
486 461 1
486 463 1
486 469 1
486 472 1
486 474 1
486 491 1
486 493 1
486 500 1
486 510 1
486 514 1
486 521 1
486 522 1
486 529 1
486 531 1
486 532 1
486 538 1
486 543 1
486 546 1
486 551 1
486 552 1
486 560 1
486 565 1
486 568 1
486 573 1
486 578 1
486 581 1
486 595 1
486 603 1
486 610 1
486 612 1
486 620 1
486 633 1
486 636 1
486 638 1
486 643 1
486 646 1
486 649 1
486 657 1
486 662 1
486 663 1
486 667 1
486 668 1
486 671 1
486 674 1
486 679 1
486 683 1
486 688 1
486 692 1
486 694 1
486 695 1
486 700 1
487 17 1
487 18 1
487 23 1
487 28 1
487 29 1
487 36 1
487 38 1
487 42 1
487 45 1
487 46 1
487 66 1
487 69 1
487 72 1
487 74 1
487 84 1
487 85 1
487 97 1
487 101 1
487 104 1
487 105 1
487 108 1
487 111 1
487 120 1
487 126 1
487 128 1
487 136 1
487 138 1
487 139 1
487 140 1
487 147 1
487 148 1
487 152 1
487 153 1
487 154 1
487 155 1
487 160 1
487 161 1
487 170 1
487 171 1
487 174 1
487 180 1
487 181 1
487 202 1
487 203 1
487 206 1
487 207 1
487 208 1
487 210 1
487 226 1
487 229 1
487 232 1
487 234 1
487 238 1
487 241 1
487 250 1
487 256 1
487 259 1
487 260 1
487 264 1
487 265 1
487 271 1
487 287 1
487 289 1
487 300 1
487 302 1
487 308 1
487 313 1
487 322 1
487 329 1
487 334 1
487 339 1
487 341 1
487 350 1
487 353 1
487 354 1
487 355 1
487 357 1
487 365 1
487 370 1
487 372 1
487 394 1
487 396 1
487 399 1
487 404 1
487 406 1
487 411 1
487 417 1
487 420 1
487 431 1
487 441 1
487 446 1
487 450 1
487 456 1
487 458 1
487 467 1
487 475 1
487 476 1
487 478 1
487 480 1
487 482 1
487 483 1
487 494 1
487 498 1
487 501 1
487 506 1
487 508 1
487 510 1
487 514 1
487 519 1
487 544 1
487 551 1
487 554 1
487 556 1
487 562 1
487 579 1
487 581 1
487 583 1
487 584 1
487 588 1
487 591 1
487 600 1
487 601 1
487 605 1
487 615 1
487 617 1
487 629 1
487 635 1
487 637 1
487 646 1
487 648 1
487 653 1
487 659 1
487 663 1
487 674 1
487 677 1
487 687 1
487 690 1
488 8 1
488 10 1
488 14 1
488 19 1
488 24 1
488 28 1
488 41 1
488 45 1
488 49 1
488 51 1
488 52 1
488 53 1
488 55 1
488 68 1
488 71 1
488 76 1
488 77 1
488 85 1
488 88 1
488 94 1
488 119 1
488 122 1
488 124 1
488 137 1
488 143 1
488 145 1
488 150 1
488 154 1
488 155 1
488 169 1
488 170 1
488 176 1
488 183 1
488 184 1
488 190 1
488 193 1
488 195 1
488 202 1
488 216 1
488 231 1
488 235 1
488 236 1
488 247 1
488 258 1
488 259 1
488 264 1
488 268 1
488 270 1
488 284 1
488 285 1
488 287 1
488 306 1
488 317 1
488 319 1
488 321 1
488 327 1
488 337 1
488 343 1
488 345 1
488 349 1
488 350 1
488 360 1
488 362 1
488 370 1
488 372 1
488 375 1
488 376 1
488 383 1
488 384 1
488 385 1
488 396 1
488 399 1
488 418 1
488 419 1
488 425 1
488 430 1
488 433 1
488 442 1
488 443 1
488 444 1
488 452 1
488 461 1
488 463 1
488 464 1
488 468 1
488 469 1
488 479 1
488 494 1
488 496 1
488 506 1
488 507 1
488 512 1
488 513 1
488 518 1
488 520 1
488 521 1
488 525 1
488 526 1
488 535 1
488 537 1
488 538 1
488 539 1
488 545 1
488 548 1
488 554 1
488 565 1
488 566 1
488 577 1
488 583 1
488 584 1
488 587 1
488 600 1
488 602 1
488 604 1
488 605 1
488 610 1
488 611 1
488 614 1
488 622 1
488 623 1
488 630 1
488 634 1
488 641 1
488 644 1
488 645 1
488 648 1
488 651 1
488 653 1
488 655 1
488 657 1
488 663 1
488 666 1
488 668 1
488 679 1
488 684 1
488 687 1
488 694 1
489 4 1
489 27 1
489 30 1
489 37 1
489 41 1
489 42 1
489 45 1
489 50 1
489 53 1
489 68 1
489 69 1
489 71 1
489 72 1
489 76 1
489 83 1
489 90 1
489 93 1
489 95 1
489 97 1
489 99 1
489 101 1
489 102 1
489 105 1
489 106 1
489 126 1
489 132 1
489 146 1
489 160 1
489 167 1
489 168 1
489 178 1
489 180 1
489 201 1
489 207 1
489 212 1
489 222 1
489 228 1
489 230 1
489 237 1
489 242 1
489 250 1
489 254 1
489 270 1
489 282 1
489 284 1
489 285 1
489 287 1
489 288 1
489 289 1
489 290 1
489 298 1
489 300 1
489 303 1
489 304 1
489 310 1
489 316 1
489 317 1
489 318 1
489 319 1
489 332 1
489 336 1
489 349 1
489 350 1
489 354 1
489 358 1
489 359 1
489 361 1
489 367 1
489 377 1
489 386 1
489 394 1
489 399 1
489 400 1
489 401 1
489 418 1
489 421 1
489 431 1
489 434 1
489 438 1
489 446 1
489 447 1
489 448 1
489 457 1
489 461 1
489 462 1
489 466 1
489 474 1
489 476 1
489 477 1
489 478 1
489 490 1
489 493 1
489 501 1
489 504 1
489 508 1
489 509 1
489 511 1
489 515 1
489 523 1
489 527 1
489 536 1
489 542 1
489 544 1
489 545 1
489 549 1
489 554 1
489 555 1
489 557 1
489 560 1
489 561 1
489 570 1
489 577 1
489 581 1
489 596 1
489 598 1
489 601 1
489 602 1
489 603 1
489 608 1
489 618 1
489 628 1
489 630 1
489 633 1
489 638 1
489 647 1
489 650 1
489 652 1
489 654 1
489 659 1
489 661 1
489 666 1
489 670 1
489 676 1
489 682 1
489 684 1
490 12 1
490 13 1
490 20 1
490 22 1
490 23 1
490 29 1
490 32 1
490 38 1
490 42 1
490 50 1
490 56 1
490 58 1
490 61 1
490 62 1
490 64 1
490 66 1
490 67 1
490 71 1
490 75 1
490 78 1
490 79 1
490 87 1
490 91 1
490 94 1
490 96 1
490 97 1
490 102 1
490 103 1
490 110 1
490 111 1
490 114 1
490 115 1
490 116 1
490 118 1
490 124 1
490 139 1
490 140 1
490 145 1
490 148 1
490 153 1
490 156 1
490 162 1
490 170 1
490 172 1
490 175 1
490 176 1
490 192 1
490 193 1
490 194 1
490 196 1
490 199 1
490 208 1
490 210 1
490 212 1
490 224 1
490 227 1
490 229 1
490 230 1
490 245 1
490 246 1
490 258 1
490 260 1
490 261 1
490 262 1
490 281 1
490 285 1
490 293 1
490 297 1
490 309 1
490 322 1
490 324 1
490 330 1
490 340 1
490 345 1
490 346 1
490 351 1
490 354 1
490 359 1
490 365 1
490 388 1
490 392 1
490 393 1
490 396 1
490 404 1
490 407 1
490 410 1
490 411 1
490 412 1
490 418 1
490 419 1
490 420 1
490 422 1
490 424 1
490 426 1
490 428 1
490 445 1
490 446 1
490 447 1
490 460 1
490 462 1
490 463 1
490 464 1
490 469 1
490 471 1
490 477 1
490 489 1
490 493 1
490 498 1
490 502 1
490 514 1
490 516 1
490 518 1
490 528 1
490 536 1
490 544 1
490 549 1
490 552 1
490 569 1
490 578 1
490 581 1
490 591 1
490 594 1
490 603 1
490 604 1
490 605 1
490 615 1
490 616 1
490 629 1
490 640 1
490 643 1
490 653 1
490 659 1
490 662 1
490 670 1
490 672 1
490 675 1
490 682 1
490 684 1
490 690 1
490 694 1
490 698 1
491 3 1
491 12 1
491 17 1
491 18 1
491 33 1
491 39 1
491 44 1
491 48 1
491 53 1
491 54 1
491 55 1
491 61 1
491 62 1
491 63 1
491 66 1
491 67 1
491 91 1
491 95 1
491 101 1
491 102 1
491 108 1
491 114 1
491 116 1
491 121 1
491 131 1
491 133 1
491 136 1
491 139 1
491 140 1
491 148 1
491 152 1
491 155 1
491 176 1
491 179 1
491 180 1
491 181 1
491 184 1
491 185 1
491 188 1
491 191 1
491 192 1
491 194 1
491 200 1
491 201 1
491 216 1
491 218 1
491 222 1
491 228 1
491 232 1
491 242 1
491 246 1
491 248 1
491 255 1
491 259 1
491 262 1
491 266 1
491 276 1
491 288 1
491 298 1
491 301 1
491 307 1
491 311 1
491 312 1
491 315 1
491 316 1
491 318 1
491 326 1
491 329 1
491 334 1
491 339 1
491 342 1
491 344 1
491 345 1
491 347 1
491 350 1
491 354 1
491 356 1
491 361 1
491 364 1
491 365 1
491 367 1
491 372 1
491 375 1
491 376 1
491 390 1
491 392 1
491 393 1
491 396 1
491 404 1
491 407 1
491 412 1
491 413 1
491 414 1
491 417 1
491 419 1
491 422 1
491 438 1
491 445 1
491 457 1
491 458 1
491 466 1
491 467 1
491 476 1
491 477 1
491 486 1
491 496 1
491 501 1
491 504 1
491 505 1
491 514 1
491 521 1
491 522 1
491 537 1
491 540 1
491 542 1
491 554 1
491 555 1
491 560 1
491 565 1
491 571 1
491 594 1
491 599 1
491 603 1
491 605 1
491 610 1
491 614 1
491 619 1
491 622 1
491 633 1
491 635 1
491 640 1
491 647 1
491 651 1
491 655 1
491 657 1
491 660 1
491 667 1
491 670 1
491 671 1
491 672 1
491 676 1
491 683 1
491 684 1
491 686 1
491 695 1
492 1 1
492 7 1
492 12 1
492 13 1
492 14 1
492 18 1
492 30 1
492 32 1
492 35 1
492 43 1
492 44 1
492 46 1
492 47 1
492 55 1
492 61 1
492 65 1
492 70 1
492 73 1
492 75 1
492 83 1
492 97 1
492 116 1
492 121 1
492 128 1
492 132 1
492 135 1
492 136 1
492 140 1
492 155 1
492 156 1
492 160 1
492 165 1
492 166 1
492 174 1
492 185 1
492 188 1
492 196 1
492 207 1
492 211 1
492 222 1
492 224 1
492 228 1
492 231 1
492 234 1
492 236 1
492 237 1
492 250 1
492 255 1
492 256 1
492 275 1
492 278 1
492 283 1
492 286 1
492 294 1
492 300 1
492 306 1
492 309 1
492 310 1
492 321 1
492 323 1
492 330 1
492 340 1
492 345 1
492 355 1
492 359 1
492 371 1
492 377 1
492 379 1
492 382 1
492 383 1
492 386 1
492 391 1
492 398 1
492 405 1
492 408 1
492 410 1
492 411 1
492 418 1
492 421 1
492 423 1
492 429 1
492 430 1
492 433 1
492 451 1
492 452 1
492 454 1
492 459 1
492 460 1
492 461 1
492 468 1
492 469 1
492 471 1
492 472 1
492 484 1
492 495 1
492 496 1
492 501 1
492 505 1
492 515 1
492 516 1
492 518 1
492 523 1
492 524 1
492 528 1
492 539 1
492 540 1
492 544 1
492 550 1
492 561 1
492 563 1
492 569 1
492 571 1
492 575 1
492 584 1
492 589 1
492 590 1
492 596 1
492 598 1
492 601 1
492 610 1
492 614 1
492 621 1
492 628 1
492 630 1
492 637 1
492 643 1
492 647 1
492 648 1
492 649 1
492 669 1
492 676 1
492 679 1
492 682 1
492 684 1
492 687 1
492 696 1
493 5 1
493 8 1
493 12 1
493 13 1
493 18 1
493 29 1
493 36 1
493 38 1
493 40 1
493 44 1
493 80 1
493 85 1
493 91 1
493 94 1
493 101 1
493 103 1
493 105 1
493 106 1
493 108 1
493 112 1
493 114 1
493 118 1
493 120 1
493 121 1
493 123 1
493 130 1
493 136 1
493 141 1
493 156 1
493 158 1
493 162 1
493 166 1
493 167 1
493 173 1
493 184 1
493 186 1
493 188 1
493 189 1
493 191 1
493 197 1
493 198 1
493 205 1
493 209 1
493 211 1
493 214 1
493 215 1
493 224 1
493 228 1
493 230 1
493 234 1
493 238 1
493 240 1
493 250 1
493 251 1
493 258 1
493 261 1
493 265 1
493 278 1
493 300 1
493 302 1
493 314 1
493 315 1
493 318 1
493 323 1
493 328 1
493 332 1
493 333 1
493 336 1
493 339 1
493 342 1
493 349 1
493 354 1
493 355 1
493 360 1
493 362 1
493 364 1
493 366 1
493 378 1
493 382 1
493 391 1
493 392 1
493 393 1
493 401 1
493 402 1
493 403 1
493 405 1
493 406 1
493 411 1
493 416 1
493 417 1
493 431 1
493 433 1
493 439 1
493 450 1
493 453 1
493 460 1
493 467 1
493 469 1
493 475 1
493 483 1
493 486 1
493 489 1
493 490 1
493 494 1
493 495 1
493 496 1
493 505 1
493 507 1
493 522 1
493 524 1
493 527 1
493 531 1
493 539 1
493 545 1
493 561 1
493 563 1
493 564 1
493 573 1
493 584 1
493 587 1
493 594 1
493 596 1
493 603 1
493 610 1
493 627 1
493 629 1
493 640 1
493 643 1
493 644 1
493 645 1
493 660 1
493 662 1
493 665 1
493 672 1
493 676 1
493 684 1
493 686 1
493 692 1
493 697 1
493 698 1
493 699 1
494 2 1
494 5 1
494 8 1
494 9 1
494 18 1
494 28 1
494 30 1
494 40 1
494 44 1
494 45 1
494 60 1
494 66 1
494 72 1
494 73 1
494 82 1
494 87 1
494 101 1
494 103 1
494 113 1
494 115 1
494 117 1
494 138 1
494 142 1
494 154 1
494 155 1
494 166 1
494 167 1
494 169 1
494 172 1
494 181 1
494 182 1
494 184 1
494 185 1
494 192 1
494 195 1
494 196 1
494 201 1
494 208 1
494 212 1
494 213 1
494 216 1
494 217 1
494 220 1
494 222 1
494 228 1
494 229 1
494 235 1
494 237 1
494 239 1
494 242 1
494 246 1
494 258 1
494 285 1
494 299 1
494 300 1
494 305 1
494 306 1
494 311 1
494 312 1
494 314 1
494 327 1
494 338 1
494 342 1
494 346 1
494 348 1
494 353 1
494 362 1
494 365 1
494 366 1
494 380 1
494 396 1
494 406 1
494 407 1
494 411 1
494 417 1
494 426 1
494 427 1
494 437 1
494 443 1
494 448 1
494 457 1
494 458 1
494 461 1
494 464 1
494 466 1
494 469 1
494 470 1
494 471 1
494 474 1
494 475 1
494 487 1
494 488 1
494 493 1
494 496 1
494 500 1
494 526 1
494 527 1
494 545 1
494 548 1
494 555 1
494 557 1
494 568 1
494 574 1
494 575 1
494 576 1
494 577 1
494 587 1
494 590 1
494 597 1
494 613 1
494 615 1
494 616 1
494 620 1
494 622 1
494 624 1
494 625 1
494 628 1
494 632 1
494 633 1
494 634 1
494 638 1
494 651 1
494 667 1
494 668 1
494 669 1
494 672 1
494 673 1
494 676 1
494 679 1
494 680 1
494 681 1
494 689 1
494 691 1
494 692 1
494 697 1
495 1 1
495 7 1
495 13 1
495 31 1
495 32 1
495 33 1
495 35 1
495 39 1
495 42 1
495 46 1
495 48 1
495 50 1
495 53 1
495 54 1
495 57 1
495 58 1
495 59 1
495 64 1
495 69 1
495 75 1
495 82 1
495 85 1
495 87 1
495 93 1
495 101 1
495 116 1
495 117 1
495 134 1
495 137 1
495 139 1
495 143 1
495 149 1
495 158 1
495 162 1
495 176 1
495 179 1
495 182 1
495 190 1
495 202 1
495 215 1
495 225 1
495 226 1
495 235 1
495 238 1
495 239 1
495 242 1
495 275 1
495 280 1
495 282 1
495 284 1
495 292 1
495 294 1
495 300 1
495 304 1
495 349 1
495 354 1
495 364 1
495 382 1
495 398 1
495 401 1
495 403 1
495 411 1
495 417 1
495 418 1
495 425 1
495 430 1
495 440 1
495 448 1
495 449 1
495 451 1
495 452 1
495 455 1
495 457 1
495 466 1
495 477 1
495 481 1
495 492 1
495 493 1
495 498 1
495 501 1
495 502 1
495 505 1
495 515 1
495 516 1
495 524 1
495 535 1
495 536 1
495 541 1
495 545 1
495 557 1
495 561 1
495 563 1
495 580 1
495 585 1
495 587 1
495 588 1
495 589 1
495 595 1
495 600 1
495 606 1
495 607 1
495 612 1
495 619 1
495 623 1
495 624 1
495 630 1
495 641 1
495 642 1
495 648 1
495 653 1
495 656 1
495 666 1
495 669 1
495 676 1
495 683 1
495 685 1
495 690 1
495 694 1
495 700 1
496 11 1
496 25 1
496 28 1
496 31 1
496 42 1
496 45 1
496 48 1
496 49 1
496 50 1
496 52 1
496 63 1
496 64 1
496 66 1
496 67 1
496 70 1
496 74 1
496 75 1
496 78 1
496 79 1
496 81 1
496 95 1
496 99 1
496 105 1
496 108 1
496 113 1
496 117 1
496 118 1
496 133 1
496 134 1
496 139 1
496 140 1
496 141 1
496 142 1
496 146 1
496 151 1
496 154 1
496 162 1
496 164 1
496 168 1
496 170 1
496 175 1
496 179 1
496 180 1
496 185 1
496 190 1
496 192 1
496 195 1
496 196 1
496 205 1
496 209 1
496 212 1
496 213 1
496 216 1
496 218 1
496 226 1
496 230 1
496 232 1
496 235 1
496 239 1
496 241 1
496 250 1
496 259 1
496 260 1
496 261 1
496 266 1
496 269 1
496 271 1
496 274 1
496 279 1
496 291 1
496 299 1
496 300 1
496 305 1
496 319 1
496 320 1
496 323 1
496 324 1
496 325 1
496 328 1
496 329 1
496 330 1
496 331 1
496 340 1
496 341 1
496 342 1
496 345 1
496 352 1
496 358 1
496 359 1
496 366 1
496 370 1
496 371 1
496 381 1
496 385 1
496 398 1
496 402 1
496 410 1
496 413 1
496 417 1
496 427 1
496 432 1
496 442 1
496 443 1
496 446 1
496 447 1
496 461 1
496 465 1
496 472 1
496 485 1
496 488 1
496 491 1
496 492 1
496 493 1
496 494 1
496 498 1
496 501 1
496 503 1
496 504 1
496 515 1
496 516 1
496 517 1
496 524 1
496 526 1
496 530 1
496 532 1
496 539 1
496 557 1
496 563 1
496 566 1
496 569 1
496 583 1
496 591 1
496 592 1
496 593 1
496 594 1
496 597 1
496 607 1
496 609 1
496 617 1
496 622 1
496 626 1
496 629 1
496 631 1
496 634 1
496 635 1
496 638 1
496 641 1
496 642 1
496 647 1
496 648 1
496 653 1
496 659 1
496 660 1
496 668 1
496 673 1
496 677 1
496 678 1
496 686 1
496 693 1
496 700 1
497 5 1
497 11 1
497 12 1
497 14 1
497 16 1
497 22 1
497 28 1
497 40 1
497 41 1
497 50 1
497 53 1
497 61 1
497 63 1
497 67 1
497 69 1
497 70 1
497 74 1
497 76 1
497 77 1
497 82 1
497 87 1
497 89 1
497 96 1
497 101 1
497 102 1
497 108 1
497 110 1
497 111 1
497 116 1
497 119 1
497 122 1
497 123 1
497 128 1
497 129 1
497 131 1
497 146 1
497 149 1
497 151 1
497 152 1
497 154 1
497 155 1
497 161 1
497 166 1
497 171 1
497 173 1
497 177 1
497 178 1
497 191 1
497 192 1
497 194 1
497 210 1
497 212 1
497 219 1
497 223 1
497 230 1
497 233 1
497 241 1
497 243 1
497 244 1
497 248 1
497 252 1
497 258 1
497 259 1
497 266 1
497 269 1
497 272 1
497 278 1
497 284 1
497 287 1
497 288 1
497 290 1
497 297 1
497 300 1
497 302 1
497 304 1
497 311 1
497 317 1
497 324 1
497 331 1
497 337 1
497 342 1
497 346 1
497 352 1
497 355 1
497 373 1
497 387 1
497 390 1
497 392 1
497 398 1
497 403 1
497 404 1
497 405 1
497 407 1
497 413 1
497 420 1
497 429 1
497 438 1
497 441 1
497 455 1
497 459 1
497 474 1
497 475 1
497 478 1
497 485 1
497 501 1
497 513 1
497 514 1
497 523 1
497 525 1
497 526 1
497 527 1
497 535 1
497 539 1
497 541 1
497 545 1
497 548 1
497 555 1
497 557 1
497 561 1
497 563 1
497 567 1
497 574 1
497 575 1
497 580 1
497 582 1
497 587 1
497 591 1
497 593 1
497 605 1
497 618 1
497 619 1
497 632 1
497 634 1
497 637 1
497 639 1
497 650 1
497 653 1
497 654 1
497 656 1
497 661 1
497 664 1
497 667 1
497 678 1
497 680 1
497 688 1
497 690 1
497 691 1
497 696 1
497 697 1
498 1 1
498 8 1
498 9 1
498 13 1
498 15 1
498 16 1
498 17 1
498 23 1
498 27 1
498 28 1
498 34 1
498 41 1
498 42 1
498 45 1
498 54 1
498 61 1
498 62 1
498 63 1
498 65 1
498 78 1
498 81 1
498 90 1
498 100 1
498 102 1
498 106 1
498 110 1
498 123 1
498 125 1
498 128 1
498 132 1
498 133 1
498 134 1
498 139 1
498 141 1
498 143 1
498 146 1
498 158 1
498 161 1
498 179 1
498 190 1
498 195 1
498 198 1
498 199 1
498 200 1
498 214 1
498 222 1
498 229 1
498 231 1
498 233 1
498 234 1
498 235 1
498 237 1
498 238 1
498 243 1
498 244 1
498 246 1
498 250 1
498 260 1
498 261 1
498 275 1
498 277 1
498 279 1
498 281 1
498 293 1
498 294 1
498 295 1
498 301 1
498 304 1
498 317 1
498 322 1
498 325 1
498 337 1
498 339 1
498 340 1
498 342 1
498 347 1
498 360 1
498 362 1
498 363 1
498 364 1
498 369 1
498 373 1
498 378 1
498 382 1
498 392 1
498 393 1
498 394 1
498 395 1
498 400 1
498 401 1
498 403 1
498 410 1
498 413 1
498 425 1
498 431 1
498 436 1
498 439 1
498 441 1
498 447 1
498 457 1
498 460 1
498 471 1
498 473 1
498 477 1
498 479 1
498 487 1
498 490 1
498 495 1
498 496 1
498 509 1
498 512 1
498 520 1
498 532 1
498 540 1
498 546 1
498 549 1
498 567 1
498 574 1
498 575 1
498 584 1
498 587 1
498 590 1
498 591 1
498 592 1
498 593 1
498 595 1
498 601 1
498 604 1
498 607 1
498 613 1
498 618 1
498 622 1
498 623 1
498 634 1
498 635 1
498 637 1
498 642 1
498 644 1
498 647 1
498 649 1
498 655 1
498 658 1
498 661 1
498 664 1
498 677 1
498 678 1
498 679 1
498 683 1
498 687 1
498 692 1
498 696 1
499 2 1
499 3 1
499 8 1
499 18 1
499 21 1
499 25 1
499 30 1
499 32 1
499 37 1
499 48 1
499 58 1
499 59 1
499 65 1
499 66 1
499 67 1
499 70 1
499 73 1
499 75 1
499 78 1
499 98 1
499 106 1
499 108 1
499 112 1
499 113 1
499 124 1
499 125 1
499 129 1
499 131 1
499 138 1
499 141 1
499 142 1
499 154 1
499 155 1
499 159 1
499 161 1
499 163 1
499 164 1
499 166 1
499 167 1
499 168 1
499 172 1
499 173 1
499 179 1
499 182 1
499 192 1
499 199 1
499 206 1
499 208 1
499 210 1
499 222 1
499 224 1
499 226 1
499 227 1
499 232 1
499 237 1
499 238 1
499 250 1
499 254 1
499 255 1
499 257 1
499 258 1
499 261 1
499 263 1
499 281 1
499 288 1
499 289 1
499 293 1
499 295 1
499 297 1
499 301 1
499 306 1
499 307 1
499 313 1
499 315 1
499 317 1
499 319 1
499 321 1
499 324 1
499 331 1
499 337 1
499 341 1
499 343 1
499 345 1
499 354 1
499 364 1
499 367 1
499 371 1
499 384 1
499 387 1
499 411 1
499 427 1
499 431 1
499 432 1
499 440 1
499 450 1
499 453 1
499 463 1
499 466 1
499 475 1
499 479 1
499 480 1
499 500 1
499 515 1
499 517 1
499 530 1
499 538 1
499 542 1
499 544 1
499 552 1
499 555 1
499 557 1
499 565 1
499 575 1
499 583 1
499 587 1
499 589 1
499 596 1
499 610 1
499 611 1
499 616 1
499 620 1
499 626 1
499 634 1
499 636 1
499 642 1
499 644 1
499 653 1
499 655 1
499 660 1
499 663 1
499 665 1
499 668 1
499 673 1
499 674 1
499 686 1
499 693 1
500 12 1
500 21 1
500 22 1
500 40 1
500 41 1
500 45 1
500 49 1
500 50 1
500 53 1
500 54 1
500 55 1
500 58 1
500 60 1
500 75 1
500 77 1
500 80 1
500 81 1
500 82 1
500 88 1
500 90 1
500 96 1
500 114 1
500 120 1
500 133 1
500 136 1
500 144 1
500 157 1
500 158 1
500 167 1
500 175 1
500 178 1
500 182 1
500 184 1
500 186 1
500 188 1
500 189 1
500 193 1
500 195 1
500 199 1
500 212 1
500 236 1
500 239 1
500 262 1
500 263 1
500 264 1
500 268 1
500 271 1
500 275 1
500 277 1
500 280 1
500 286 1
500 291 1
500 296 1
500 302 1
500 306 1
500 307 1
500 314 1
500 317 1
500 320 1
500 323 1
500 326 1
500 332 1
500 333 1
500 336 1
500 340 1
500 343 1
500 349 1
500 358 1
500 366 1
500 367 1
500 370 1
500 372 1
500 374 1
500 375 1
500 376 1
500 377 1
500 378 1
500 379 1
500 383 1
500 387 1
500 390 1
500 396 1
500 397 1
500 399 1
500 406 1
500 407 1
500 409 1
500 423 1
500 424 1
500 433 1
500 439 1
500 457 1
500 459 1
500 460 1
500 462 1
500 484 1
500 485 1
500 486 1
500 494 1
500 499 1
500 503 1
500 510 1
500 518 1
500 531 1
500 536 1
500 539 1
500 543 1
500 554 1
500 555 1
500 559 1
500 564 1
500 573 1
500 579 1
500 588 1
500 590 1
500 597 1
500 609 1
500 618 1
500 619 1
500 620 1
500 627 1
500 628 1
500 641 1
500 644 1
500 651 1
500 664 1
500 668 1
500 669 1
500 671 1
500 678 1
500 684 1
500 688 1
500 697 1
500 700 1
501 17 1
501 18 1
501 20 1
501 23 1
501 25 1
501 36 1
501 51 1
501 56 1
501 57 1
501 59 1
501 60 1
501 66 1
501 67 1
501 76 1
501 79 1
501 81 1
501 85 1
501 92 1
501 105 1
501 114 1
501 116 1
501 117 1
501 121 1
501 127 1
501 130 1
501 131 1
501 145 1
501 155 1
501 156 1
501 169 1
501 181 1
501 184 1
501 185 1
501 186 1
501 187 1
501 193 1
501 194 1
501 204 1
501 210 1
501 212 1
501 220 1
501 223 1
501 224 1
501 226 1
501 228 1
501 231 1
501 236 1
501 238 1
501 245 1
501 248 1
501 254 1
501 257 1
501 258 1
501 261 1
501 271 1
501 278 1
501 283 1
501 294 1
501 297 1
501 318 1
501 322 1
501 324 1
501 328 1
501 338 1
501 340 1
501 343 1
501 350 1
501 358 1
501 360 1
501 361 1
501 362 1
501 364 1
501 365 1
501 375 1
501 377 1
501 380 1
501 384 1
501 390 1
501 391 1
501 393 1
501 400 1
501 408 1
501 421 1
501 422 1
501 423 1
501 431 1
501 438 1
501 442 1
501 444 1
501 445 1
501 467 1
501 468 1
501 477 1
501 480 1
501 485 1
501 487 1
501 489 1
501 491 1
501 492 1
501 495 1
501 496 1
501 497 1
501 503 1
501 504 1
501 515 1
501 520 1
501 525 1
501 527 1
501 543 1
501 545 1
501 556 1
501 558 1
501 560 1
501 566 1
501 577 1
501 580 1
501 582 1
501 583 1
501 584 1
501 590 1
501 591 1
501 593 1
501 594 1
501 595 1
501 600 1
501 610 1
501 630 1
501 631 1
501 633 1
501 638 1
501 657 1
501 659 1
501 661 1
501 669 1
501 671 1
501 674 1
501 676 1
501 686 1
501 695 1
501 696 1
501 697 1
501 699 1
502 5 1
502 13 1
502 14 1
502 17 1
502 22 1
502 29 1
502 33 1
502 34 1
502 36 1
502 50 1
502 52 1
502 53 1
502 58 1
502 63 1
502 70 1
502 78 1
502 96 1
502 100 1
502 102 1
502 123 1
502 139 1
502 140 1
502 145 1
502 146 1
502 150 1
502 154 1
502 158 1
502 160 1
502 169 1
502 175 1
502 178 1
502 180 1
502 181 1
502 183 1
502 187 1
502 193 1
502 195 1
502 198 1
502 201 1
502 206 1
502 207 1
502 209 1
502 224 1
502 229 1
502 233 1
502 236 1
502 247 1
502 270 1
502 274 1
502 282 1
502 283 1
502 293 1
502 304 1
502 309 1
502 315 1
502 318 1
502 324 1
502 328 1
502 337 1
502 340 1
502 346 1
502 351 1
502 358 1
502 364 1
502 374 1
502 375 1
502 380 1
502 381 1
502 424 1
502 429 1
502 438 1
502 442 1
502 443 1
502 445 1
502 450 1
502 455 1
502 456 1
502 468 1
502 471 1
502 478 1
502 483 1
502 490 1
502 495 1
502 503 1
502 510 1
502 513 1
502 521 1
502 522 1
502 530 1
502 540 1
502 544 1
502 549 1
502 581 1
502 584 1
502 587 1
502 588 1
502 596 1
502 598 1
502 599 1
502 600 1
502 613 1
502 616 1
502 620 1
502 623 1
502 625 1
502 631 1
502 640 1
502 644 1
502 680 1
502 681 1
502 682 1
502 685 1
502 689 1
502 692 1
502 695 1
503 4 1
503 9 1
503 13 1
503 16 1
503 21 1
503 22 1
503 24 1
503 28 1
503 32 1
503 40 1
503 42 1
503 54 1
503 55 1
503 56 1
503 60 1
503 67 1
503 72 1
503 75 1
503 87 1
503 100 1
503 103 1
503 110 1
503 112 1
503 115 1
503 117 1
503 120 1
503 121 1
503 124 1
503 126 1
503 131 1
503 135 1
503 144 1
503 146 1
503 147 1
503 148 1
503 152 1
503 156 1
503 157 1
503 160 1
503 164 1
503 171 1
503 195 1
503 206 1
503 219 1
503 221 1
503 225 1
503 235 1
503 238 1
503 239 1
503 244 1
503 247 1
503 251 1
503 255 1
503 256 1
503 266 1
503 271 1
503 275 1
503 281 1
503 284 1
503 286 1
503 288 1
503 290 1
503 294 1
503 295 1
503 304 1
503 305 1
503 311 1
503 313 1
503 318 1
503 326 1
503 328 1
503 330 1
503 331 1
503 332 1
503 337 1
503 341 1
503 342 1
503 344 1
503 345 1
503 353 1
503 354 1
503 357 1
503 360 1
503 367 1
503 370 1
503 372 1
503 373 1
503 375 1
503 376 1
503 377 1
503 391 1
503 392 1
503 394 1
503 402 1
503 403 1
503 405 1
503 412 1
503 417 1
503 419 1
503 422 1
503 423 1
503 426 1
503 427 1
503 431 1
503 435 1
503 436 1
503 437 1
503 444 1
503 445 1
503 446 1
503 447 1
503 451 1
503 453 1
503 455 1
503 459 1
503 470 1
503 474 1
503 475 1
503 478 1
503 496 1
503 500 1
503 501 1
503 502 1
503 507 1
503 515 1
503 517 1
503 518 1
503 528 1
503 529 1
503 546 1
503 552 1
503 559 1
503 561 1
503 581 1
503 589 1
503 596 1
503 601 1
503 605 1
503 607 1
503 609 1
503 613 1
503 615 1
503 621 1
503 629 1
503 630 1
503 635 1
503 647 1
503 650 1
503 663 1
503 669 1
503 681 1
503 695 1
503 696 1
503 699 1
503 700 1
504 25 1
504 34 1
504 47 1
504 54 1
504 58 1
504 60 1
504 70 1
504 71 1
504 77 1
504 89 1
504 98 1
504 106 1
504 109 1
504 117 1
504 118 1
504 122 1
504 125 1
504 127 1
504 138 1
504 151 1
504 153 1
504 154 1
504 155 1
504 165 1
504 168 1
504 172 1
504 181 1
504 189 1
504 199 1
504 205 1
504 210 1
504 218 1
504 226 1
504 232 1
504 236 1
504 240 1
504 243 1
504 249 1
504 259 1
504 263 1
504 265 1
504 269 1
504 276 1
504 278 1
504 279 1
504 288 1
504 293 1
504 300 1
504 310 1
504 312 1
504 317 1
504 324 1
504 325 1
504 328 1
504 349 1
504 352 1
504 362 1
504 370 1
504 374 1
504 386 1
504 395 1
504 400 1
504 404 1
504 408 1
504 419 1
504 428 1
504 430 1
504 433 1
504 438 1
504 439 1
504 447 1
504 460 1
504 480 1
504 489 1
504 491 1
504 496 1
504 501 1
504 513 1
504 514 1
504 518 1
504 536 1
504 542 1
504 543 1
504 548 1
504 564 1
504 567 1
504 569 1
504 573 1
504 574 1
504 576 1
504 585 1
504 586 1
504 587 1
504 606 1
504 615 1
504 625 1
504 626 1
504 629 1
504 632 1
504 637 1
504 640 1
504 644 1
504 657 1
504 658 1
504 659 1
504 665 1
504 666 1
504 675 1
504 682 1
504 689 1
504 690 1
504 692 1
504 694 1
504 697 1
505 5 1
505 9 1
505 13 1
505 15 1
505 18 1
505 22 1
505 23 1
505 24 1
505 26 1
505 28 1
505 29 1
505 31 1
505 37 1
505 41 1
505 52 1
505 54 1
505 58 1
505 65 1
505 67 1
505 68 1
505 82 1
505 84 1
505 87 1
505 89 1
505 93 1
505 108 1
505 129 1
505 139 1
505 148 1
505 151 1
505 154 1
505 157 1
505 162 1
505 168 1
505 171 1
505 173 1
505 178 1
505 179 1
505 191 1
505 199 1
505 200 1
505 210 1
505 219 1
505 240 1
505 244 1
505 252 1
505 256 1
505 257 1
505 258 1
505 264 1
505 267 1
505 270 1
505 276 1
505 282 1
505 287 1
505 291 1
505 314 1
505 315 1
505 321 1
505 323 1
505 325 1
505 335 1
505 336 1
505 339 1
505 344 1
505 346 1
505 349 1
505 352 1
505 353 1
505 356 1
505 359 1
505 365 1
505 367 1
505 368 1
505 372 1
505 376 1
505 380 1
505 382 1
505 386 1
505 388 1
505 390 1
505 391 1
505 394 1
505 399 1
505 401 1
505 405 1
505 407 1
505 408 1
505 414 1
505 419 1
505 420 1
505 422 1
505 423 1
505 433 1
505 441 1
505 452 1
505 454 1
505 460 1
505 466 1
505 467 1
505 470 1
505 471 1
505 472 1
505 479 1
505 480 1
505 485 1
505 491 1
505 492 1
505 493 1
505 495 1
505 510 1
505 511 1
505 513 1
505 515 1
505 521 1
505 522 1
505 523 1
505 524 1
505 536 1
505 537 1
505 539 1
505 555 1
505 556 1
505 557 1
505 563 1
505 565 1
505 566 1
505 569 1
505 571 1
505 577 1
505 579 1
505 582 1
505 584 1
505 592 1
505 603 1
505 617 1
505 635 1
505 638 1
505 642 1
505 646 1
505 648 1
505 655 1
505 659 1
505 666 1
505 669 1
505 671 1
505 687 1
505 691 1
505 692 1
505 694 1
506 16 1
506 27 1
506 29 1
506 30 1
506 32 1
506 35 1
506 38 1
506 43 1
506 45 1
506 51 1
506 53 1
506 58 1
506 63 1
506 64 1
506 68 1
506 72 1
506 73 1
506 83 1
506 88 1
506 93 1
506 96 1
506 97 1
506 108 1
506 109 1
506 119 1
506 126 1
506 130 1
506 136 1
506 139 1
506 141 1
506 146 1
506 161 1
506 164 1
506 167 1
506 173 1
506 178 1
506 179 1
506 191 1
506 193 1
506 197 1
506 199 1
506 203 1
506 209 1
506 213 1
506 214 1
506 215 1
506 224 1
506 225 1
506 230 1
506 233 1
506 234 1
506 236 1
506 239 1
506 246 1
506 248 1
506 262 1
506 271 1
506 272 1
506 279 1
506 289 1
506 292 1
506 294 1
506 302 1
506 304 1
506 317 1
506 321 1
506 323 1
506 331 1
506 336 1
506 339 1
506 344 1
506 345 1
506 346 1
506 351 1
506 352 1
506 356 1
506 360 1
506 367 1
506 370 1
506 375 1
506 378 1
506 379 1
506 380 1
506 383 1
506 400 1
506 408 1
506 415 1
506 417 1
506 418 1
506 427 1
506 428 1
506 431 1
506 436 1
506 442 1
506 446 1
506 451 1
506 462 1
506 472 1
506 475 1
506 482 1
506 483 1
506 484 1
506 485 1
506 487 1
506 488 1
506 507 1
506 515 1
506 521 1
506 523 1
506 530 1
506 534 1
506 543 1
506 544 1
506 545 1
506 558 1
506 562 1
506 573 1
506 589 1
506 591 1
506 600 1
506 613 1
506 623 1
506 624 1
506 626 1
506 628 1
506 644 1
506 645 1
506 646 1
506 649 1
506 654 1
506 663 1
506 664 1
506 675 1
506 679 1
506 689 1
506 697 1
506 699 1
507 7 1
507 21 1
507 26 1
507 27 1
507 28 1
507 32 1
507 34 1
507 41 1
507 43 1
507 44 1
507 53 1
507 54 1
507 56 1
507 60 1
507 65 1
507 66 1
507 69 1
507 73 1
507 76 1
507 77 1
507 84 1
507 85 1
507 88 1
507 95 1
507 98 1
507 105 1
507 107 1
507 114 1
507 115 1
507 116 1
507 126 1
507 129 1
507 133 1
507 135 1
507 138 1
507 142 1
507 151 1
507 156 1
507 162 1
507 172 1
507 175 1
507 176 1
507 179 1
507 193 1
507 205 1
507 206 1
507 211 1
507 214 1
507 216 1
507 217 1
507 230 1
507 231 1
507 232 1
507 234 1
507 235 1
507 252 1
507 259 1
507 275 1
507 280 1
507 281 1
507 286 1
507 289 1
507 294 1
507 326 1
507 327 1
507 329 1
507 342 1
507 361 1
507 364 1
507 366 1
507 368 1
507 369 1
507 383 1
507 385 1
507 386 1
507 391 1
507 400 1
507 403 1
507 404 1
507 405 1
507 410 1
507 411 1
507 417 1
507 426 1
507 429 1
507 430 1
507 431 1
507 433 1
507 443 1
507 448 1
507 449 1
507 452 1
507 453 1
507 455 1
507 457 1
507 459 1
507 462 1
507 469 1
507 470 1
507 471 1
507 473 1
507 476 1
507 488 1
507 493 1
507 503 1
507 506 1
507 508 1
507 519 1
507 523 1
507 527 1
507 532 1
507 540 1
507 546 1
507 547 1
507 551 1
507 556 1
507 564 1
507 576 1
507 583 1
507 585 1
507 597 1
507 603 1
507 604 1
507 605 1
507 612 1
507 613 1
507 617 1
507 618 1
507 620 1
507 621 1
507 622 1
507 627 1
507 631 1
507 633 1
507 649 1
507 650 1
507 654 1
507 659 1
507 667 1
507 668 1
507 671 1
507 680 1
507 683 1
507 685 1
507 689 1
507 691 1
507 693 1
507 698 1
507 699 1
508 4 1
508 6 1
508 19 1
508 27 1
508 31 1
508 38 1
508 39 1
508 42 1
508 43 1
508 44 1
508 47 1
508 50 1
508 55 1
508 59 1
508 72 1
508 75 1
508 76 1
508 85 1
508 92 1
508 95 1
508 111 1
508 114 1
508 116 1
508 122 1
508 134 1
508 143 1
508 144 1
508 145 1
508 147 1
508 152 1
508 161 1
508 172 1
508 175 1
508 182 1
508 183 1
508 185 1
508 189 1
508 200 1
508 208 1
508 223 1
508 225 1
508 228 1
508 236 1
508 237 1
508 254 1
508 261 1
508 263 1
508 264 1
508 267 1
508 289 1
508 299 1
508 300 1
508 305 1
508 309 1
508 314 1
508 315 1
508 322 1
508 323 1
508 329 1
508 332 1
508 334 1
508 341 1
508 345 1
508 347 1
508 360 1
508 370 1
508 375 1
508 378 1
508 389 1
508 393 1
508 406 1
508 409 1
508 418 1
508 424 1
508 428 1
508 433 1
508 448 1
508 458 1
508 466 1
508 472 1
508 475 1
508 477 1
508 487 1
508 489 1
508 507 1
508 509 1
508 518 1
508 520 1
508 525 1
508 526 1
508 528 1
508 529 1
508 530 1
508 544 1
508 555 1
508 558 1
508 568 1
508 570 1
508 579 1
508 591 1
508 596 1
508 597 1
508 599 1
508 600 1
508 602 1
508 606 1
508 608 1
508 619 1
508 626 1
508 628 1
508 630 1
508 631 1
508 635 1
508 638 1
508 639 1
508 641 1
508 643 1
508 645 1
508 647 1
508 648 1
508 650 1
508 664 1
508 665 1
508 666 1
508 668 1
508 673 1
508 674 1
508 680 1
508 683 1
508 688 1
508 692 1
508 693 1
508 697 1
508 699 1
508 700 1
509 1 1
509 5 1
509 6 1
509 7 1
509 9 1
509 12 1
509 32 1
509 42 1
509 44 1
509 50 1
509 57 1
509 58 1
509 72 1
509 73 1
509 80 1
509 87 1
509 93 1
509 100 1
509 112 1
509 118 1
509 123 1
509 124 1
509 127 1
509 133 1
509 135 1
509 142 1
509 149 1
509 153 1
509 156 1
509 161 1
509 163 1
509 170 1
509 174 1
509 180 1
509 181 1
509 184 1
509 192 1
509 196 1
509 202 1
509 217 1
509 233 1
509 234 1
509 237 1
509 240 1
509 244 1
509 245 1
509 246 1
509 262 1
509 267 1
509 271 1
509 276 1
509 288 1
509 333 1
509 346 1
509 349 1
509 361 1
509 365 1
509 367 1
509 372 1
509 373 1
509 375 1
509 383 1
509 385 1
509 392 1
509 398 1
509 399 1
509 402 1
509 406 1
509 407 1
509 408 1
509 410 1
509 411 1
509 422 1
509 433 1
509 438 1
509 446 1
509 449 1
509 453 1
509 456 1
509 461 1
509 464 1
509 470 1
509 472 1
509 473 1
509 489 1
509 498 1
509 508 1
509 514 1
509 515 1
509 519 1
509 521 1
509 530 1
509 542 1
509 548 1
509 549 1
509 554 1
509 555 1
509 556 1
509 568 1
509 578 1
509 585 1
509 589 1
509 595 1
509 599 1
509 604 1
509 610 1
509 612 1
509 613 1
509 619 1
509 625 1
509 626 1
509 628 1
509 630 1
509 642 1
509 643 1
509 655 1
509 661 1
509 671 1
509 674 1
509 676 1
509 688 1
510 1 1
510 2 1
510 24 1
510 27 1
510 35 1
510 46 1
510 52 1
510 53 1
510 60 1
510 61 1
510 62 1
510 64 1
510 65 1
510 66 1
510 69 1
510 76 1
510 81 1
510 82 1
510 83 1
510 96 1
510 100 1
510 101 1
510 105 1
510 108 1
510 119 1
510 120 1
510 121 1
510 123 1
510 128 1
510 129 1
510 134 1
510 142 1
510 150 1
510 151 1
510 153 1
510 160 1
510 162 1
510 163 1
510 165 1
510 169 1
510 171 1
510 174 1
510 177 1
510 180 1
510 181 1
510 182 1
510 185 1
510 187 1
510 188 1
510 191 1
510 196 1
510 198 1
510 210 1
510 211 1
510 214 1
510 217 1
510 220 1
510 223 1
510 224 1
510 234 1
510 239 1
510 241 1
510 244 1
510 248 1
510 250 1
510 251 1
510 255 1
510 265 1
510 267 1
510 273 1
510 278 1
510 286 1
510 293 1
510 296 1
510 299 1
510 301 1
510 303 1
510 310 1
510 317 1
510 324 1
510 326 1
510 345 1
510 351 1
510 352 1
510 355 1
510 358 1
510 362 1
510 364 1
510 365 1
510 399 1
510 409 1
510 411 1
510 420 1
510 424 1
510 426 1
510 427 1
510 433 1
510 440 1
510 446 1
510 452 1
510 453 1
510 463 1
510 464 1
510 465 1
510 477 1
510 479 1
510 481 1
510 483 1
510 486 1
510 487 1
510 500 1
510 502 1
510 505 1
510 521 1
510 522 1
510 525 1
510 526 1
510 529 1
510 531 1
510 533 1
510 538 1
510 539 1
510 541 1
510 542 1
510 547 1
510 548 1
510 549 1
510 556 1
510 561 1
510 562 1
510 565 1
510 572 1
510 575 1
510 576 1
510 585 1
510 593 1
510 595 1
510 601 1
510 604 1
510 611 1
510 613 1
510 614 1
510 624 1
510 636 1
510 657 1
510 662 1
510 667 1
510 680 1
510 685 1
511 12 1
511 14 1
511 16 1
511 18 1
511 49 1
511 50 1
511 51 1
511 53 1
511 55 1
511 66 1
511 67 1
511 68 1
511 69 1
511 71 1
511 73 1
511 75 1
511 78 1
511 83 1
511 84 1
511 85 1
511 90 1
511 99 1
511 102 1
511 112 1
511 119 1
511 122 1
511 124 1
511 129 1
511 130 1
511 132 1
511 135 1
511 139 1
511 143 1
511 150 1
511 154 1
511 156 1
511 160 1
511 166 1
511 171 1
511 176 1
511 180 1
511 186 1
511 190 1
511 206 1
511 207 1
511 209 1
511 211 1
511 220 1
511 224 1
511 234 1
511 240 1
511 243 1
511 244 1
511 259 1
511 270 1
511 272 1
511 279 1
511 317 1
511 326 1
511 333 1
511 344 1
511 349 1
511 351 1
511 360 1
511 361 1
511 366 1
511 373 1
511 378 1
511 379 1
511 380 1
511 381 1
511 384 1
511 398 1
511 404 1
511 412 1
511 421 1
511 422 1
511 424 1
511 431 1
511 433 1
511 436 1
511 437 1
511 438 1
511 448 1
511 452 1
511 453 1
511 462 1
511 463 1
511 464 1
511 480 1
511 489 1
511 505 1
511 514 1
511 517 1
511 520 1
511 521 1
511 524 1
511 538 1
511 549 1
511 550 1
511 553 1
511 562 1
511 564 1
511 569 1
511 572 1
511 584 1
511 587 1
511 594 1
511 597 1
511 599 1
511 601 1
511 607 1
511 610 1
511 612 1
511 631 1
511 633 1
511 635 1
511 642 1
511 646 1
511 650 1
511 665 1
511 669 1
511 671 1
511 676 1
511 682 1
511 685 1
511 696 1
512 1 1
512 15 1
512 16 1
512 30 1
512 33 1
512 34 1
512 35 1
512 38 1
512 39 1
512 45 1
512 51 1
512 60 1
512 61 1
512 66 1
512 67 1
512 71 1
512 77 1
512 85 1
512 90 1
512 92 1
512 96 1
512 103 1
512 108 1
512 109 1
512 111 1
512 115 1
512 121 1
512 123 1
512 129 1
512 135 1
512 145 1
512 152 1
512 157 1
512 169 1
512 175 1
512 178 1
512 181 1
512 189 1
512 191 1
512 195 1
512 197 1
512 201 1
512 206 1
512 210 1
512 214 1
512 227 1
512 229 1
512 235 1
512 242 1
512 248 1
512 249 1
512 251 1
512 267 1
512 285 1
512 289 1
512 291 1
512 298 1
512 301 1
512 306 1
512 307 1
512 313 1
512 329 1
512 330 1
512 334 1
512 335 1
512 340 1
512 342 1
512 348 1
512 349 1
512 353 1
512 362 1
512 364 1
512 365 1
512 368 1
512 371 1
512 372 1
512 388 1
512 390 1
512 392 1
512 394 1
512 395 1
512 398 1
512 404 1
512 409 1
512 411 1
512 420 1
512 422 1
512 426 1
512 430 1
512 433 1
512 443 1
512 447 1
512 451 1
512 452 1
512 468 1
512 470 1
512 473 1
512 477 1
512 488 1
512 498 1
512 514 1
512 525 1
512 526 1
512 530 1
512 534 1
512 549 1
512 550 1
512 556 1
512 558 1
512 561 1
512 562 1
512 588 1
512 589 1
512 592 1
512 597 1
512 600 1
512 601 1
512 602 1
512 603 1
512 604 1
512 609 1
512 615 1
512 616 1
512 618 1
512 626 1
512 627 1
512 630 1
512 631 1
512 633 1
512 638 1
512 641 1
512 642 1
512 649 1
512 652 1
512 653 1
512 656 1
512 659 1
512 660 1
512 669 1
512 678 1
512 682 1
512 687 1
512 695 1
513 4 1
513 5 1
513 11 1
513 17 1
513 20 1
513 23 1
513 27 1
513 43 1
513 46 1
513 48 1
513 63 1
513 69 1
513 70 1
513 71 1
513 75 1
513 81 1
513 83 1
513 86 1
513 87 1
513 93 1
513 94 1
513 96 1
513 97 1
513 109 1
513 110 1
513 111 1
513 112 1
513 113 1
513 114 1
513 119 1
513 123 1
513 129 1
513 133 1
513 135 1
513 148 1
513 150 1
513 153 1
513 156 1
513 165 1
513 166 1
513 167 1
513 169 1
513 170 1
513 175 1
513 177 1
513 182 1
513 183 1
513 186 1
513 190 1
513 196 1
513 202 1
513 203 1
513 217 1
513 219 1
513 223 1
513 226 1
513 232 1
513 237 1
513 249 1
513 252 1
513 261 1
513 262 1
513 269 1
513 273 1
513 286 1
513 295 1
513 296 1
513 299 1
513 301 1
513 305 1
513 316 1
513 324 1
513 327 1
513 338 1
513 342 1
513 343 1
513 346 1
513 354 1
513 357 1
513 358 1
513 359 1
513 367 1
513 370 1
513 374 1
513 378 1
513 380 1
513 382 1
513 386 1
513 389 1
513 397 1
513 402 1
513 406 1
513 418 1
513 424 1
513 427 1
513 428 1
513 430 1
513 435 1
513 441 1
513 450 1
513 466 1
513 471 1
513 476 1
513 479 1
513 488 1
513 497 1
513 502 1
513 504 1
513 505 1
513 519 1
513 535 1
513 544 1
513 550 1
513 556 1
513 557 1
513 559 1
513 568 1
513 570 1
513 572 1
513 576 1
513 583 1
513 586 1
513 590 1
513 607 1
513 611 1
513 614 1
513 621 1
513 630 1
513 636 1
513 637 1
513 640 1
513 642 1
513 645 1
513 649 1
513 656 1
513 659 1
513 665 1
513 672 1
513 676 1
513 678 1
513 682 1
513 686 1
513 689 1
513 690 1
513 691 1
513 692 1
513 693 1
513 696 1
513 698 1
514 28 1
514 37 1
514 44 1
514 47 1
514 49 1
514 51 1
514 58 1
514 65 1
514 71 1
514 79 1
514 98 1
514 105 1
514 115 1
514 117 1
514 119 1
514 121 1
514 122 1
514 126 1
514 132 1
514 153 1
514 161 1
514 170 1
514 183 1
514 192 1
514 194 1
514 197 1
514 203 1
514 207 1
514 212 1
514 213 1
514 217 1
514 229 1
514 231 1
514 239 1
514 244 1
514 246 1
514 251 1
514 254 1
514 255 1
514 259 1
514 263 1
514 272 1
514 286 1
514 287 1
514 298 1
514 301 1
514 302 1
514 311 1
514 317 1
514 321 1
514 324 1
514 327 1
514 328 1
514 329 1
514 333 1
514 336 1
514 338 1
514 341 1
514 350 1
514 356 1
514 363 1
514 379 1
514 384 1
514 385 1
514 387 1
514 388 1
514 395 1
514 397 1
514 405 1
514 406 1
514 407 1
514 408 1
514 415 1
514 419 1
514 429 1
514 430 1
514 434 1
514 435 1
514 455 1
514 462 1
514 470 1
514 471 1
514 476 1
514 486 1
514 487 1
514 490 1
514 491 1
514 497 1
514 504 1
514 509 1
514 511 1
514 512 1
514 519 1
514 526 1
514 532 1
514 533 1
514 540 1
514 544 1
514 551 1
514 552 1
514 553 1
514 554 1
514 555 1
514 556 1
514 565 1
514 570 1
514 576 1
514 583 1
514 584 1
514 587 1
514 593 1
514 594 1
514 613 1
514 616 1
514 624 1
514 625 1
514 629 1
514 634 1
514 637 1
514 638 1
514 640 1
514 642 1
514 645 1
514 652 1
514 656 1
514 663 1
514 671 1
514 673 1
514 681 1
514 687 1
514 688 1
514 689 1
514 691 1
514 700 1
515 2 1
515 3 1
515 6 1
515 20 1
515 21 1
515 23 1
515 24 1
515 31 1
515 47 1
515 48 1
515 52 1
515 60 1
515 61 1
515 66 1
515 68 1
515 76 1
515 78 1
515 79 1
515 85 1
515 94 1
515 97 1
515 101 1
515 106 1
515 109 1
515 115 1
515 118 1
515 122 1
515 124 1
515 126 1
515 130 1
515 131 1
515 136 1
515 150 1
515 155 1
515 158 1
515 162 1
515 163 1
515 165 1
515 166 1
515 174 1
515 180 1
515 184 1
515 185 1
515 188 1
515 198 1
515 200 1
515 202 1
515 225 1
515 229 1
515 230 1
515 232 1
515 241 1
515 242 1
515 244 1
515 245 1
515 248 1
515 250 1
515 260 1
515 264 1
515 267 1
515 269 1
515 273 1
515 289 1
515 317 1
515 319 1
515 320 1
515 323 1
515 329 1
515 336 1
515 338 1
515 341 1
515 351 1
515 352 1
515 359 1
515 360 1
515 362 1
515 363 1
515 393 1
515 396 1
515 398 1
515 417 1
515 419 1
515 422 1
515 427 1
515 430 1
515 437 1
515 449 1
515 458 1
515 460 1
515 465 1
515 467 1
515 479 1
515 480 1
515 483 1
515 485 1
515 489 1
515 492 1
515 495 1
515 496 1
515 499 1
515 501 1
515 503 1
515 505 1
515 506 1
515 509 1
515 517 1
515 522 1
515 539 1
515 540 1
515 551 1
515 553 1
515 554 1
515 559 1
515 567 1
515 585 1
515 587 1
515 592 1
515 597 1
515 598 1
515 604 1
515 614 1
515 618 1
515 643 1
515 644 1
515 646 1
515 651 1
515 654 1
515 659 1
515 660 1
515 667 1
515 672 1
515 699 1
516 1 1
516 3 1
516 10 1
516 13 1
516 20 1
516 23 1
516 26 1
516 28 1
516 31 1
516 38 1
516 43 1
516 53 1
516 55 1
516 62 1
516 72 1
516 75 1
516 78 1
516 79 1
516 82 1
516 103 1
516 104 1
516 110 1
516 112 1
516 129 1
516 130 1
516 131 1
516 132 1
516 144 1
516 156 1
516 158 1
516 160 1
516 162 1
516 166 1
516 167 1
516 172 1
516 174 1
516 184 1
516 190 1
516 191 1
516 195 1
516 203 1
516 204 1
516 224 1
516 226 1
516 229 1
516 232 1
516 233 1
516 234 1
516 238 1
516 243 1
516 250 1
516 257 1
516 265 1
516 269 1
516 273 1
516 281 1
516 282 1
516 285 1
516 295 1
516 298 1
516 299 1
516 303 1
516 305 1
516 306 1
516 309 1
516 317 1
516 318 1
516 320 1
516 321 1
516 331 1
516 337 1
516 340 1
516 344 1
516 357 1
516 363 1
516 368 1
516 372 1
516 379 1
516 402 1
516 403 1
516 404 1
516 408 1
516 411 1
516 429 1
516 439 1
516 440 1
516 445 1
516 448 1
516 453 1
516 461 1
516 466 1
516 480 1
516 483 1
516 485 1
516 490 1
516 492 1
516 495 1
516 496 1
516 520 1
516 534 1
516 537 1
516 563 1
516 565 1
516 574 1
516 577 1
516 585 1
516 586 1
516 590 1
516 591 1
516 607 1
516 608 1
516 609 1
516 618 1
516 630 1
516 642 1
516 645 1
516 649 1
516 650 1
516 662 1
516 663 1
516 665 1
516 666 1
516 675 1
516 676 1
516 681 1
516 682 1
516 684 1
516 690 1
516 693 1
516 695 1
516 697 1
517 1 1
517 2 1
517 8 1
517 25 1
517 29 1
517 33 1
517 42 1
517 43 1
517 46 1
517 55 1
517 56 1
517 58 1
517 69 1
517 70 1
517 72 1
517 82 1
517 88 1
517 90 1
517 92 1
517 100 1
517 115 1
517 118 1
517 119 1
517 126 1
517 128 1
517 130 1
517 133 1
517 136 1
517 137 1
517 140 1
517 142 1
517 143 1
517 144 1
517 145 1
517 150 1
517 151 1
517 164 1
517 171 1
517 175 1
517 185 1
517 191 1
517 192 1
517 205 1
517 206 1
517 219 1
517 224 1
517 233 1
517 234 1
517 239 1
517 242 1
517 249 1
517 286 1
517 289 1
517 293 1
517 301 1
517 306 1
517 310 1
517 315 1
517 337 1
517 340 1
517 353 1
517 362 1
517 366 1
517 368 1
517 383 1
517 384 1
517 386 1
517 389 1
517 394 1
517 396 1
517 398 1
517 405 1
517 414 1
517 419 1
517 422 1
517 426 1
517 433 1
517 437 1
517 443 1
517 449 1
517 453 1
517 457 1
517 468 1
517 471 1
517 477 1
517 478 1
517 480 1
517 481 1
517 482 1
517 496 1
517 499 1
517 503 1
517 511 1
517 515 1
517 519 1
517 524 1
517 526 1
517 531 1
517 543 1
517 546 1
517 561 1
517 562 1
517 576 1
517 579 1
517 584 1
517 586 1
517 587 1
517 597 1
517 602 1
517 605 1
517 612 1
517 613 1
517 615 1
517 628 1
517 633 1
517 636 1
517 637 1
517 639 1
517 646 1
517 663 1
517 667 1
517 672 1
517 673 1
517 677 1
517 688 1
517 689 1
517 693 1
518 1 1
518 4 1
518 5 1
518 9 1
518 23 1
518 31 1
518 40 1
518 52 1
518 53 1
518 54 1
518 58 1
518 60 1
518 62 1
518 71 1
518 76 1
518 81 1
518 90 1
518 92 1
518 93 1
518 95 1
518 103 1
518 111 1
518 115 1
518 116 1
518 117 1
518 121 1
518 125 1
518 126 1
518 128 1
518 137 1
518 139 1
518 148 1
518 151 1
518 171 1
518 177 1
518 179 1
518 180 1
518 186 1
518 190 1
518 191 1
518 196 1
518 197 1
518 210 1
518 212 1
518 219 1
518 229 1
518 236 1
518 237 1
518 238 1
518 239 1
518 241 1
518 244 1
518 264 1
518 274 1
518 281 1
518 285 1
518 287 1
518 288 1
518 294 1
518 309 1
518 322 1
518 325 1
518 343 1
518 359 1
518 360 1
518 365 1
518 371 1
518 373 1
518 390 1
518 397 1
518 409 1
518 411 1
518 418 1
518 419 1
518 422 1
518 424 1
518 425 1
518 437 1
518 445 1
518 453 1
518 455 1
518 470 1
518 481 1
518 483 1
518 488 1
518 490 1
518 492 1
518 500 1
518 503 1
518 504 1
518 508 1
518 521 1
518 522 1
518 524 1
518 531 1
518 532 1
518 535 1
518 538 1
518 540 1
518 551 1
518 553 1
518 557 1
518 563 1
518 564 1
518 567 1
518 569 1
518 570 1
518 574 1
518 575 1
518 579 1
518 581 1
518 585 1
518 590 1
518 597 1
518 598 1
518 602 1
518 605 1
518 607 1
518 610 1
518 612 1
518 613 1
518 620 1
518 624 1
518 627 1
518 636 1
518 639 1
518 640 1
518 656 1
518 657 1
518 664 1
518 665 1
518 667 1
518 669 1
518 674 1
518 678 1
518 679 1
518 682 1
518 688 1
518 689 1
518 694 1
518 697 1
519 11 1
519 18 1
519 25 1
519 29 1
519 30 1
519 39 1
519 42 1
519 47 1
519 49 1
519 51 1
519 56 1
519 57 1
519 61 1
519 74 1
519 80 1
519 85 1
519 86 1
519 87 1
519 94 1
519 95 1
519 101 1
519 104 1
519 106 1
519 108 1
519 111 1
519 122 1
519 127 1
519 130 1
519 132 1
519 136 1
519 148 1
519 149 1
519 151 1
519 155 1
519 158 1
519 159 1
519 160 1
519 165 1
519 169 1
519 176 1
519 179 1
519 187 1
519 188 1
519 194 1
519 196 1
519 201 1
519 207 1
519 213 1
519 217 1
519 218 1
519 226 1
519 230 1
519 236 1
519 237 1
519 241 1
519 243 1
519 261 1
519 264 1
519 268 1
519 277 1
519 293 1
519 294 1
519 301 1
519 313 1
519 324 1
519 327 1
519 329 1
519 336 1
519 340 1
519 342 1
519 352 1
519 355 1
519 368 1
519 370 1
519 373 1
519 384 1
519 387 1
519 392 1
519 393 1
519 396 1
519 407 1
519 411 1
519 413 1
519 419 1
519 422 1
519 432 1
519 435 1
519 438 1
519 439 1
519 443 1
519 447 1
519 454 1
519 463 1
519 465 1
519 474 1
519 475 1
519 478 1
519 484 1
519 485 1
519 487 1
519 507 1
519 509 1
519 513 1
519 514 1
519 517 1
519 522 1
519 524 1
519 530 1
519 531 1
519 536 1
519 539 1
519 543 1
519 547 1
519 549 1
519 551 1
519 557 1
519 559 1
519 563 1
519 564 1
519 567 1
519 571 1
519 573 1
519 589 1
519 595 1
519 605 1
519 611 1
519 614 1
519 615 1
519 625 1
519 633 1
519 634 1
519 648 1
519 649 1
519 655 1
519 660 1
519 663 1
519 672 1
519 673 1
519 674 1
519 683 1
519 685 1
519 689 1
519 690 1
519 696 1
520 2 1
520 10 1
520 11 1
520 21 1
520 25 1
520 34 1
520 37 1
520 38 1
520 39 1
520 43 1
520 46 1
520 60 1
520 64 1
520 71 1
520 72 1
520 84 1
520 85 1
520 89 1
520 91 1
520 110 1
520 111 1
520 118 1
520 123 1
520 136 1
520 139 1
520 146 1
520 150 1
520 152 1
520 161 1
520 164 1
520 168 1
520 169 1
520 174 1
520 180 1
520 198 1
520 207 1
520 208 1
520 211 1
520 213 1
520 215 1
520 216 1
520 221 1
520 224 1
520 226 1
520 228 1
520 230 1
520 233 1
520 235 1
520 239 1
520 244 1
520 255 1
520 265 1
520 270 1
520 275 1
520 277 1
520 281 1
520 287 1
520 290 1
520 293 1
520 299 1
520 306 1
520 316 1
520 319 1
520 325 1
520 329 1
520 330 1
520 333 1
520 335 1
520 337 1
520 338 1
520 339 1
520 344 1
520 345 1
520 349 1
520 354 1
520 358 1
520 373 1
520 390 1
520 392 1
520 399 1
520 406 1
520 408 1
520 410 1
520 420 1
520 424 1
520 437 1
520 438 1
520 444 1
520 446 1
520 449 1
520 455 1
520 462 1
520 464 1
520 473 1
520 474 1
520 488 1
520 498 1
520 501 1
520 508 1
520 511 1
520 516 1
520 522 1
520 523 1
520 524 1
520 526 1
520 535 1
520 550 1
520 552 1
520 553 1
520 565 1
520 570 1
520 582 1
520 584 1
520 588 1
520 590 1
520 592 1
520 594 1
520 595 1
520 603 1
520 607 1
520 617 1
520 619 1
520 620 1
520 628 1
520 637 1
520 643 1
520 646 1
520 653 1
520 658 1
520 668 1
520 672 1
520 676 1
520 691 1
520 694 1
520 698 1
520 700 1
521 5 1
521 7 1
521 10 1
521 12 1
521 18 1
521 20 1
521 23 1
521 30 1
521 33 1
521 34 1
521 37 1
521 43 1
521 46 1
521 50 1
521 53 1
521 59 1
521 73 1
521 78 1
521 94 1
521 100 1
521 106 1
521 107 1
521 108 1
521 110 1
521 115 1
521 130 1
521 131 1
521 146 1
521 158 1
521 161 1
521 168 1
521 171 1
521 183 1
521 186 1
521 193 1
521 202 1
521 207 1
521 208 1
521 213 1
521 215 1
521 225 1
521 227 1
521 234 1
521 237 1
521 243 1
521 245 1
521 247 1
521 248 1
521 250 1
521 257 1
521 261 1
521 264 1
521 269 1
521 270 1
521 271 1
521 276 1
521 277 1
521 293 1
521 296 1
521 304 1
521 308 1
521 309 1
521 326 1
521 339 1
521 344 1
521 346 1
521 348 1
521 358 1
521 367 1
521 371 1
521 391 1
521 405 1
521 408 1
521 409 1
521 413 1
521 414 1
521 417 1
521 428 1
521 431 1
521 437 1
521 438 1
521 440 1
521 450 1
521 451 1
521 456 1
521 458 1
521 459 1
521 467 1
521 477 1
521 486 1
521 488 1
521 491 1
521 502 1
521 505 1
521 506 1
521 509 1
521 510 1
521 511 1
521 518 1
521 523 1
521 524 1
521 525 1
521 538 1
521 539 1
521 540 1
521 546 1
521 547 1
521 554 1
521 560 1
521 563 1
521 568 1
521 578 1
521 582 1
521 586 1
521 591 1
521 593 1
521 597 1
521 612 1
521 619 1
521 626 1
521 631 1
521 634 1
521 641 1
521 643 1
521 644 1
521 648 1
521 651 1
521 653 1
521 654 1
521 657 1
521 664 1
521 667 1
521 668 1
521 673 1
521 679 1
521 697 1
522 2 1
522 15 1
522 18 1
522 20 1
522 21 1
522 22 1
522 25 1
522 27 1
522 33 1
522 36 1
522 52 1
522 57 1
522 59 1
522 71 1
522 73 1
522 75 1
522 77 1
522 89 1
522 90 1
522 91 1
522 92 1
522 95 1
522 96 1
522 100 1
522 103 1
522 105 1
522 110 1
522 117 1
522 118 1
522 122 1
522 125 1
522 126 1
522 130 1
522 132 1
522 133 1
522 137 1
522 144 1
522 147 1
522 155 1
522 160 1
522 167 1
522 168 1
522 174 1
522 175 1
522 177 1
522 188 1
522 192 1
522 194 1
522 195 1
522 198 1
522 199 1
522 201 1
522 207 1
522 211 1
522 215 1
522 216 1
522 222 1
522 236 1
522 237 1
522 241 1
522 247 1
522 249 1
522 254 1
522 266 1
522 267 1
522 280 1
522 286 1
522 288 1
522 310 1
522 311 1
522 312 1
522 328 1
522 332 1
522 334 1
522 337 1
522 341 1
522 345 1
522 358 1
522 365 1
522 366 1
522 369 1
522 370 1
522 371 1
522 374 1
522 383 1
522 387 1
522 398 1
522 399 1
522 402 1
522 409 1
522 415 1
522 416 1
522 417 1
522 423 1
522 426 1
522 428 1
522 433 1
522 440 1
522 449 1
522 451 1
522 457 1
522 465 1
522 468 1
522 472 1
522 473 1
522 480 1
522 482 1
522 486 1
522 491 1
522 493 1
522 502 1
522 505 1
522 510 1
522 515 1
522 518 1
522 519 1
522 520 1
522 525 1
522 528 1
522 530 1
522 533 1
522 538 1
522 549 1
522 552 1
522 554 1
522 563 1
522 570 1
522 573 1
522 574 1
522 575 1
522 576 1
522 580 1
522 584 1
522 593 1
522 597 1
522 598 1
522 605 1
522 606 1
522 610 1
522 611 1
522 614 1
522 622 1
522 631 1
522 638 1
522 640 1
522 642 1
522 647 1
522 648 1
522 653 1
522 654 1
522 659 1
522 663 1
522 666 1
522 668 1
522 677 1
523 4 1
523 17 1
523 19 1
523 21 1
523 22 1
523 27 1
523 34 1
523 44 1
523 51 1
523 55 1
523 60 1
523 61 1
523 64 1
523 67 1
523 70 1
523 78 1
523 80 1
523 82 1
523 87 1
523 89 1
523 94 1
523 98 1
523 100 1
523 110 1
523 115 1
523 122 1
523 128 1
523 131 1
523 134 1
523 136 1
523 139 1
523 144 1
523 149 1
523 150 1
523 154 1
523 155 1
523 165 1
523 171 1
523 174 1
523 183 1
523 186 1
523 187 1
523 189 1
523 190 1
523 191 1
523 198 1
523 199 1
523 205 1
523 211 1
523 217 1
523 223 1
523 232 1
523 238 1
523 239 1
523 240 1
523 242 1
523 249 1
523 256 1
523 259 1
523 266 1
523 271 1
523 272 1
523 279 1
523 280 1
523 284 1
523 287 1
523 289 1
523 294 1
523 295 1
523 298 1
523 305 1
523 307 1
523 310 1
523 323 1
523 327 1
523 332 1
523 340 1
523 346 1
523 352 1
523 356 1
523 357 1
523 362 1
523 363 1
523 365 1
523 378 1
523 382 1
523 384 1
523 386 1
523 389 1
523 390 1
523 404 1
523 406 1
523 417 1
523 418 1
523 432 1
523 444 1
523 455 1
523 457 1
523 460 1
523 466 1
523 474 1
523 479 1
523 485 1
523 489 1
523 492 1
523 497 1
523 505 1
523 506 1
523 507 1
523 520 1
523 521 1
523 542 1
523 543 1
523 547 1
523 548 1
523 551 1
523 563 1
523 564 1
523 565 1
523 571 1
523 574 1
523 576 1
523 579 1
523 588 1
523 592 1
523 593 1
523 598 1
523 600 1
523 602 1
523 604 1
523 605 1
523 622 1
523 625 1
523 627 1
523 629 1
523 637 1
523 643 1
523 646 1
523 652 1
523 656 1
523 659 1
523 660 1
523 662 1
523 668 1
523 675 1
523 678 1
523 679 1
523 686 1
523 687 1
523 690 1
523 692 1
523 697 1
523 700 1
524 3 1
524 7 1
524 20 1
524 21 1
524 23 1
524 26 1
524 27 1
524 44 1
524 50 1
524 59 1
524 61 1
524 62 1
524 65 1
524 68 1
524 83 1
524 88 1
524 89 1
524 93 1
524 97 1
524 98 1
524 101 1
524 102 1
524 107 1
524 108 1
524 114 1
524 128 1
524 134 1
524 136 1
524 139 1
524 147 1
524 155 1
524 156 1
524 160 1
524 161 1
524 162 1
524 163 1
524 171 1
524 172 1
524 175 1
524 202 1
524 204 1
524 206 1
524 208 1
524 222 1
524 223 1
524 224 1
524 228 1
524 233 1
524 234 1
524 240 1
524 247 1
524 257 1
524 260 1
524 268 1
524 272 1
524 275 1
524 277 1
524 282 1
524 285 1
524 295 1
524 305 1
524 307 1
524 311 1
524 314 1
524 317 1
524 329 1
524 338 1
524 347 1
524 348 1
524 351 1
524 358 1
524 360 1
524 369 1
524 372 1
524 382 1
524 388 1
524 393 1
524 396 1
524 401 1
524 405 1
524 411 1
524 413 1
524 421 1
524 430 1
524 432 1
524 435 1
524 440 1
524 444 1
524 457 1
524 463 1
524 467 1
524 478 1
524 481 1
524 492 1
524 493 1
524 495 1
524 496 1
524 505 1
524 511 1
524 517 1
524 518 1
524 519 1
524 520 1
524 521 1
524 527 1
524 536 1
524 541 1
524 543 1
524 549 1
524 552 1
524 554 1
524 558 1
524 560 1
524 565 1
524 566 1
524 567 1
524 568 1
524 575 1
524 581 1
524 591 1
524 594 1
524 597 1
524 602 1
524 603 1
524 607 1
524 610 1
524 611 1
524 612 1
524 615 1
524 620 1
524 624 1
524 631 1
524 640 1
524 644 1
524 652 1
524 659 1
524 672 1
524 677 1
524 684 1
524 689 1
524 691 1
524 697 1
525 5 1
525 7 1
525 15 1
525 21 1
525 24 1
525 27 1
525 37 1
525 47 1
525 49 1
525 50 1
525 53 1
525 55 1
525 56 1
525 60 1
525 62 1
525 64 1
525 65 1
525 73 1
525 79 1
525 88 1
525 89 1
525 97 1
525 109 1
525 113 1
525 117 1
525 121 1
525 128 1
525 134 1
525 139 1
525 146 1
525 152 1
525 154 1
525 160 1
525 168 1
525 174 1
525 179 1
525 181 1
525 183 1
525 188 1
525 203 1
525 211 1
525 212 1
525 216 1
525 218 1
525 221 1
525 223 1
525 236 1
525 238 1
525 244 1
525 255 1
525 260 1
525 270 1
525 274 1
525 277 1
525 282 1
525 284 1
525 292 1
525 300 1
525 307 1
525 310 1
525 313 1
525 320 1
525 323 1
525 328 1
525 333 1
525 342 1
525 343 1
525 344 1
525 354 1
525 355 1
525 363 1
525 369 1
525 375 1
525 381 1
525 384 1
525 386 1
525 390 1
525 396 1
525 398 1
525 402 1
525 412 1
525 417 1
525 419 1
525 422 1
525 425 1
525 438 1
525 440 1
525 460 1
525 468 1
525 476 1
525 482 1
525 488 1
525 497 1
525 501 1
525 508 1
525 510 1
525 512 1
525 521 1
525 522 1
525 540 1
525 541 1
525 549 1
525 552 1
525 557 1
525 561 1
525 568 1
525 569 1
525 577 1
525 579 1
525 582 1
525 586 1
525 589 1
525 595 1
525 601 1
525 609 1
525 611 1
525 613 1
525 614 1
525 622 1
525 632 1
525 634 1
525 638 1
525 642 1
525 648 1
525 652 1
525 661 1
525 668 1
525 681 1
525 684 1
525 687 1
525 690 1
525 694 1
525 696 1
525 697 1
525 700 1
526 1 1
526 5 1
526 14 1
526 29 1
526 32 1
526 36 1
526 39 1
526 44 1
526 55 1
526 59 1
526 66 1
526 73 1
526 79 1
526 80 1
526 85 1
526 93 1
526 95 1
526 114 1
526 116 1
526 117 1
526 121 1
526 134 1
526 135 1
526 142 1
526 143 1
526 145 1
526 154 1
526 159 1
526 164 1
526 172 1
526 175 1
526 188 1
526 189 1
526 190 1
526 209 1
526 212 1
526 215 1
526 219 1
526 220 1
526 223 1
526 224 1
526 225 1
526 235 1
526 238 1
526 241 1
526 246 1
526 250 1
526 251 1
526 270 1
526 274 1
526 281 1
526 286 1
526 289 1
526 294 1
526 311 1
526 317 1
526 319 1
526 323 1
526 324 1
526 327 1
526 338 1
526 351 1
526 354 1
526 361 1
526 363 1
526 371 1
526 376 1
526 383 1
526 387 1
526 389 1
526 395 1
526 409 1
526 410 1
526 417 1
526 420 1
526 430 1
526 438 1
526 444 1
526 445 1
526 448 1
526 453 1
526 456 1
526 463 1
526 470 1
526 472 1
526 475 1
526 477 1
526 479 1
526 488 1
526 494 1
526 496 1
526 497 1
526 508 1
526 510 1
526 512 1
526 514 1
526 517 1
526 520 1
526 536 1
526 537 1
526 542 1
526 546 1
526 549 1
526 555 1
526 562 1
526 565 1
526 569 1
526 570 1
526 574 1
526 576 1
526 586 1
526 589 1
526 590 1
526 592 1
526 600 1
526 606 1
526 616 1
526 617 1
526 623 1
526 626 1
526 633 1
526 634 1
526 652 1
526 653 1
526 655 1
526 664 1
526 674 1
526 682 1
526 688 1
526 689 1
526 697 1
527 1 1
527 2 1
527 5 1
527 17 1
527 26 1
527 30 1
527 33 1
527 40 1
527 42 1
527 47 1
527 49 1
527 50 1
527 52 1
527 54 1
527 55 1
527 57 1
527 65 1
527 68 1
527 81 1
527 83 1
527 94 1
527 97 1
527 99 1
527 101 1
527 104 1
527 105 1
527 107 1
527 111 1
527 113 1
527 125 1
527 126 1
527 130 1
527 137 1
527 149 1
527 151 1
527 153 1
527 156 1
527 159 1
527 161 1
527 166 1
527 176 1
527 177 1
527 187 1
527 190 1
527 195 1
527 201 1
527 203 1
527 205 1
527 211 1
527 212 1
527 216 1
527 222 1
527 229 1
527 230 1
527 235 1
527 236 1
527 248 1
527 249 1
527 257 1
527 260 1
527 269 1
527 272 1
527 287 1
527 296 1
527 297 1
527 307 1
527 312 1
527 320 1
527 325 1
527 330 1
527 334 1
527 344 1
527 347 1
527 350 1
527 352 1
527 353 1
527 357 1
527 359 1
527 360 1
527 364 1
527 365 1
527 368 1
527 372 1
527 377 1
527 383 1
527 397 1
527 403 1
527 409 1
527 413 1
527 420 1
527 421 1
527 422 1
527 433 1
527 436 1
527 438 1
527 454 1
527 469 1
527 476 1
527 489 1
527 493 1
527 494 1
527 497 1
527 501 1
527 507 1
527 524 1
527 531 1
527 532 1
527 542 1
527 547 1
527 553 1
527 554 1
527 555 1
527 557 1
527 559 1
527 573 1
527 576 1
527 584 1
527 594 1
527 603 1
527 608 1
527 617 1
527 619 1
527 625 1
527 634 1
527 635 1
527 663 1
527 665 1
527 670 1
527 678 1
527 679 1
527 696 1
528 3 1
528 30 1
528 40 1
528 41 1
528 54 1
528 56 1
528 58 1
528 61 1
528 70 1
528 74 1
528 77 1
528 81 1
528 84 1
528 91 1
528 93 1
528 94 1
528 99 1
528 112 1
528 115 1
528 118 1
528 120 1
528 128 1
528 129 1
528 134 1
528 138 1
528 142 1
528 146 1
528 150 1
528 153 1
528 155 1
528 156 1
528 160 1
528 163 1
528 166 1
528 174 1
528 176 1
528 178 1
528 179 1
528 182 1
528 183 1
528 186 1
528 194 1
528 207 1
528 210 1
528 211 1
528 213 1
528 219 1
528 223 1
528 230 1
528 231 1
528 239 1
528 248 1
528 250 1
528 254 1
528 271 1
528 277 1
528 282 1
528 290 1
528 293 1
528 300 1
528 313 1
528 317 1
528 330 1
528 332 1
528 335 1
528 336 1
528 338 1
528 345 1
528 346 1
528 357 1
528 361 1
528 365 1
528 374 1
528 377 1
528 378 1
528 382 1
528 386 1
528 395 1
528 396 1
528 397 1
528 398 1
528 400 1
528 401 1
528 404 1
528 415 1
528 416 1
528 417 1
528 433 1
528 437 1
528 439 1
528 443 1
528 447 1
528 448 1
528 449 1
528 453 1
528 454 1
528 457 1
528 458 1
528 463 1
528 464 1
528 465 1
528 469 1
528 470 1
528 472 1
528 485 1
528 490 1
528 492 1
528 503 1
528 508 1
528 522 1
528 530 1
528 546 1
528 558 1
528 559 1
528 565 1
528 568 1
528 576 1
528 580 1
528 583 1
528 586 1
528 588 1
528 594 1
528 595 1
528 596 1
528 597 1
528 602 1
528 604 1
528 606 1
528 613 1
528 614 1
528 624 1
528 627 1
528 628 1
528 639 1
528 645 1
528 654 1
528 655 1
528 656 1
528 661 1
528 667 1
528 684 1
528 690 1
528 692 1
528 694 1
528 699 1
528 700 1
529 1 1
529 11 1
529 15 1
529 18 1
529 19 1
529 20 1
529 41 1
529 54 1
529 60 1
529 61 1
529 62 1
529 71 1
529 73 1
529 87 1
529 108 1
529 109 1
529 112 1
529 118 1
529 121 1
529 122 1
529 127 1
529 134 1
529 135 1
529 137 1
529 138 1
529 141 1
529 143 1
529 148 1
529 149 1
529 152 1
529 153 1
529 161 1
529 176 1
529 180 1
529 193 1
529 195 1
529 198 1
529 203 1
529 204 1
529 212 1
529 217 1
529 219 1
529 228 1
529 232 1
529 235 1
529 241 1
529 251 1
529 263 1
529 264 1
529 295 1
529 306 1
529 311 1
529 312 1
529 315 1
529 327 1
529 331 1
529 332 1
529 336 1
529 340 1
529 344 1
529 355 1
529 368 1
529 373 1
529 374 1
529 378 1
529 383 1
529 385 1
529 387 1
529 403 1
529 406 1
529 419 1
529 423 1
529 430 1
529 433 1
529 455 1
529 460 1
529 464 1
529 466 1
529 474 1
529 476 1
529 486 1
529 503 1
529 508 1
529 510 1
529 532 1
529 537 1
529 543 1
529 554 1
529 556 1
529 559 1
529 562 1
529 568 1
529 577 1
529 578 1
529 579 1
529 583 1
529 586 1
529 587 1
529 588 1
529 594 1
529 595 1
529 599 1
529 603 1
529 604 1
529 606 1
529 609 1
529 616 1
529 621 1
529 623 1
529 629 1
529 637 1
529 639 1
529 659 1
529 674 1
529 688 1
529 696 1
530 6 1
530 10 1
530 17 1
530 24 1
530 29 1
530 38 1
530 40 1
530 47 1
530 53 1
530 54 1
530 60 1
530 66 1
530 73 1
530 76 1
530 79 1
530 83 1
530 85 1
530 91 1
530 95 1
530 101 1
530 110 1
530 111 1
530 112 1
530 124 1
530 140 1
530 146 1
530 149 1
530 150 1
530 154 1
530 156 1
530 165 1
530 177 1
530 181 1
530 202 1
530 204 1
530 205 1
530 208 1
530 215 1
530 216 1
530 217 1
530 233 1
530 237 1
530 244 1
530 245 1
530 246 1
530 250 1
530 251 1
530 263 1
530 264 1
530 270 1
530 272 1
530 283 1
530 293 1
530 300 1
530 305 1
530 307 1
530 308 1
530 310 1
530 312 1
530 314 1
530 315 1
530 318 1
530 322 1
530 323 1
530 332 1
530 339 1
530 343 1
530 346 1
530 356 1
530 366 1
530 369 1
530 371 1
530 375 1
530 383 1
530 388 1
530 392 1
530 393 1
530 394 1
530 395 1
530 408 1
530 410 1
530 415 1
530 417 1
530 418 1
530 427 1
530 438 1
530 445 1
530 446 1
530 450 1
530 452 1
530 456 1
530 460 1
530 466 1
530 468 1
530 477 1
530 478 1
530 479 1
530 496 1
530 499 1
530 502 1
530 506 1
530 508 1
530 509 1
530 512 1
530 519 1
530 522 1
530 528 1
530 536 1
530 539 1
530 541 1
530 544 1
530 548 1
530 551 1
530 555 1
530 562 1
530 563 1
530 566 1
530 567 1
530 582 1
530 585 1
530 589 1
530 592 1
530 599 1
530 606 1
530 616 1
530 630 1
530 631 1
530 634 1
530 643 1
530 647 1
530 648 1
530 649 1
530 650 1
530 654 1
530 660 1
530 668 1
530 673 1
530 679 1
530 697 1
530 698 1
531 2 1
531 3 1
531 9 1
531 10 1
531 13 1
531 18 1
531 22 1
531 25 1
531 26 1
531 27 1
531 32 1
531 41 1
531 45 1
531 56 1
531 57 1
531 60 1
531 65 1
531 70 1
531 75 1
531 82 1
531 84 1
531 86 1
531 89 1
531 95 1
531 111 1
531 113 1
531 125 1
531 130 1
531 141 1
531 146 1
531 155 1
531 156 1
531 160 1
531 165 1
531 167 1
531 172 1
531 193 1
531 199 1
531 203 1
531 209 1
531 212 1
531 217 1
531 218 1
531 219 1
531 220 1
531 221 1
531 235 1
531 238 1
531 246 1
531 247 1
531 255 1
531 265 1
531 267 1
531 272 1
531 274 1
531 282 1
531 284 1
531 290 1
531 297 1
531 301 1
531 307 1
531 315 1
531 319 1
531 327 1
531 328 1
531 336 1
531 339 1
531 341 1
531 344 1
531 345 1
531 346 1
531 356 1
531 365 1
531 369 1
531 381 1
531 384 1
531 385 1
531 386 1
531 387 1
531 389 1
531 393 1
531 397 1
531 398 1
531 401 1
531 403 1
531 407 1
531 411 1
531 415 1
531 417 1
531 422 1
531 423 1
531 425 1
531 430 1
531 435 1
531 437 1
531 442 1
531 443 1
531 446 1
531 448 1
531 461 1
531 464 1
531 465 1
531 474 1
531 475 1
531 476 1
531 478 1
531 482 1
531 486 1
531 493 1
531 500 1
531 510 1
531 517 1
531 518 1
531 519 1
531 527 1
531 535 1
531 552 1
531 556 1
531 566 1
531 589 1
531 594 1
531 601 1
531 605 1
531 609 1
531 614 1
531 620 1
531 626 1
531 642 1
531 644 1
531 645 1
531 647 1
531 651 1
531 662 1
531 663 1
531 665 1
531 667 1
531 670 1
531 674 1
531 676 1
531 677 1
531 690 1
531 693 1
531 694 1
531 696 1
531 697 1
531 699 1
532 2 1
532 3 1
532 4 1
532 7 1
532 10 1
532 13 1
532 14 1
532 15 1
532 19 1
532 22 1
532 27 1
532 33 1
532 35 1
532 36 1
532 38 1
532 40 1
532 49 1
532 50 1
532 54 1
532 58 1
532 65 1
532 70 1
532 76 1
532 78 1
532 79 1
532 81 1
532 86 1
532 93 1
532 96 1
532 98 1
532 99 1
532 100 1
532 106 1
532 107 1
532 111 1
532 118 1
532 120 1
532 123 1
532 132 1
532 134 1
532 137 1
532 138 1
532 141 1
532 154 1
532 155 1
532 158 1
532 165 1
532 172 1
532 173 1
532 176 1
532 189 1
532 194 1
532 198 1
532 201 1
532 206 1
532 213 1
532 216 1
532 221 1
532 223 1
532 230 1
532 232 1
532 233 1
532 238 1
532 239 1
532 243 1
532 246 1
532 247 1
532 249 1
532 250 1
532 259 1
532 268 1
532 269 1
532 280 1
532 282 1
532 284 1
532 300 1
532 301 1
532 306 1
532 312 1
532 314 1
532 316 1
532 324 1
532 329 1
532 332 1
532 335 1
532 336 1
532 342 1
532 343 1
532 345 1
532 346 1
532 363 1
532 364 1
532 365 1
532 374 1
532 382 1
532 383 1
532 384 1
532 389 1
532 400 1
532 406 1
532 410 1
532 415 1
532 417 1
532 419 1
532 427 1
532 439 1
532 442 1
532 445 1
532 448 1
532 454 1
532 459 1
532 465 1
532 471 1
532 472 1
532 475 1
532 477 1
532 478 1
532 485 1
532 486 1
532 496 1
532 498 1
532 507 1
532 514 1
532 518 1
532 527 1
532 529 1
532 537 1
532 538 1
532 541 1
532 548 1
532 551 1
532 552 1
532 556 1
532 564 1
532 565 1
532 571 1
532 576 1
532 578 1
532 581 1
532 591 1
532 600 1
532 605 1
532 616 1
532 619 1
532 620 1
532 626 1
532 630 1
532 642 1
532 648 1
532 653 1
532 654 1
532 656 1
532 658 1
532 662 1
532 665 1
532 673 1
532 676 1
532 678 1
532 682 1
532 683 1
532 685 1
532 688 1
532 692 1
532 696 1
533 1 1
533 4 1
533 5 1
533 14 1
533 16 1
533 25 1
533 29 1
533 41 1
533 42 1
533 45 1
533 46 1
533 65 1
533 70 1
533 72 1
533 80 1
533 81 1
533 83 1
533 87 1
533 89 1
533 94 1
533 96 1
533 102 1
533 109 1
533 120 1
533 124 1
533 125 1
533 128 1
533 129 1
533 131 1
533 135 1
533 139 1
533 144 1
533 154 1
533 155 1
533 183 1
533 191 1
533 192 1
533 193 1
533 195 1
533 207 1
533 210 1
533 216 1
533 220 1
533 222 1
533 229 1
533 234 1
533 238 1
533 239 1
533 240 1
533 243 1
533 246 1
533 249 1
533 250 1
533 267 1
533 270 1
533 278 1
533 283 1
533 284 1
533 293 1
533 298 1
533 302 1
533 304 1
533 306 1
533 333 1
533 334 1
533 340 1
533 342 1
533 345 1
533 347 1
533 349 1
533 352 1
533 357 1
533 359 1
533 361 1
533 373 1
533 374 1
533 379 1
533 383 1
533 385 1
533 387 1
533 390 1
533 391 1
533 393 1
533 394 1
533 395 1
533 398 1
533 400 1
533 413 1
533 428 1
533 434 1
533 438 1
533 443 1
533 446 1
533 448 1
533 449 1
533 455 1
533 456 1
533 458 1
533 460 1
533 471 1
533 472 1
533 473 1
533 478 1
533 481 1
533 510 1
533 514 1
533 522 1
533 534 1
533 536 1
533 538 1
533 540 1
533 555 1
533 567 1
533 574 1
533 576 1
533 577 1
533 581 1
533 593 1
533 597 1
533 606 1
533 610 1
533 615 1
533 616 1
533 617 1
533 618 1
533 619 1
533 623 1
533 624 1
533 638 1
533 651 1
533 652 1
533 653 1
533 659 1
533 667 1
533 675 1
533 676 1
533 687 1
533 692 1
533 697 1
534 1 1
534 2 1
534 10 1
534 13 1
534 14 1
534 17 1
534 21 1
534 23 1
534 37 1
534 38 1
534 47 1
534 48 1
534 49 1
534 52 1
534 68 1
534 70 1
534 75 1
534 77 1
534 81 1
534 85 1
534 86 1
534 101 1
534 103 1
534 108 1
534 110 1
534 116 1
534 117 1
534 120 1
534 123 1
534 124 1
534 133 1
534 136 1
534 145 1
534 162 1
534 163 1
534 168 1
534 172 1
534 174 1
534 177 1
534 188 1
534 200 1
534 204 1
534 210 1
534 212 1
534 217 1
534 221 1
534 225 1
534 226 1
534 228 1
534 231 1
534 236 1
534 247 1
534 255 1
534 257 1
534 263 1
534 272 1
534 277 1
534 278 1
534 284 1
534 286 1
534 291 1
534 292 1
534 301 1
534 303 1
534 305 1
534 306 1
534 308 1
534 312 1
534 314 1
534 319 1
534 320 1
534 324 1
534 328 1
534 335 1
534 352 1
534 354 1
534 362 1
534 363 1
534 371 1
534 375 1
534 380 1
534 382 1
534 388 1
534 390 1
534 391 1
534 392 1
534 394 1
534 400 1
534 407 1
534 410 1
534 418 1
534 421 1
534 424 1
534 425 1
534 431 1
534 434 1
534 435 1
534 436 1
534 447 1
534 448 1
534 452 1
534 457 1
534 460 1
534 471 1
534 477 1
534 480 1
534 484 1
534 485 1
534 506 1
534 512 1
534 516 1
534 533 1
534 550 1
534 559 1
534 562 1
534 564 1
534 566 1
534 577 1
534 580 1
534 585 1
534 588 1
534 593 1
534 608 1
534 611 1
534 619 1
534 631 1
534 633 1
534 647 1
534 649 1
534 652 1
534 654 1
534 658 1
534 666 1
534 676 1
534 677 1
534 678 1
534 680 1
534 688 1
534 690 1
534 693 1
534 695 1
535 3 1
535 7 1
535 15 1
535 18 1
535 20 1
535 23 1
535 34 1
535 36 1
535 38 1
535 39 1
535 52 1
535 64 1
535 66 1
535 69 1
535 73 1
535 76 1
535 81 1
535 85 1
535 89 1
535 90 1
535 91 1
535 108 1
535 109 1
535 118 1
535 127 1
535 130 1
535 132 1
535 135 1
535 138 1
535 142 1
535 152 1
535 157 1
535 159 1
535 169 1
535 170 1
535 177 1
535 181 1
535 184 1
535 192 1
535 193 1
535 204 1
535 207 1
535 222 1
535 223 1
535 229 1
535 232 1
535 241 1
535 243 1
535 257 1
535 260 1
535 261 1
535 273 1
535 274 1
535 282 1
535 286 1
535 288 1
535 289 1
535 295 1
535 331 1
535 333 1
535 340 1
535 342 1
535 343 1
535 349 1
535 361 1
535 375 1
535 378 1
535 381 1
535 384 1
535 386 1
535 393 1
535 394 1
535 396 1
535 402 1
535 416 1
535 425 1
535 426 1
535 427 1
535 429 1
535 437 1
535 442 1
535 465 1
535 468 1
535 469 1
535 473 1
535 474 1
535 477 1
535 478 1
535 482 1
535 485 1
535 488 1
535 495 1
535 497 1
535 513 1
535 518 1
535 520 1
535 531 1
535 539 1
535 541 1
535 544 1
535 548 1
535 549 1
535 550 1
535 555 1
535 562 1
535 563 1
535 565 1
535 567 1
535 577 1
535 582 1
535 589 1
535 596 1
535 605 1
535 609 1
535 610 1
535 614 1
535 619 1
535 627 1
535 631 1
535 632 1
535 635 1
535 640 1
535 642 1
535 643 1
535 644 1
535 645 1
535 646 1
535 651 1
535 652 1
535 657 1
535 659 1
535 660 1
535 666 1
535 667 1
535 680 1
535 682 1
535 685 1
535 686 1
535 687 1
535 693 1
535 696 1
535 697 1
536 4 1
536 8 1
536 9 1
536 12 1
536 14 1
536 21 1
536 25 1
536 27 1
536 30 1
536 33 1
536 35 1
536 47 1
536 50 1
536 51 1
536 52 1
536 55 1
536 57 1
536 74 1
536 83 1
536 88 1
536 91 1
536 92 1
536 97 1
536 101 1
536 102 1
536 107 1
536 108 1
536 109 1
536 115 1
536 118 1
536 119 1
536 121 1
536 127 1
536 128 1
536 129 1
536 135 1
536 138 1
536 144 1
536 145 1
536 148 1
536 149 1
536 150 1
536 154 1
536 163 1
536 169 1
536 178 1
536 184 1
536 191 1
536 193 1
536 195 1
536 201 1
536 205 1
536 210 1
536 215 1
536 216 1
536 228 1
536 229 1
536 233 1
536 241 1
536 246 1
536 247 1
536 249 1
536 255 1
536 257 1
536 263 1
536 274 1
536 278 1
536 290 1
536 295 1
536 298 1
536 300 1
536 304 1
536 305 1
536 308 1
536 311 1
536 317 1
536 318 1
536 322 1
536 332 1
536 335 1
536 344 1
536 345 1
536 347 1
536 348 1
536 356 1
536 361 1
536 363 1
536 368 1
536 370 1
536 374 1
536 375 1
536 376 1
536 377 1
536 384 1
536 391 1
536 392 1
536 394 1
536 399 1
536 403 1
536 407 1
536 408 1
536 411 1
536 412 1
536 414 1
536 419 1
536 420 1
536 424 1
536 427 1
536 428 1
536 433 1
536 438 1
536 442 1
536 443 1
536 444 1
536 451 1
536 463 1
536 469 1
536 470 1
536 474 1
536 475 1
536 479 1
536 489 1
536 490 1
536 495 1
536 500 1
536 504 1
536 505 1
536 519 1
536 524 1
536 526 1
536 530 1
536 533 1
536 545 1
536 546 1
536 547 1
536 548 1
536 565 1
536 571 1
536 572 1
536 592 1
536 593 1
536 600 1
536 605 1
536 607 1
536 608 1
536 609 1
536 610 1
536 612 1
536 615 1
536 619 1
536 620 1
536 626 1
536 629 1
536 631 1
536 632 1
536 635 1
536 647 1
536 654 1
536 655 1
536 666 1
536 672 1
536 673 1
536 684 1
536 685 1
536 686 1
536 696 1
536 700 1
537 13 1
537 27 1
537 36 1
537 38 1
537 39 1
537 43 1
537 55 1
537 59 1
537 82 1
537 102 1
537 104 1
537 121 1
537 126 1
537 134 1
537 138 1
537 141 1
537 151 1
537 153 1
537 154 1
537 162 1
537 165 1
537 167 1
537 172 1
537 174 1
537 177 1
537 180 1
537 190 1
537 195 1
537 199 1
537 207 1
537 208 1
537 209 1
537 211 1
537 212 1
537 217 1
537 218 1
537 223 1
537 229 1
537 231 1
537 237 1
537 249 1
537 262 1
537 264 1
537 266 1
537 267 1
537 272 1
537 274 1
537 276 1
537 277 1
537 279 1
537 282 1
537 283 1
537 285 1
537 286 1
537 288 1
537 291 1
537 297 1
537 299 1
537 300 1
537 301 1
537 304 1
537 312 1
537 321 1
537 324 1
537 328 1
537 337 1
537 339 1
537 343 1
537 352 1
537 360 1
537 366 1
537 367 1
537 368 1
537 372 1
537 376 1
537 377 1
537 379 1
537 400 1
537 403 1
537 404 1
537 410 1
537 411 1
537 415 1
537 417 1
537 421 1
537 425 1
537 428 1
537 430 1
537 432 1
537 445 1
537 454 1
537 465 1
537 467 1
537 471 1
537 472 1
537 475 1
537 476 1
537 485 1
537 488 1
537 491 1
537 505 1
537 516 1
537 526 1
537 529 1
537 532 1
537 552 1
537 553 1
537 554 1
537 562 1
537 563 1
537 568 1
537 573 1
537 576 1
537 581 1
537 583 1
537 591 1
537 600 1
537 602 1
537 603 1
537 610 1
537 611 1
537 618 1
537 619 1
537 624 1
537 625 1
537 639 1
537 644 1
537 654 1
537 658 1
537 660 1
537 661 1
537 663 1
537 691 1
537 695 1
538 2 1
538 20 1
538 29 1
538 30 1
538 34 1
538 39 1
538 40 1
538 43 1
538 48 1
538 52 1
538 53 1
538 56 1
538 63 1
538 76 1
538 77 1
538 80 1
538 82 1
538 87 1
538 91 1
538 95 1
538 108 1
538 116 1
538 121 1
538 122 1
538 123 1
538 124 1
538 125 1
538 131 1
538 136 1
538 151 1
538 161 1
538 169 1
538 176 1
538 188 1
538 189 1
538 191 1
538 204 1
538 206 1
538 209 1
538 210 1
538 213 1
538 223 1
538 225 1
538 233 1
538 242 1
538 243 1
538 245 1
538 248 1
538 251 1
538 254 1
538 258 1
538 261 1
538 262 1
538 263 1
538 268 1
538 270 1
538 281 1
538 285 1
538 293 1
538 298 1
538 305 1
538 325 1
538 333 1
538 351 1
538 372 1
538 378 1
538 390 1
538 392 1
538 394 1
538 412 1
538 413 1
538 422 1
538 425 1
538 427 1
538 447 1
538 463 1
538 467 1
538 473 1
538 474 1
538 485 1
538 486 1
538 488 1
538 499 1
538 510 1
538 511 1
538 518 1
538 521 1
538 522 1
538 532 1
538 533 1
538 542 1
538 544 1
538 551 1
538 554 1
538 561 1
538 563 1
538 578 1
538 582 1
538 587 1
538 588 1
538 595 1
538 596 1
538 601 1
538 610 1
538 618 1
538 625 1
538 637 1
538 640 1
538 659 1
538 661 1
538 662 1
538 664 1
538 665 1
538 666 1
538 671 1
538 678 1
538 687 1
538 692 1
538 694 1
538 697 1
538 698 1
539 2 1
539 3 1
539 4 1
539 5 1
539 9 1
539 15 1
539 17 1
539 30 1
539 37 1
539 41 1
539 45 1
539 46 1
539 48 1
539 51 1
539 54 1
539 58 1
539 62 1
539 65 1
539 67 1
539 74 1
539 81 1
539 82 1
539 83 1
539 84 1
539 86 1
539 99 1
539 100 1
539 101 1
539 104 1
539 105 1
539 107 1
539 108 1
539 110 1
539 116 1
539 118 1
539 124 1
539 126 1
539 129 1
539 139 1
539 141 1
539 145 1
539 146 1
539 148 1
539 159 1
539 162 1
539 165 1
539 179 1
539 180 1
539 182 1
539 196 1
539 198 1
539 199 1
539 201 1
539 202 1
539 205 1
539 212 1
539 216 1
539 221 1
539 224 1
539 233 1
539 236 1
539 241 1
539 243 1
539 253 1
539 276 1
539 277 1
539 282 1
539 283 1
539 285 1
539 289 1
539 298 1
539 302 1
539 305 1
539 308 1
539 309 1
539 320 1
539 323 1
539 325 1
539 335 1
539 338 1
539 340 1
539 348 1
539 351 1
539 358 1
539 361 1
539 370 1
539 373 1
539 387 1
539 407 1
539 410 1
539 414 1
539 426 1
539 427 1
539 430 1
539 440 1
539 441 1
539 445 1
539 447 1
539 451 1
539 453 1
539 463 1
539 473 1
539 488 1
539 492 1
539 493 1
539 496 1
539 497 1
539 500 1
539 505 1
539 510 1
539 515 1
539 519 1
539 521 1
539 530 1
539 535 1
539 540 1
539 558 1
539 561 1
539 562 1
539 567 1
539 568 1
539 570 1
539 576 1
539 588 1
539 590 1
539 593 1
539 609 1
539 621 1
539 627 1
539 628 1
539 629 1
539 633 1
539 634 1
539 646 1
539 657 1
539 661 1
539 665 1
539 667 1
539 670 1
539 673 1
539 685 1
539 688 1
539 690 1
539 691 1
539 698 1
540 25 1
540 27 1
540 37 1
540 45 1
540 50 1
540 54 1
540 58 1
540 63 1
540 67 1
540 68 1
540 69 1
540 70 1
540 72 1
540 73 1
540 81 1
540 91 1
540 97 1
540 105 1
540 118 1
540 119 1
540 120 1
540 123 1
540 128 1
540 130 1
540 131 1
540 132 1
540 133 1
540 157 1
540 166 1
540 169 1
540 172 1
540 176 1
540 179 1
540 180 1
540 187 1
540 189 1
540 190 1
540 197 1
540 204 1
540 210 1
540 212 1
540 215 1
540 217 1
540 222 1
540 223 1
540 229 1
540 231 1
540 232 1
540 235 1
540 242 1
540 249 1
540 251 1
540 258 1
540 260 1
540 264 1
540 265 1
540 266 1
540 274 1
540 284 1
540 289 1
540 292 1
540 297 1
540 298 1
540 300 1
540 303 1
540 307 1
540 310 1
540 315 1
540 319 1
540 320 1
540 324 1
540 325 1
540 326 1
540 328 1
540 337 1
540 342 1
540 348 1
540 350 1
540 351 1
540 353 1
540 362 1
540 368 1
540 369 1
540 377 1
540 378 1
540 381 1
540 382 1
540 388 1
540 392 1
540 400 1
540 402 1
540 403 1
540 406 1
540 409 1
540 413 1
540 417 1
540 418 1
540 421 1
540 430 1
540 435 1
540 441 1
540 448 1
540 452 1
540 458 1
540 466 1
540 469 1
540 470 1
540 474 1
540 478 1
540 479 1
540 491 1
540 492 1
540 498 1
540 502 1
540 507 1
540 514 1
540 515 1
540 518 1
540 521 1
540 525 1
540 533 1
540 539 1
540 545 1
540 550 1
540 559 1
540 583 1
540 587 1
540 588 1
540 599 1
540 609 1
540 619 1
540 620 1
540 636 1
540 638 1
540 642 1
540 644 1
540 662 1
540 667 1
540 669 1
540 671 1
540 674 1
540 675 1
540 680 1
540 682 1
540 696 1
541 4 1
541 9 1
541 10 1
541 21 1
541 34 1
541 40 1
541 53 1
541 54 1
541 68 1
541 81 1
541 83 1
541 85 1
541 88 1
541 91 1
541 97 1
541 101 1
541 105 1
541 107 1
541 118 1
541 122 1
541 123 1
541 126 1
541 127 1
541 142 1
541 145 1
541 150 1
541 159 1
541 160 1
541 161 1
541 165 1
541 167 1
541 169 1
541 174 1
541 175 1
541 184 1
541 186 1
541 192 1
541 193 1
541 200 1
541 206 1
541 208 1
541 210 1
541 217 1
541 225 1
541 227 1
541 231 1
541 237 1
541 238 1
541 242 1
541 243 1
541 263 1
541 265 1
541 269 1
541 279 1
541 285 1
541 294 1
541 299 1
541 300 1
541 306 1
541 315 1
541 319 1
541 322 1
541 326 1
541 329 1
541 334 1
541 341 1
541 343 1
541 350 1
541 355 1
541 370 1
541 376 1
541 379 1
541 382 1
541 394 1
541 395 1
541 426 1
541 427 1
541 434 1
541 435 1
541 437 1
541 440 1
541 443 1
541 450 1
541 451 1
541 460 1
541 462 1
541 468 1
541 475 1
541 495 1
541 497 1
541 510 1
541 524 1
541 525 1
541 530 1
541 532 1
541 535 1
541 545 1
541 556 1
541 558 1
541 560 1
541 561 1
541 562 1
541 576 1
541 582 1
541 598 1
541 603 1
541 604 1
541 608 1
541 613 1
541 620 1
541 631 1
541 636 1
541 644 1
541 650 1
541 652 1
541 654 1
541 656 1
541 666 1
541 673 1
541 679 1
541 680 1
541 682 1
541 683 1
541 685 1
541 687 1
541 688 1
541 697 1
541 699 1
542 2 1
542 4 1
542 6 1
542 8 1
542 15 1
542 27 1
542 28 1
542 29 1
542 30 1
542 33 1
542 35 1
542 37 1
542 39 1
542 42 1
542 47 1
542 48 1
542 51 1
542 53 1
542 54 1
542 60 1
542 69 1
542 71 1
542 87 1
542 89 1
542 95 1
542 98 1
542 107 1
542 110 1
542 111 1
542 114 1
542 118 1
542 121 1
542 126 1
542 134 1
542 135 1
542 141 1
542 161 1
542 173 1
542 174 1
542 180 1
542 185 1
542 187 1
542 202 1
542 204 1
542 206 1
542 209 1
542 212 1
542 215 1
542 239 1
542 241 1
542 243 1
542 255 1
542 266 1
542 267 1
542 268 1
542 278 1
542 286 1
542 290 1
542 294 1
542 298 1
542 302 1
542 306 1
542 318 1
542 319 1
542 321 1
542 323 1
542 326 1
542 331 1
542 332 1
542 343 1
542 349 1
542 351 1
542 356 1
542 367 1
542 382 1
542 383 1
542 384 1
542 392 1
542 400 1
542 402 1
542 406 1
542 407 1
542 414 1
542 419 1
542 425 1
542 429 1
542 430 1
542 438 1
542 440 1
542 443 1
542 447 1
542 451 1
542 465 1
542 471 1
542 474 1
542 480 1
542 489 1
542 491 1
542 499 1
542 504 1
542 509 1
542 510 1
542 523 1
542 526 1
542 527 1
542 538 1
542 543 1
542 545 1
542 550 1
542 551 1
542 554 1
542 569 1
542 577 1
542 584 1
542 587 1
542 599 1
542 607 1
542 608 1
542 611 1
542 613 1
542 620 1
542 624 1
542 633 1
542 641 1
542 642 1
542 648 1
542 656 1
542 667 1
542 669 1
542 671 1
542 676 1
542 682 1
542 684 1
542 692 1
542 693 1
543 3 1
543 7 1
543 11 1
543 16 1
543 18 1
543 25 1
543 29 1
543 31 1
543 39 1
543 40 1
543 46 1
543 50 1
543 51 1
543 55 1
543 63 1
543 66 1
543 69 1
543 73 1
543 75 1
543 78 1
543 84 1
543 85 1
543 86 1
543 88 1
543 96 1
543 105 1
543 108 1
543 111 1
543 116 1
543 120 1
543 124 1
543 137 1
543 146 1
543 151 1
543 154 1
543 157 1
543 160 1
543 164 1
543 170 1
543 174 1
543 175 1
543 181 1
543 183 1
543 184 1
543 186 1
543 189 1
543 191 1
543 193 1
543 195 1
543 196 1
543 199 1
543 200 1
543 209 1
543 213 1
543 214 1
543 218 1
543 222 1
543 226 1
543 237 1
543 246 1
543 248 1
543 264 1
543 275 1
543 276 1
543 277 1
543 279 1
543 281 1
543 284 1
543 285 1
543 301 1
543 303 1
543 317 1
543 326 1
543 332 1
543 333 1
543 342 1
543 350 1
543 352 1
543 353 1
543 354 1
543 366 1
543 378 1
543 379 1
543 382 1
543 386 1
543 394 1
543 400 1
543 402 1
543 413 1
543 417 1
543 427 1
543 431 1
543 439 1
543 442 1
543 451 1
543 456 1
543 457 1
543 459 1
543 470 1
543 472 1
543 474 1
543 475 1
543 482 1
543 486 1
543 500 1
543 501 1
543 504 1
543 506 1
543 517 1
543 519 1
543 523 1
543 524 1
543 529 1
543 542 1
543 545 1
543 546 1
543 553 1
543 555 1
543 562 1
543 564 1
543 566 1
543 578 1
543 579 1
543 580 1
543 586 1
543 587 1
543 599 1
543 601 1
543 605 1
543 615 1
543 617 1
543 622 1
543 629 1
543 632 1
543 639 1
543 640 1
543 643 1
543 647 1
543 651 1
543 656 1
543 660 1
543 661 1
543 662 1
543 663 1
543 675 1
543 686 1
544 3 1
544 14 1
544 15 1
544 17 1
544 21 1
544 29 1
544 30 1
544 37 1
544 44 1
544 48 1
544 49 1
544 54 1
544 57 1
544 66 1
544 74 1
544 75 1
544 76 1
544 77 1
544 78 1
544 81 1
544 83 1
544 88 1
544 89 1
544 92 1
544 96 1
544 101 1
544 103 1
544 107 1
544 110 1
544 111 1
544 112 1
544 115 1
544 130 1
544 131 1
544 140 1
544 146 1
544 148 1
544 150 1
544 155 1
544 161 1
544 164 1
544 165 1
544 169 1
544 170 1
544 174 1
544 179 1
544 190 1
544 191 1
544 197 1
544 202 1
544 208 1
544 210 1
544 215 1
544 220 1
544 222 1
544 225 1
544 227 1
544 231 1
544 239 1
544 243 1
544 245 1
544 249 1
544 250 1
544 261 1
544 269 1
544 272 1
544 275 1
544 277 1
544 297 1
544 300 1
544 304 1
544 305 1
544 308 1
544 312 1
544 316 1
544 318 1
544 323 1
544 326 1
544 331 1
544 332 1
544 336 1
544 337 1
544 341 1
544 348 1
544 356 1
544 359 1
544 364 1
544 370 1
544 374 1
544 377 1
544 378 1
544 381 1
544 382 1
544 383 1
544 384 1
544 386 1
544 387 1
544 395 1
544 406 1
544 409 1
544 411 1
544 416 1
544 418 1
544 425 1
544 433 1
544 437 1
544 448 1
544 455 1
544 461 1
544 463 1
544 464 1
544 468 1
544 470 1
544 471 1
544 472 1
544 474 1
544 476 1
544 487 1
544 489 1
544 490 1
544 492 1
544 499 1
544 502 1
544 506 1
544 508 1
544 513 1
544 514 1
544 530 1
544 535 1
544 538 1
544 545 1
544 547 1
544 554 1
544 559 1
544 568 1
544 570 1
544 579 1
544 592 1
544 601 1
544 607 1
544 614 1
544 616 1
544 628 1
544 633 1
544 637 1
544 642 1
544 647 1
544 657 1
544 661 1
544 665 1
544 672 1
544 675 1
544 680 1
544 682 1
544 689 1
544 690 1
544 694 1
544 698 1
545 8 1
545 23 1
545 33 1
545 44 1
545 47 1
545 51 1
545 53 1
545 61 1
545 63 1
545 64 1
545 65 1
545 67 1
545 69 1
545 70 1
545 77 1
545 79 1
545 85 1
545 93 1
545 98 1
545 101 1
545 103 1
545 109 1
545 111 1
545 112 1
545 126 1
545 128 1
545 133 1
545 136 1
545 140 1
545 143 1
545 151 1
545 158 1
545 170 1
545 174 1
545 178 1
545 183 1
545 186 1
545 187 1
545 192 1
545 203 1
545 204 1
545 206 1
545 212 1
545 213 1
545 222 1
545 231 1
545 234 1
545 241 1
545 245 1
545 255 1
545 262 1
545 263 1
545 264 1
545 282 1
545 286 1
545 290 1
545 293 1
545 313 1
545 314 1
545 316 1
545 328 1
545 338 1
545 342 1
545 343 1
545 344 1
545 350 1
545 357 1
545 359 1
545 363 1
545 367 1
545 376 1
545 377 1
545 378 1
545 381 1
545 385 1
545 386 1
545 397 1
545 402 1
545 404 1
545 408 1
545 414 1
545 415 1
545 420 1
545 427 1
545 429 1
545 430 1
545 434 1
545 440 1
545 443 1
545 453 1
545 454 1
545 457 1
545 465 1
545 469 1
545 475 1
545 477 1
545 483 1
545 488 1
545 489 1
545 493 1
545 494 1
545 495 1
545 497 1
545 501 1
545 506 1
545 536 1
545 540 1
545 541 1
545 542 1
545 543 1
545 544 1
545 547 1
545 549 1
545 550 1
545 553 1
545 556 1
545 566 1
545 567 1
545 568 1
545 572 1
545 575 1
545 580 1
545 585 1
545 586 1
545 587 1
545 589 1
545 590 1
545 592 1
545 596 1
545 600 1
545 601 1
545 602 1
545 605 1
545 608 1
545 611 1
545 615 1
545 620 1
545 631 1
545 644 1
545 646 1
545 648 1
545 649 1
545 651 1
545 654 1
545 662 1
545 663 1
545 664 1
545 667 1
545 687 1
545 688 1
545 700 1
546 2 1
546 9 1
546 10 1
546 11 1
546 13 1
546 20 1
546 32 1
546 36 1
546 37 1
546 39 1
546 41 1
546 47 1
546 51 1
546 54 1
546 57 1
546 65 1
546 66 1
546 68 1
546 69 1
546 70 1
546 75 1
546 81 1
546 87 1
546 103 1
546 105 1
546 108 1
546 109 1
546 120 1
546 123 1
546 126 1
546 127 1
546 129 1
546 138 1
546 140 1
546 145 1
546 147 1
546 154 1
546 164 1
546 188 1
546 189 1
546 193 1
546 194 1
546 210 1
546 215 1
546 216 1
546 219 1
546 225 1
546 231 1
546 234 1
546 235 1
546 237 1
546 242 1
546 249 1
546 264 1
546 267 1
546 270 1
546 273 1
546 274 1
546 276 1
546 277 1
546 287 1
546 288 1
546 292 1
546 295 1
546 296 1
546 298 1
546 307 1
546 308 1
546 309 1
546 314 1
546 326 1
546 327 1
546 328 1
546 333 1
546 334 1
546 341 1
546 343 1
546 349 1
546 359 1
546 362 1
546 365 1
546 370 1
546 377 1
546 380 1
546 384 1
546 389 1
546 390 1
546 395 1
546 400 1
546 405 1
546 411 1
546 413 1
546 418 1
546 419 1
546 427 1
546 428 1
546 432 1
546 442 1
546 443 1
546 449 1
546 458 1
546 461 1
546 462 1
546 473 1
546 475 1
546 476 1
546 478 1
546 481 1
546 483 1
546 486 1
546 498 1
546 503 1
546 507 1
546 517 1
546 521 1
546 526 1
546 528 1
546 536 1
546 543 1
546 552 1
546 555 1
546 558 1
546 559 1
546 561 1
546 582 1
546 584 1
546 592 1
546 597 1
546 600 1
546 601 1
546 608 1
546 614 1
546 618 1
546 628 1
546 629 1
546 630 1
546 632 1
546 639 1
546 641 1
546 645 1
546 648 1
546 651 1
546 653 1
546 657 1
546 660 1
546 664 1
546 677 1
546 684 1
546 693 1
546 695 1
546 696 1
547 6 1
547 8 1
547 9 1
547 10 1
547 20 1
547 30 1
547 43 1
547 49 1
547 50 1
547 52 1
547 56 1
547 62 1
547 67 1
547 68 1
547 76 1
547 84 1
547 90 1
547 94 1
547 107 1
547 109 1
547 128 1
547 139 1
547 145 1
547 147 1
547 151 1
547 159 1
547 165 1
547 166 1
547 174 1
547 175 1
547 176 1
547 177 1
547 180 1
547 196 1
547 202 1
547 206 1
547 208 1
547 216 1
547 217 1
547 221 1
547 225 1
547 228 1
547 229 1
547 230 1
547 232 1
547 245 1
547 256 1
547 257 1
547 258 1
547 259 1
547 263 1
547 266 1
547 267 1
547 272 1
547 274 1
547 280 1
547 281 1
547 301 1
547 307 1
547 308 1
547 312 1
547 323 1
547 333 1
547 334 1
547 335 1
547 337 1
547 357 1
547 358 1
547 363 1
547 366 1
547 373 1
547 377 1
547 385 1
547 389 1
547 394 1
547 402 1
547 407 1
547 417 1
547 433 1
547 443 1
547 445 1
547 448 1
547 450 1
547 451 1
547 454 1
547 455 1
547 458 1
547 467 1
547 468 1
547 469 1
547 470 1
547 478 1
547 479 1
547 507 1
547 510 1
547 519 1
547 521 1
547 523 1
547 527 1
547 536 1
547 544 1
547 545 1
547 549 1
547 552 1
547 561 1
547 567 1
547 576 1
547 577 1
547 578 1
547 579 1
547 580 1
547 587 1
547 602 1
547 607 1
547 608 1
547 614 1
547 622 1
547 623 1
547 632 1
547 638 1
547 643 1
547 644 1
547 651 1
547 660 1
547 663 1
547 664 1
547 677 1
547 679 1
547 694 1
547 696 1
548 8 1
548 10 1
548 13 1
548 18 1
548 21 1
548 39 1
548 41 1
548 44 1
548 49 1
548 61 1
548 63 1
548 64 1
548 70 1
548 72 1
548 89 1
548 91 1
548 94 1
548 104 1
548 107 1
548 109 1
548 115 1
548 119 1
548 120 1
548 121 1
548 124 1
548 130 1
548 134 1
548 138 1
548 139 1
548 152 1
548 165 1
548 170 1
548 183 1
548 185 1
548 188 1
548 194 1
548 195 1
548 196 1
548 208 1
548 210 1
548 211 1
548 213 1
548 221 1
548 232 1
548 233 1
548 236 1
548 242 1
548 247 1
548 252 1
548 253 1
548 258 1
548 260 1
548 263 1
548 264 1
548 267 1
548 273 1
548 274 1
548 281 1
548 302 1
548 303 1
548 318 1
548 323 1
548 328 1
548 338 1
548 350 1
548 356 1
548 360 1
548 361 1
548 362 1
548 363 1
548 368 1
548 371 1
548 378 1
548 379 1
548 383 1
548 386 1
548 393 1
548 399 1
548 400 1
548 401 1
548 402 1
548 408 1
548 418 1
548 432 1
548 436 1
548 444 1
548 447 1
548 456 1
548 459 1
548 461 1
548 469 1
548 470 1
548 474 1
548 480 1
548 481 1
548 488 1
548 494 1
548 497 1
548 504 1
548 509 1
548 510 1
548 523 1
548 530 1
548 532 1
548 535 1
548 536 1
548 555 1
548 568 1
548 572 1
548 576 1
548 585 1
548 586 1
548 594 1
548 598 1
548 600 1
548 601 1
548 614 1
548 615 1
548 627 1
548 632 1
548 634 1
548 642 1
548 654 1
548 655 1
548 669 1
548 670 1
548 671 1
548 673 1
548 677 1
548 684 1
548 695 1
549 3 1
549 6 1
549 15 1
549 17 1
549 21 1
549 25 1
549 27 1
549 33 1
549 39 1
549 40 1
549 42 1
549 44 1
549 45 1
549 55 1
549 56 1
549 59 1
549 64 1
549 70 1
549 84 1
549 88 1
549 94 1
549 101 1
549 102 1
549 103 1
549 105 1
549 108 1
549 111 1
549 112 1
549 115 1
549 116 1
549 120 1
549 125 1
549 127 1
549 129 1
549 134 1
549 137 1
549 138 1
549 143 1
549 148 1
549 152 1
549 154 1
549 156 1
549 169 1
549 172 1
549 173 1
549 174 1
549 179 1
549 181 1
549 182 1
549 188 1
549 200 1
549 202 1
549 206 1
549 207 1
549 211 1
549 215 1
549 221 1
549 222 1
549 233 1
549 236 1
549 241 1
549 249 1
549 254 1
549 257 1
549 258 1
549 278 1
549 289 1
549 294 1
549 298 1
549 299 1
549 300 1
549 301 1
549 305 1
549 311 1
549 312 1
549 313 1
549 318 1
549 322 1
549 323 1
549 327 1
549 331 1
549 349 1
549 365 1
549 367 1
549 375 1
549 382 1
549 383 1
549 387 1
549 388 1
549 397 1
549 401 1
549 404 1
549 414 1
549 415 1
549 416 1
549 420 1
549 422 1
549 432 1
549 435 1
549 436 1
549 442 1
549 444 1
549 452 1
549 454 1
549 456 1
549 464 1
549 471 1
549 472 1
549 474 1
549 477 1
549 482 1
549 483 1
549 484 1
549 489 1
549 490 1
549 498 1
549 502 1
549 509 1
549 510 1
549 511 1
549 512 1
549 519 1
549 522 1
549 524 1
549 525 1
549 526 1
549 535 1
549 545 1
549 547 1
549 551 1
549 554 1
549 558 1
549 564 1
549 566 1
549 572 1
549 577 1
549 578 1
549 585 1
549 587 1
549 588 1
549 592 1
549 597 1
549 598 1
549 599 1
549 600 1
549 604 1
549 607 1
549 622 1
549 628 1
549 634 1
549 635 1
549 640 1
549 648 1
549 653 1
549 656 1
549 657 1
549 662 1
549 669 1
549 670 1
549 672 1
549 677 1
550 5 1
550 6 1
550 11 1
550 18 1
550 25 1
550 34 1
550 35 1
550 36 1
550 39 1
550 46 1
550 53 1
550 54 1
550 58 1
550 62 1
550 64 1
550 73 1
550 75 1
550 79 1
550 85 1
550 90 1
550 91 1
550 93 1
550 95 1
550 104 1
550 107 1
550 115 1
550 129 1
550 131 1
550 136 1
550 140 1
550 142 1
550 146 1
550 149 1
550 154 1
550 158 1
550 166 1
550 169 1
550 170 1
550 171 1
550 173 1
550 174 1
550 175 1
550 185 1
550 186 1
550 189 1
550 190 1
550 192 1
550 193 1
550 196 1
550 210 1
550 214 1
550 215 1
550 218 1
550 219 1
550 228 1
550 231 1
550 232 1
550 242 1
550 249 1
550 253 1
550 254 1
550 255 1
550 256 1
550 259 1
550 260 1
550 265 1
550 267 1
550 268 1
550 269 1
550 276 1
550 287 1
550 290 1
550 294 1
550 296 1
550 302 1
550 304 1
550 307 1
550 308 1
550 309 1
550 310 1
550 312 1
550 325 1
550 333 1
550 338 1
550 342 1
550 355 1
550 356 1
550 359 1
550 368 1
550 371 1
550 381 1
550 383 1
550 392 1
550 397 1
550 403 1
550 404 1
550 405 1
550 406 1
550 409 1
550 417 1
550 418 1
550 420 1
550 422 1
550 424 1
550 425 1
550 430 1
550 432 1
550 433 1
550 438 1
550 439 1
550 442 1
550 456 1
550 457 1
550 471 1
550 474 1
550 482 1
550 483 1
550 484 1
550 485 1
550 492 1
550 511 1
550 512 1
550 513 1
550 520 1
550 534 1
550 535 1
550 540 1
550 542 1
550 545 1
550 559 1
550 566 1
550 585 1
550 593 1
550 597 1
550 605 1
550 623 1
550 624 1
550 628 1
550 637 1
550 638 1
550 641 1
550 644 1
550 649 1
550 661 1
550 662 1
550 663 1
550 664 1
550 673 1
550 675 1
550 678 1
550 682 1
550 684 1
550 688 1
551 5 1
551 7 1
551 9 1
551 10 1
551 20 1
551 24 1
551 29 1
551 31 1
551 38 1
551 40 1
551 44 1
551 45 1
551 47 1
551 51 1
551 55 1
551 75 1
551 82 1
551 92 1
551 101 1
551 104 1
551 107 1
551 111 1
551 113 1
551 118 1
551 121 1
551 128 1
551 131 1
551 135 1
551 141 1
551 145 1
551 161 1
551 165 1
551 179 1
551 183 1
551 190 1
551 193 1
551 194 1
551 201 1
551 202 1
551 206 1
551 211 1
551 215 1
551 217 1
551 218 1
551 225 1
551 227 1
551 230 1
551 244 1
551 252 1
551 257 1
551 258 1
551 266 1
551 270 1
551 277 1
551 283 1
551 287 1
551 290 1
551 292 1
551 298 1
551 300 1
551 303 1
551 305 1
551 306 1
551 329 1
551 331 1
551 339 1
551 349 1
551 354 1
551 357 1
551 358 1
551 362 1
551 368 1
551 370 1
551 382 1
551 383 1
551 392 1
551 397 1
551 400 1
551 405 1
551 410 1
551 415 1
551 416 1
551 421 1
551 433 1
551 434 1
551 442 1
551 450 1
551 451 1
551 453 1
551 454 1
551 463 1
551 466 1
551 471 1
551 482 1
551 483 1
551 486 1
551 487 1
551 507 1
551 514 1
551 515 1
551 518 1
551 519 1
551 523 1
551 530 1
551 532 1
551 538 1
551 542 1
551 549 1
551 552 1
551 555 1
551 569 1
551 572 1
551 574 1
551 579 1
551 594 1
551 598 1
551 600 1
551 605 1
551 610 1
551 619 1
551 622 1
551 625 1
551 629 1
551 632 1
551 665 1
551 670 1
551 671 1
551 678 1
551 697 1
551 698 1
552 2 1
552 5 1
552 6 1
552 26 1
552 36 1
552 38 1
552 50 1
552 58 1
552 65 1
552 66 1
552 69 1
552 70 1
552 72 1
552 79 1
552 80 1
552 81 1
552 97 1
552 102 1
552 104 1
552 112 1
552 122 1
552 126 1
552 131 1
552 149 1
552 152 1
552 153 1
552 158 1
552 159 1
552 164 1
552 165 1
552 170 1
552 183 1
552 184 1
552 186 1
552 189 1
552 190 1
552 191 1
552 192 1
552 201 1
552 204 1
552 205 1
552 216 1
552 219 1
552 221 1
552 251 1
552 267 1
552 273 1
552 275 1
552 289 1
552 290 1
552 294 1
552 296 1
552 298 1
552 299 1
552 303 1
552 304 1
552 329 1
552 341 1
552 342 1
552 343 1
552 352 1
552 353 1
552 355 1
552 367 1
552 368 1
552 369 1
552 370 1
552 374 1
552 376 1
552 377 1
552 382 1
552 383 1
552 384 1
552 391 1
552 405 1
552 407 1
552 408 1
552 411 1
552 414 1
552 423 1
552 428 1
552 437 1
552 439 1
552 441 1
552 453 1
552 457 1
552 458 1
552 459 1
552 462 1
552 466 1
552 468 1
552 470 1
552 476 1
552 486 1
552 490 1
552 499 1
552 503 1
552 514 1
552 520 1
552 522 1
552 524 1
552 525 1
552 531 1
552 532 1
552 537 1
552 546 1
552 547 1
552 551 1
552 558 1
552 563 1
552 567 1
552 569 1
552 575 1
552 592 1
552 614 1
552 618 1
552 620 1
552 639 1
552 641 1
552 649 1
552 650 1
552 652 1
552 653 1
552 656 1
552 658 1
552 662 1
552 665 1
552 674 1
552 688 1
552 696 1
552 697 1
552 700 1
553 4 1
553 8 1
553 9 1
553 16 1
553 17 1
553 19 1
553 23 1
553 27 1
553 30 1
553 34 1
553 39 1
553 66 1
553 70 1
553 75 1
553 76 1
553 78 1
553 87 1
553 88 1
553 90 1
553 96 1
553 106 1
553 108 1
553 110 1
553 112 1
553 113 1
553 114 1
553 139 1
553 142 1
553 144 1
553 147 1
553 148 1
553 153 1
553 165 1
553 173 1
553 176 1
553 177 1
553 181 1
553 187 1
553 194 1
553 198 1
553 200 1
553 201 1
553 206 1
553 208 1
553 211 1
553 213 1
553 219 1
553 227 1
553 228 1
553 234 1
553 239 1
553 242 1
553 247 1
553 253 1
553 256 1
553 261 1
553 266 1
553 269 1
553 274 1
553 280 1
553 283 1
553 290 1
553 291 1
553 293 1
553 298 1
553 299 1
553 306 1
553 323 1
553 328 1
553 336 1
553 346 1
553 351 1
553 354 1
553 356 1
553 357 1
553 359 1
553 363 1
553 366 1
553 367 1
553 373 1
553 397 1
553 402 1
553 407 1
553 415 1
553 417 1
553 419 1
553 430 1
553 444 1
553 446 1
553 454 1
553 459 1
553 462 1
553 466 1
553 468 1
553 472 1
553 473 1
553 477 1
553 479 1
553 480 1
553 482 1
553 484 1
553 485 1
553 511 1
553 514 1
553 515 1
553 518 1
553 520 1
553 527 1
553 537 1
553 543 1
553 545 1
553 560 1
553 571 1
553 573 1
553 580 1
553 582 1
553 593 1
553 594 1
553 609 1
553 615 1
553 617 1
553 626 1
553 628 1
553 629 1
553 630 1
553 634 1
553 637 1
553 639 1
553 643 1
553 645 1
553 648 1
553 649 1
553 659 1
553 662 1
553 669 1
553 671 1
553 673 1
553 675 1
553 681 1
553 683 1
553 686 1
553 687 1
553 690 1
553 691 1
554 6 1
554 17 1
554 32 1
554 36 1
554 37 1
554 41 1
554 44 1
554 47 1
554 48 1
554 55 1
554 56 1
554 65 1
554 67 1
554 68 1
554 75 1
554 81 1
554 86 1
554 87 1
554 108 1
554 109 1
554 119 1
554 126 1
554 128 1
554 129 1
554 130 1
554 133 1
554 134 1
554 146 1
554 153 1
554 157 1
554 161 1
554 177 1
554 185 1
554 186 1
554 188 1
554 196 1
554 198 1
554 211 1
554 214 1
554 218 1
554 220 1
554 224 1
554 227 1
554 231 1
554 239 1
554 246 1
554 252 1
554 268 1
554 273 1
554 280 1
554 284 1
554 287 1
554 299 1
554 302 1
554 307 1
554 315 1
554 326 1
554 327 1
554 338 1
554 340 1
554 346 1
554 347 1
554 351 1
554 363 1
554 364 1
554 368 1
554 369 1
554 371 1
554 378 1
554 388 1
554 392 1
554 395 1
554 405 1
554 407 1
554 409 1
554 415 1
554 419 1
554 420 1
554 423 1
554 424 1
554 426 1
554 428 1
554 433 1
554 438 1
554 439 1
554 441 1
554 447 1
554 454 1
554 472 1
554 474 1
554 477 1
554 478 1
554 480 1
554 487 1
554 488 1
554 489 1
554 491 1
554 500 1
554 509 1
554 514 1
554 515 1
554 521 1
554 522 1
554 524 1
554 527 1
554 529 1
554 537 1
554 538 1
554 542 1
554 544 1
554 549 1
554 568 1
554 576 1
554 591 1
554 594 1
554 598 1
554 601 1
554 607 1
554 611 1
554 624 1
554 627 1
554 630 1
554 644 1
554 653 1
554 659 1
554 668 1
554 677 1
554 680 1
554 686 1
554 687 1
554 694 1
554 696 1
554 697 1
554 698 1
555 8 1
555 13 1
555 23 1
555 25 1
555 31 1
555 32 1
555 36 1
555 38 1
555 39 1
555 40 1
555 50 1
555 52 1
555 58 1
555 63 1
555 66 1
555 72 1
555 73 1
555 76 1
555 83 1
555 85 1
555 91 1
555 100 1
555 101 1
555 102 1
555 109 1
555 114 1
555 116 1
555 120 1
555 123 1
555 134 1
555 138 1
555 140 1
555 142 1
555 155 1
555 159 1
555 163 1
555 167 1
555 168 1
555 170 1
555 178 1
555 190 1
555 191 1
555 196 1
555 199 1
555 200 1
555 204 1
555 225 1
555 231 1
555 247 1
555 248 1
555 264 1
555 270 1
555 271 1
555 277 1
555 279 1
555 287 1
555 298 1
555 299 1
555 301 1
555 302 1
555 304 1
555 318 1
555 327 1
555 342 1
555 344 1
555 349 1
555 352 1
555 354 1
555 355 1
555 361 1
555 367 1
555 371 1
555 372 1
555 379 1
555 383 1
555 391 1
555 407 1
555 410 1
555 421 1
555 425 1
555 428 1
555 437 1
555 442 1
555 458 1
555 459 1
555 461 1
555 463 1
555 464 1
555 467 1
555 469 1
555 471 1
555 477 1
555 480 1
555 483 1
555 489 1
555 491 1
555 494 1
555 497 1
555 499 1
555 500 1
555 505 1
555 508 1
555 509 1
555 514 1
555 526 1
555 527 1
555 530 1
555 533 1
555 535 1
555 543 1
555 546 1
555 548 1
555 551 1
555 560 1
555 561 1
555 563 1
555 566 1
555 568 1
555 571 1
555 589 1
555 593 1
555 596 1
555 598 1
555 605 1
555 612 1
555 613 1
555 622 1
555 625 1
555 627 1
555 628 1
555 629 1
555 638 1
555 639 1
555 642 1
555 648 1
555 656 1
555 658 1
555 663 1
555 664 1
555 678 1
555 680 1
555 681 1
555 685 1
555 686 1
555 687 1
555 688 1
555 692 1
555 696 1
555 697 1
555 700 1
556 3 1
556 12 1
556 18 1
556 24 1
556 25 1
556 28 1
556 32 1
556 35 1
556 38 1
556 40 1
556 47 1
556 49 1
556 72 1
556 82 1
556 83 1
556 84 1
556 89 1
556 97 1
556 102 1
556 103 1
556 104 1
556 106 1
556 112 1
556 113 1
556 118 1
556 131 1
556 134 1
556 152 1
556 155 1
556 160 1
556 166 1
556 175 1
556 176 1
556 184 1
556 186 1
556 187 1
556 190 1
556 197 1
556 203 1
556 206 1
556 213 1
556 238 1
556 239 1
556 242 1
556 247 1
556 254 1
556 255 1
556 258 1
556 259 1
556 267 1
556 273 1
556 282 1
556 295 1
556 308 1
556 312 1
556 320 1
556 328 1
556 333 1
556 336 1
556 338 1
556 340 1
556 344 1
556 351 1
556 381 1
556 382 1
556 383 1
556 384 1
556 394 1
556 400 1
556 408 1
556 411 1
556 412 1
556 413 1
556 416 1
556 417 1
556 428 1
556 432 1
556 439 1
556 444 1
556 445 1
556 448 1
556 453 1
556 455 1
556 461 1
556 464 1
556 465 1
556 469 1
556 479 1
556 482 1
556 487 1
556 501 1
556 505 1
556 507 1
556 509 1
556 510 1
556 512 1
556 513 1
556 514 1
556 529 1
556 531 1
556 532 1
556 541 1
556 545 1
556 560 1
556 564 1
556 569 1
556 572 1
556 573 1
556 576 1
556 580 1
556 582 1
556 585 1
556 590 1
556 594 1
556 595 1
556 596 1
556 597 1
556 605 1
556 608 1
556 612 1
556 615 1
556 622 1
556 628 1
556 630 1
556 636 1
556 640 1
556 644 1
556 656 1
556 664 1
556 667 1
556 668 1
556 684 1
556 685 1
556 689 1
556 692 1
556 693 1
556 696 1
556 697 1
557 8 1
557 9 1
557 10 1
557 16 1
557 17 1
557 18 1
557 34 1
557 40 1
557 42 1
557 45 1
557 49 1
557 50 1
557 56 1
557 64 1
557 67 1
557 69 1
557 76 1
557 78 1
557 80 1
557 84 1
557 94 1
557 95 1
557 96 1
557 111 1
557 117 1
557 120 1
557 121 1
557 124 1
557 126 1
557 139 1
557 145 1
557 146 1
557 149 1
557 153 1
557 170 1
557 171 1
557 173 1
557 174 1
557 176 1
557 178 1
557 179 1
557 180 1
557 195 1
557 196 1
557 200 1
557 201 1
557 202 1
557 214 1
557 217 1
557 236 1
557 237 1
557 243 1
557 245 1
557 247 1
557 250 1
557 255 1
557 266 1
557 269 1
557 271 1
557 274 1
557 275 1
557 277 1
557 278 1
557 286 1
557 291 1
557 296 1
557 299 1
557 300 1
557 306 1
557 309 1
557 310 1
557 313 1
557 318 1
557 324 1
557 337 1
557 338 1
557 339 1
557 341 1
557 353 1
557 355 1
557 366 1
557 368 1
557 384 1
557 398 1
557 399 1
557 409 1
557 411 1
557 417 1
557 419 1
557 420 1
557 434 1
557 446 1
557 449 1
557 459 1
557 466 1
557 474 1
557 478 1
557 481 1
557 489 1
557 494 1
557 495 1
557 496 1
557 497 1
557 499 1
557 505 1
557 513 1
557 518 1
557 519 1
557 525 1
557 527 1
557 562 1
557 585 1
557 592 1
557 596 1
557 599 1
557 603 1
557 604 1
557 607 1
557 613 1
557 632 1
557 633 1
557 635 1
557 642 1
557 652 1
557 655 1
557 667 1
557 668 1
557 669 1
557 677 1
557 679 1
557 683 1
557 685 1
557 690 1
557 691 1
557 695 1
557 699 1
558 1 1
558 7 1
558 26 1
558 32 1
558 35 1
558 38 1
558 39 1
558 40 1
558 48 1
558 50 1
558 54 1
558 62 1
558 70 1
558 71 1
558 81 1
558 97 1
558 99 1
558 108 1
558 113 1
558 119 1
558 121 1
558 122 1
558 124 1
558 127 1
558 128 1
558 137 1
558 140 1
558 141 1
558 143 1
558 154 1
558 165 1
558 166 1
558 170 1
558 174 1
558 179 1
558 182 1
558 213 1
558 220 1
558 224 1
558 227 1
558 228 1
558 234 1
558 235 1
558 242 1
558 250 1
558 257 1
558 262 1
558 267 1
558 274 1
558 278 1
558 284 1
558 287 1
558 288 1
558 289 1
558 290 1
558 291 1
558 303 1
558 309 1
558 311 1
558 318 1
558 319 1
558 320 1
558 321 1
558 327 1
558 343 1
558 344 1
558 347 1
558 355 1
558 372 1
558 378 1
558 382 1
558 386 1
558 388 1
558 393 1
558 396 1
558 400 1
558 402 1
558 408 1
558 418 1
558 420 1
558 423 1
558 433 1
558 438 1
558 440 1
558 444 1
558 451 1
558 452 1
558 459 1
558 461 1
558 464 1
558 469 1
558 471 1
558 477 1
558 484 1
558 501 1
558 506 1
558 508 1
558 512 1
558 524 1
558 528 1
558 539 1
558 541 1
558 546 1
558 549 1
558 552 1
558 567 1
558 576 1
558 579 1
558 583 1
558 588 1
558 590 1
558 597 1
558 613 1
558 619 1
558 620 1
558 627 1
558 629 1
558 631 1
558 632 1
558 633 1
558 634 1
558 645 1
558 646 1
558 648 1
558 654 1
558 658 1
558 664 1
558 668 1
558 678 1
558 679 1
558 681 1
558 683 1
558 684 1
558 688 1
558 691 1
558 694 1
558 695 1
558 698 1
559 1 1
559 5 1
559 6 1
559 12 1
559 36 1
559 39 1
559 46 1
559 52 1
559 53 1
559 60 1
559 65 1
559 71 1
559 73 1
559 82 1
559 96 1
559 115 1
559 126 1
559 130 1
559 132 1
559 137 1
559 149 1
559 150 1
559 154 1
559 155 1
559 162 1
559 167 1
559 174 1
559 178 1
559 180 1
559 182 1
559 191 1
559 194 1
559 198 1
559 199 1
559 201 1
559 207 1
559 216 1
559 231 1
559 238 1
559 240 1
559 246 1
559 249 1
559 250 1
559 256 1
559 274 1
559 297 1
559 298 1
559 300 1
559 301 1
559 308 1
559 309 1
559 312 1
559 313 1
559 316 1
559 318 1
559 324 1
559 326 1
559 342 1
559 345 1
559 356 1
559 362 1
559 363 1
559 369 1
559 377 1
559 381 1
559 382 1
559 384 1
559 385 1
559 402 1
559 403 1
559 410 1
559 412 1
559 413 1
559 420 1
559 433 1
559 443 1
559 445 1
559 450 1
559 458 1
559 462 1
559 467 1
559 469 1
559 470 1
559 472 1
559 479 1
559 482 1
559 483 1
559 500 1
559 503 1
559 513 1
559 515 1
559 519 1
559 527 1
559 528 1
559 529 1
559 534 1
559 540 1
559 544 1
559 546 1
559 550 1
559 578 1
559 584 1
559 586 1
559 587 1
559 598 1
559 602 1
559 605 1
559 606 1
559 614 1
559 616 1
559 624 1
559 630 1
559 636 1
559 645 1
559 646 1
559 648 1
559 652 1
559 657 1
559 658 1
559 661 1
559 662 1
559 667 1
559 668 1
559 674 1
559 686 1
559 688 1
559 690 1
559 692 1
559 697 1
559 698 1
560 2 1
560 13 1
560 14 1
560 24 1
560 28 1
560 29 1
560 32 1
560 41 1
560 46 1
560 48 1
560 49 1
560 53 1
560 60 1
560 66 1
560 69 1
560 75 1
560 83 1
560 99 1
560 100 1
560 101 1
560 103 1
560 119 1
560 120 1
560 125 1
560 133 1
560 141 1
560 156 1
560 157 1
560 158 1
560 159 1
560 162 1
560 172 1
560 195 1
560 197 1
560 198 1
560 212 1
560 217 1
560 219 1
560 220 1
560 228 1
560 232 1
560 233 1
560 237 1
560 240 1
560 251 1
560 257 1
560 260 1
560 264 1
560 267 1
560 281 1
560 299 1
560 300 1
560 303 1
560 305 1
560 306 1
560 307 1
560 309 1
560 310 1
560 313 1
560 319 1
560 320 1
560 322 1
560 333 1
560 334 1
560 336 1
560 346 1
560 354 1
560 357 1
560 372 1
560 373 1
560 380 1
560 382 1
560 383 1
560 384 1
560 396 1
560 401 1
560 404 1
560 408 1
560 412 1
560 417 1
560 436 1
560 438 1
560 442 1
560 445 1
560 449 1
560 456 1
560 461 1
560 467 1
560 469 1
560 470 1
560 477 1
560 479 1
560 486 1
560 489 1
560 491 1
560 501 1
560 521 1
560 524 1
560 541 1
560 553 1
560 555 1
560 556 1
560 562 1
560 566 1
560 578 1
560 580 1
560 581 1
560 582 1
560 583 1
560 590 1
560 612 1
560 630 1
560 631 1
560 633 1
560 635 1
560 637 1
560 642 1
560 647 1
560 660 1
560 664 1
560 667 1
560 668 1
560 676 1
560 677 1
561 2 1
561 6 1
561 7 1
561 15 1
561 21 1
561 24 1
561 25 1
561 36 1
561 39 1
561 40 1
561 49 1
561 50 1
561 51 1
561 52 1
561 61 1
561 68 1
561 71 1
561 73 1
561 78 1
561 88 1
561 90 1
561 94 1
561 98 1
561 104 1
561 111 1
561 112 1
561 113 1
561 115 1
561 116 1
561 118 1
561 123 1
561 129 1
561 131 1
561 135 1
561 138 1
561 139 1
561 145 1
561 159 1
561 162 1
561 163 1
561 165 1
561 166 1
561 170 1
561 186 1
561 191 1
561 194 1
561 216 1
561 217 1
561 228 1
561 233 1
561 239 1
561 241 1
561 246 1
561 247 1
561 254 1
561 256 1
561 265 1
561 267 1
561 271 1
561 279 1
561 287 1
561 296 1
561 306 1
561 311 1
561 312 1
561 315 1
561 316 1
561 326 1
561 327 1
561 328 1
561 344 1
561 362 1
561 378 1
561 381 1
561 388 1
561 390 1
561 396 1
561 401 1
561 405 1
561 408 1
561 409 1
561 410 1
561 412 1
561 414 1
561 415 1
561 423 1
561 424 1
561 432 1
561 436 1
561 439 1
561 443 1
561 444 1
561 446 1
561 447 1
561 454 1
561 455 1
561 464 1
561 475 1
561 482 1
561 483 1
561 489 1
561 492 1
561 493 1
561 495 1
561 497 1
561 503 1
561 510 1
561 512 1
561 517 1
561 525 1
561 538 1
561 539 1
561 541 1
561 546 1
561 547 1
561 555 1
561 562 1
561 564 1
561 570 1
561 572 1
561 573 1
561 575 1
561 582 1
561 583 1
561 584 1
561 585 1
561 598 1
561 600 1
561 605 1
561 609 1
561 617 1
561 619 1
561 620 1
561 630 1
561 635 1
561 638 1
561 640 1
561 645 1
561 659 1
561 660 1
561 662 1
561 664 1
561 675 1
561 676 1
561 678 1
561 690 1
561 691 1
561 692 1
562 1 1
562 3 1
562 14 1
562 16 1
562 17 1
562 18 1
562 19 1
562 20 1
562 24 1
562 27 1
562 31 1
562 32 1
562 37 1
562 48 1
562 57 1
562 61 1
562 73 1
562 74 1
562 78 1
562 81 1
562 85 1
562 87 1
562 88 1
562 92 1
562 96 1
562 99 1
562 102 1
562 111 1
562 123 1
562 131 1
562 139 1
562 143 1
562 147 1
562 148 1
562 160 1
562 163 1
562 164 1
562 169 1
562 170 1
562 176 1
562 183 1
562 191 1
562 195 1
562 200 1
562 204 1
562 206 1
562 211 1
562 213 1
562 218 1
562 220 1
562 229 1
562 230 1
562 231 1
562 238 1
562 240 1
562 243 1
562 249 1
562 251 1
562 262 1
562 269 1
562 272 1
562 277 1
562 280 1
562 304 1
562 306 1
562 315 1
562 316 1
562 324 1
562 336 1
562 337 1
562 341 1
562 347 1
562 359 1
562 370 1
562 378 1
562 380 1
562 402 1
562 403 1
562 405 1
562 409 1
562 416 1
562 432 1
562 434 1
562 439 1
562 441 1
562 443 1
562 456 1
562 467 1
562 474 1
562 478 1
562 479 1
562 480 1
562 481 1
562 482 1
562 487 1
562 506 1
562 510 1
562 511 1
562 512 1
562 517 1
562 526 1
562 529 1
562 530 1
562 534 1
562 535 1
562 537 1
562 539 1
562 541 1
562 543 1
562 557 1
562 560 1
562 561 1
562 563 1
562 564 1
562 565 1
562 584 1
562 587 1
562 598 1
562 602 1
562 603 1
562 612 1
562 615 1
562 616 1
562 619 1
562 622 1
562 627 1
562 628 1
562 647 1
562 649 1
562 658 1
562 665 1
562 671 1
562 679 1
562 687 1
562 688 1
562 689 1
562 690 1
562 693 1
562 694 1
562 696 1
562 697 1
562 699 1
562 700 1
563 5 1
563 9 1
563 12 1
563 23 1
563 25 1
563 43 1
563 45 1
563 46 1
563 52 1
563 55 1
563 68 1
563 74 1
563 77 1
563 87 1
563 91 1
563 93 1
563 96 1
563 98 1
563 108 1
563 110 1
563 114 1
563 115 1
563 117 1
563 123 1
563 127 1
563 137 1
563 144 1
563 148 1
563 150 1
563 151 1
563 166 1
563 170 1
563 174 1
563 179 1
563 182 1
563 192 1
563 194 1
563 200 1
563 202 1
563 210 1
563 211 1
563 217 1
563 224 1
563 228 1
563 232 1
563 235 1
563 239 1
563 244 1
563 249 1
563 251 1
563 254 1
563 262 1
563 263 1
563 266 1
563 269 1
563 271 1
563 274 1
563 276 1
563 285 1
563 286 1
563 297 1
563 298 1
563 313 1
563 321 1
563 323 1
563 334 1
563 353 1
563 364 1
563 367 1
563 371 1
563 377 1
563 380 1
563 384 1
563 386 1
563 398 1
563 399 1
563 405 1
563 406 1
563 410 1
563 412 1
563 417 1
563 420 1
563 426 1
563 431 1
563 434 1
563 442 1
563 444 1
563 446 1
563 448 1
563 450 1
563 453 1
563 455 1
563 460 1
563 461 1
563 463 1
563 465 1
563 468 1
563 471 1
563 472 1
563 482 1
563 492 1
563 493 1
563 495 1
563 496 1
563 497 1
563 505 1
563 516 1
563 518 1
563 519 1
563 521 1
563 522 1
563 523 1
563 530 1
563 535 1
563 537 1
563 538 1
563 552 1
563 555 1
563 562 1
563 564 1
563 566 1
563 570 1
563 590 1
563 593 1
563 595 1
563 596 1
563 597 1
563 602 1
563 610 1
563 622 1
563 643 1
563 644 1
563 647 1
563 651 1
563 658 1
563 668 1
563 677 1
563 684 1
563 689 1
563 698 1
564 4 1
564 13 1
564 18 1
564 28 1
564 30 1
564 51 1
564 53 1
564 56 1
564 58 1
564 61 1
564 88 1
564 89 1
564 91 1
564 95 1
564 98 1
564 101 1
564 105 1
564 107 1
564 109 1
564 116 1
564 126 1
564 130 1
564 136 1
564 137 1
564 139 1
564 142 1
564 145 1
564 151 1
564 152 1
564 154 1
564 155 1
564 156 1
564 160 1
564 163 1
564 164 1
564 165 1
564 171 1
564 172 1
564 173 1
564 177 1
564 179 1
564 181 1
564 194 1
564 197 1
564 199 1
564 203 1
564 207 1
564 212 1
564 213 1
564 217 1
564 222 1
564 223 1
564 231 1
564 233 1
564 235 1
564 248 1
564 252 1
564 265 1
564 268 1
564 269 1
564 274 1
564 277 1
564 283 1
564 292 1
564 294 1
564 297 1
564 301 1
564 304 1
564 306 1
564 308 1
564 310 1
564 316 1
564 317 1
564 318 1
564 330 1
564 335 1
564 341 1
564 347 1
564 349 1
564 354 1
564 359 1
564 360 1
564 362 1
564 364 1
564 366 1
564 373 1
564 378 1
564 389 1
564 392 1
564 400 1
564 409 1
564 414 1
564 425 1
564 432 1
564 439 1
564 440 1
564 454 1
564 458 1
564 466 1
564 472 1
564 474 1
564 476 1
564 478 1
564 482 1
564 483 1
564 485 1
564 493 1
564 500 1
564 504 1
564 507 1
564 511 1
564 518 1
564 519 1
564 523 1
564 532 1
564 534 1
564 543 1
564 549 1
564 556 1
564 561 1
564 562 1
564 563 1
564 569 1
564 584 1
564 589 1
564 590 1
564 591 1
564 596 1
564 598 1
564 602 1
564 604 1
564 611 1
564 614 1
564 617 1
564 642 1
564 643 1
564 648 1
564 649 1
564 652 1
564 654 1
564 656 1
564 657 1
564 659 1
564 669 1
564 672 1
564 686 1
564 687 1
564 691 1
564 692 1
565 1 1
565 6 1
565 9 1
565 15 1
565 20 1
565 28 1
565 29 1
565 30 1
565 38 1
565 40 1
565 44 1
565 45 1
565 46 1
565 47 1
565 50 1
565 54 1
565 55 1
565 63 1
565 79 1
565 86 1
565 91 1
565 97 1
565 99 1
565 105 1
565 112 1
565 117 1
565 122 1
565 130 1
565 131 1
565 133 1
565 139 1
565 142 1
565 145 1
565 150 1
565 152 1
565 154 1
565 161 1
565 164 1
565 166 1
565 167 1
565 171 1
565 173 1
565 190 1
565 191 1
565 197 1
565 198 1
565 202 1
565 204 1
565 208 1
565 209 1
565 211 1
565 212 1
565 215 1
565 219 1
565 221 1
565 224 1
565 225 1
565 227 1
565 233 1
565 273 1
565 274 1
565 278 1
565 280 1
565 286 1
565 296 1
565 310 1
565 323 1
565 327 1
565 328 1
565 333 1
565 340 1
565 341 1
565 342 1
565 352 1
565 368 1
565 374 1
565 382 1
565 387 1
565 389 1
565 394 1
565 396 1
565 397 1
565 399 1
565 406 1
565 409 1
565 410 1
565 416 1
565 422 1
565 430 1
565 431 1
565 434 1
565 451 1
565 464 1
565 466 1
565 469 1
565 479 1
565 482 1
565 484 1
565 486 1
565 488 1
565 491 1
565 499 1
565 505 1
565 510 1
565 514 1
565 516 1
565 520 1
565 523 1
565 524 1
565 526 1
565 528 1
565 532 1
565 535 1
565 536 1
565 562 1
565 573 1
565 574 1
565 575 1
565 578 1
565 587 1
565 612 1
565 624 1
565 637 1
565 638 1
565 639 1
565 641 1
565 646 1
565 656 1
565 662 1
565 676 1
565 680 1
565 683 1
565 699 1
566 2 1
566 6 1
566 7 1
566 15 1
566 27 1
566 29 1
566 32 1
566 33 1
566 39 1
566 45 1
566 57 1
566 62 1
566 63 1
566 67 1
566 68 1
566 71 1
566 73 1
566 75 1
566 90 1
566 91 1
566 97 1
566 98 1
566 99 1
566 100 1
566 108 1
566 111 1
566 115 1
566 123 1
566 129 1
566 135 1
566 137 1
566 138 1
566 139 1
566 145 1
566 159 1
566 161 1
566 170 1
566 171 1
566 175 1
566 181 1
566 192 1
566 196 1
566 204 1
566 206 1
566 210 1
566 215 1
566 223 1
566 224 1
566 234 1
566 237 1
566 241 1
566 247 1
566 254 1
566 255 1
566 275 1
566 279 1
566 284 1
566 290 1
566 293 1
566 294 1
566 296 1
566 298 1
566 299 1
566 301 1
566 304 1
566 308 1
566 313 1
566 314 1
566 320 1
566 321 1
566 326 1
566 330 1
566 333 1
566 341 1
566 342 1
566 343 1
566 347 1
566 351 1
566 353 1
566 354 1
566 357 1
566 362 1
566 365 1
566 368 1
566 371 1
566 374 1
566 381 1
566 386 1
566 395 1
566 402 1
566 403 1
566 406 1
566 408 1
566 409 1
566 415 1
566 434 1
566 435 1
566 436 1
566 454 1
566 460 1
566 470 1
566 478 1
566 482 1
566 485 1
566 488 1
566 496 1
566 501 1
566 505 1
566 524 1
566 530 1
566 531 1
566 534 1
566 543 1
566 545 1
566 549 1
566 550 1
566 555 1
566 560 1
566 563 1
566 574 1
566 575 1
566 576 1
566 581 1
566 583 1
566 587 1
566 588 1
566 592 1
566 593 1
566 600 1
566 604 1
566 605 1
566 633 1
566 644 1
566 648 1
566 652 1
566 655 1
566 656 1
566 667 1
566 674 1
566 676 1
566 680 1
566 682 1
566 683 1
566 687 1
566 688 1
566 689 1
566 691 1
567 1 1
567 6 1
567 15 1
567 25 1
567 26 1
567 27 1
567 31 1
567 45 1
567 57 1
567 58 1
567 62 1
567 73 1
567 74 1
567 75 1
567 81 1
567 84 1
567 88 1
567 89 1
567 101 1
567 104 1
567 106 1
567 107 1
567 113 1
567 121 1
567 130 1
567 136 1
567 140 1
567 142 1
567 148 1
567 161 1
567 163 1
567 169 1
567 179 1
567 181 1
567 194 1
567 216 1
567 226 1
567 230 1
567 240 1
567 253 1
567 263 1
567 264 1
567 278 1
567 279 1
567 290 1
567 294 1
567 311 1
567 318 1
567 322 1
567 324 1
567 328 1
567 337 1
567 339 1
567 342 1
567 346 1
567 347 1
567 350 1
567 355 1
567 365 1
567 366 1
567 368 1
567 371 1
567 374 1
567 375 1
567 391 1
567 395 1
567 396 1
567 410 1
567 411 1
567 412 1
567 415 1
567 419 1
567 421 1
567 429 1
567 431 1
567 436 1
567 443 1
567 454 1
567 469 1
567 483 1
567 497 1
567 498 1
567 504 1
567 515 1
567 518 1
567 519 1
567 524 1
567 530 1
567 533 1
567 535 1
567 539 1
567 545 1
567 547 1
567 552 1
567 558 1
567 573 1
567 575 1
567 586 1
567 590 1
567 591 1
567 592 1
567 594 1
567 608 1
567 613 1
567 620 1
567 621 1
567 624 1
567 647 1
567 651 1
567 652 1
567 658 1
567 673 1
567 700 1
568 3 1
568 5 1
568 6 1
568 8 1
568 14 1
568 20 1
568 29 1
568 33 1
568 45 1
568 49 1
568 55 1
568 59 1
568 64 1
568 66 1
568 67 1
568 68 1
568 70 1
568 71 1
568 73 1
568 84 1
568 86 1
568 96 1
568 97 1
568 110 1
568 112 1
568 113 1
568 114 1
568 116 1
568 117 1
568 125 1
568 129 1
568 131 1
568 137 1
568 139 1
568 140 1
568 141 1
568 155 1
568 169 1
568 172 1
568 177 1
568 179 1
568 180 1
568 181 1
568 186 1
568 189 1
568 196 1
568 202 1
568 206 1
568 207 1
568 212 1
568 215 1
568 217 1
568 219 1
568 229 1
568 242 1
568 244 1
568 253 1
568 261 1
568 265 1
568 266 1
568 273 1
568 274 1
568 275 1
568 277 1
568 278 1
568 287 1
568 297 1
568 298 1
568 308 1
568 309 1
568 313 1
568 322 1
568 327 1
568 330 1
568 331 1
568 337 1
568 339 1
568 349 1
568 354 1
568 355 1
568 369 1
568 372 1
568 383 1
568 385 1
568 388 1
568 390 1
568 396 1
568 398 1
568 404 1
568 405 1
568 406 1
568 408 1
568 416 1
568 422 1
568 423 1
568 427 1
568 429 1
568 436 1
568 443 1
568 450 1
568 455 1
568 465 1
568 471 1
568 485 1
568 486 1
568 494 1
568 508 1
568 509 1
568 513 1
568 521 1
568 524 1
568 525 1
568 528 1
568 529 1
568 537 1
568 539 1
568 544 1
568 545 1
568 548 1
568 554 1
568 555 1
568 572 1
568 576 1
568 588 1
568 590 1
568 591 1
568 598 1
568 618 1
568 624 1
568 625 1
568 626 1
568 629 1
568 630 1
568 637 1
568 645 1
568 647 1
568 648 1
568 660 1
568 661 1
568 665 1
568 671 1
568 679 1
568 685 1
568 689 1
568 699 1
568 700 1
569 4 1
569 6 1
569 11 1
569 14 1
569 21 1
569 23 1
569 29 1
569 31 1
569 43 1
569 55 1
569 57 1
569 63 1
569 64 1
569 69 1
569 70 1
569 81 1
569 86 1
569 94 1
569 96 1
569 106 1
569 110 1
569 111 1
569 129 1
569 133 1
569 139 1
569 140 1
569 150 1
569 153 1
569 156 1
569 162 1
569 167 1
569 170 1
569 171 1
569 177 1
569 178 1
569 179 1
569 201 1
569 206 1
569 210 1
569 215 1
569 216 1
569 219 1
569 220 1
569 224 1
569 225 1
569 228 1
569 232 1
569 235 1
569 237 1
569 240 1
569 241 1
569 242 1
569 250 1
569 256 1
569 258 1
569 259 1
569 265 1
569 268 1
569 276 1
569 280 1
569 286 1
569 294 1
569 300 1
569 302 1
569 328 1
569 332 1
569 334 1
569 337 1
569 341 1
569 349 1
569 351 1
569 358 1
569 359 1
569 368 1
569 371 1
569 372 1
569 375 1
569 388 1
569 398 1
569 400 1
569 401 1
569 402 1
569 409 1
569 417 1
569 427 1
569 428 1
569 429 1
569 434 1
569 438 1
569 445 1
569 452 1
569 453 1
569 455 1
569 459 1
569 468 1
569 476 1
569 477 1
569 479 1
569 490 1
569 492 1
569 496 1
569 504 1
569 505 1
569 511 1
569 518 1
569 525 1
569 526 1
569 542 1
569 551 1
569 552 1
569 556 1
569 564 1
569 581 1
569 582 1
569 587 1
569 591 1
569 594 1
569 600 1
569 613 1
569 614 1
569 618 1
569 619 1
569 621 1
569 632 1
569 634 1
569 638 1
569 640 1
569 643 1
569 646 1
569 656 1
569 661 1
569 663 1
569 664 1
569 667 1
569 668 1
569 670 1
569 674 1
569 677 1
569 684 1
569 691 1
569 695 1
569 697 1
570 3 1
570 8 1
570 10 1
570 12 1
570 13 1
570 14 1
570 15 1
570 16 1
570 24 1
570 25 1
570 26 1
570 27 1
570 39 1
570 53 1
570 56 1
570 61 1
570 64 1
570 65 1
570 69 1
570 72 1
570 76 1
570 77 1
570 81 1
570 84 1
570 86 1
570 91 1
570 93 1
570 97 1
570 106 1
570 111 1
570 129 1
570 134 1
570 135 1
570 143 1
570 148 1
570 149 1
570 154 1
570 155 1
570 156 1
570 157 1
570 161 1
570 168 1
570 170 1
570 173 1
570 184 1
570 199 1
570 202 1
570 204 1
570 208 1
570 209 1
570 212 1
570 217 1
570 221 1
570 226 1
570 228 1
570 236 1
570 241 1
570 247 1
570 251 1
570 259 1
570 262 1
570 268 1
570 269 1
570 273 1
570 274 1
570 278 1
570 286 1
570 287 1
570 288 1
570 299 1
570 300 1
570 306 1
570 315 1
570 319 1
570 320 1
570 331 1
570 334 1
570 343 1
570 346 1
570 350 1
570 354 1
570 355 1
570 357 1
570 360 1
570 372 1
570 375 1
570 377 1
570 380 1
570 382 1
570 383 1
570 386 1
570 388 1
570 396 1
570 407 1
570 410 1
570 415 1
570 417 1
570 425 1
570 426 1
570 430 1
570 436 1
570 441 1
570 443 1
570 446 1
570 447 1
570 453 1
570 459 1
570 463 1
570 467 1
570 472 1
570 473 1
570 474 1
570 477 1
570 478 1
570 489 1
570 508 1
570 513 1
570 514 1
570 518 1
570 520 1
570 522 1
570 526 1
570 539 1
570 544 1
570 561 1
570 563 1
570 577 1
570 584 1
570 587 1
570 588 1
570 591 1
570 593 1
570 599 1
570 602 1
570 618 1
570 624 1
570 626 1
570 628 1
570 629 1
570 630 1
570 641 1
570 649 1
570 651 1
570 666 1
570 667 1
570 675 1
570 679 1
570 681 1
570 684 1
570 685 1
570 687 1
570 689 1
570 693 1
570 698 1
571 4 1
571 25 1
571 37 1
571 38 1
571 39 1
571 44 1
571 46 1
571 51 1
571 53 1
571 54 1
571 57 1
571 58 1
571 61 1
571 64 1
571 65 1
571 68 1
571 71 1
571 73 1
571 79 1
571 85 1
571 87 1
571 88 1
571 90 1
571 92 1
571 95 1
571 101 1
571 102 1
571 112 1
571 119 1
571 121 1
571 122 1
571 130 1
571 149 1
571 154 1
571 165 1
571 174 1
571 186 1
571 196 1
571 197 1
571 207 1
571 232 1
571 240 1
571 241 1
571 247 1
571 260 1
571 263 1
571 264 1
571 269 1
571 274 1
571 275 1
571 279 1
571 293 1
571 296 1
571 302 1
571 311 1
571 312 1
571 314 1
571 329 1
571 334 1
571 336 1
571 341 1
571 343 1
571 348 1
571 369 1
571 373 1
571 375 1
571 378 1
571 381 1
571 391 1
571 398 1
571 404 1
571 406 1
571 409 1
571 410 1
571 411 1
571 424 1
571 428 1
571 432 1
571 436 1
571 439 1
571 440 1
571 464 1
571 470 1
571 474 1
571 475 1
571 476 1
571 491 1
571 492 1
571 505 1
571 519 1
571 523 1
571 532 1
571 536 1
571 553 1
571 555 1
571 573 1
571 578 1
571 580 1
571 595 1
571 600 1
571 601 1
571 615 1
571 616 1
571 617 1
571 619 1
571 621 1
571 624 1
571 628 1
571 629 1
571 630 1
571 631 1
571 640 1
571 641 1
571 643 1
571 654 1
571 658 1
571 660 1
571 662 1
571 663 1
571 669 1
571 672 1
571 673 1
571 678 1
571 681 1
571 687 1
571 690 1
571 694 1
571 699 1
572 14 1
572 18 1
572 22 1
572 25 1
572 47 1
572 50 1
572 51 1
572 56 1
572 70 1
572 91 1
572 96 1
572 99 1
572 107 1
572 109 1
572 111 1
572 113 1
572 115 1
572 116 1
572 120 1
572 123 1
572 126 1
572 134 1
572 136 1
572 142 1
572 144 1
572 146 1
572 151 1
572 156 1
572 169 1
572 171 1
572 178 1
572 179 1
572 189 1
572 194 1
572 197 1
572 200 1
572 205 1
572 206 1
572 214 1
572 216 1
572 218 1
572 226 1
572 232 1
572 233 1
572 234 1
572 235 1
572 250 1
572 251 1
572 252 1
572 255 1
572 256 1
572 268 1
572 276 1
572 281 1
572 285 1
572 288 1
572 293 1
572 299 1
572 300 1
572 301 1
572 302 1
572 305 1
572 310 1
572 312 1
572 315 1
572 324 1
572 332 1
572 346 1
572 351 1
572 360 1
572 374 1
572 375 1
572 378 1
572 380 1
572 381 1
572 393 1
572 399 1
572 404 1
572 405 1
572 414 1
572 421 1
572 425 1
572 430 1
572 442 1
572 455 1
572 459 1
572 465 1
572 471 1
572 475 1
572 480 1
572 481 1
572 510 1
572 511 1
572 513 1
572 536 1
572 545 1
572 548 1
572 549 1
572 551 1
572 556 1
572 561 1
572 568 1
572 579 1
572 584 1
572 586 1
572 588 1
572 594 1
572 603 1
572 605 1
572 611 1
572 618 1
572 619 1
572 628 1
572 632 1
572 634 1
572 655 1
572 656 1
572 662 1
572 666 1
572 668 1
572 671 1
572 677 1
572 685 1
572 693 1
572 696 1
572 698 1
573 3 1
573 5 1
573 8 1
573 14 1
573 20 1
573 22 1
573 30 1
573 32 1
573 35 1
573 36 1
573 37 1
573 41 1
573 44 1
573 48 1
573 49 1
573 56 1
573 61 1
573 77 1
573 79 1
573 80 1
573 85 1
573 91 1
573 100 1
573 108 1
573 110 1
573 113 1
573 114 1
573 118 1
573 128 1
573 129 1
573 136 1
573 139 1
573 141 1
573 148 1
573 149 1
573 151 1
573 152 1
573 156 1
573 158 1
573 161 1
573 162 1
573 164 1
573 167 1
573 191 1
573 199 1
573 205 1
573 209 1
573 220 1
573 221 1
573 222 1
573 227 1
573 231 1
573 243 1
573 246 1
573 247 1
573 256 1
573 259 1
573 262 1
573 265 1
573 266 1
573 271 1
573 274 1
573 278 1
573 280 1
573 282 1
573 288 1
573 296 1
573 300 1
573 302 1
573 304 1
573 310 1
573 312 1
573 325 1
573 327 1
573 339 1
573 341 1
573 342 1
573 343 1
573 353 1
573 357 1
573 358 1
573 365 1
573 369 1
573 371 1
573 382 1
573 383 1
573 384 1
573 392 1
573 403 1
573 414 1
573 415 1
573 416 1
573 428 1
573 436 1
573 439 1
573 440 1
573 445 1
573 447 1
573 457 1
573 459 1
573 461 1
573 468 1
573 470 1
573 478 1
573 483 1
573 486 1
573 493 1
573 500 1
573 504 1
573 506 1
573 519 1
573 522 1
573 527 1
573 537 1
573 553 1
573 556 1
573 561 1
573 565 1
573 567 1
573 571 1
573 578 1
573 580 1
573 581 1
573 582 1
573 589 1
573 591 1
573 597 1
573 607 1
573 611 1
573 614 1
573 617 1
573 619 1
573 624 1
573 631 1
573 638 1
573 642 1
573 651 1
573 654 1
573 666 1
573 673 1
573 674 1
573 678 1
573 679 1
573 680 1
573 683 1
573 686 1
573 691 1
573 695 1
573 697 1
574 3 1
574 15 1
574 20 1
574 30 1
574 32 1
574 34 1
574 36 1
574 40 1
574 53 1
574 54 1
574 58 1
574 66 1
574 73 1
574 92 1
574 95 1
574 97 1
574 98 1
574 105 1
574 108 1
574 111 1
574 115 1
574 124 1
574 127 1
574 128 1
574 146 1
574 149 1
574 152 1
574 160 1
574 161 1
574 168 1
574 175 1
574 177 1
574 188 1
574 197 1
574 209 1
574 215 1
574 220 1
574 225 1
574 227 1
574 230 1
574 231 1
574 233 1
574 234 1
574 239 1
574 249 1
574 252 1
574 257 1
574 258 1
574 266 1
574 274 1
574 277 1
574 281 1
574 304 1
574 307 1
574 322 1
574 324 1
574 325 1
574 329 1
574 330 1
574 331 1
574 340 1
574 341 1
574 342 1
574 346 1
574 348 1
574 349 1
574 353 1
574 354 1
574 356 1
574 358 1
574 359 1
574 362 1
574 365 1
574 366 1
574 372 1
574 374 1
574 375 1
574 376 1
574 380 1
574 385 1
574 387 1
574 390 1
574 400 1
574 404 1
574 405 1
574 407 1
574 408 1
574 412 1
574 415 1
574 420 1
574 422 1
574 424 1
574 427 1
574 429 1
574 435 1
574 441 1
574 448 1
574 451 1
574 453 1
574 461 1
574 465 1
574 471 1
574 472 1
574 479 1
574 480 1
574 483 1
574 494 1
574 497 1
574 498 1
574 504 1
574 516 1
574 518 1
574 522 1
574 523 1
574 526 1
574 533 1
574 551 1
574 565 1
574 566 1
574 587 1
574 588 1
574 591 1
574 596 1
574 597 1
574 607 1
574 616 1
574 638 1
574 640 1
574 642 1
574 649 1
574 657 1
574 661 1
574 662 1
574 663 1
574 671 1
574 676 1
574 689 1
575 9 1
575 17 1
575 26 1
575 33 1
575 34 1
575 37 1
575 38 1
575 43 1
575 53 1
575 56 1
575 64 1
575 66 1
575 71 1
575 74 1
575 87 1
575 90 1
575 93 1
575 102 1
575 124 1
575 139 1
575 141 1
575 150 1
575 152 1
575 157 1
575 162 1
575 164 1
575 165 1
575 170 1
575 172 1
575 174 1
575 176 1
575 177 1
575 179 1
575 188 1
575 191 1
575 213 1
575 216 1
575 223 1
575 224 1
575 225 1
575 227 1
575 230 1
575 233 1
575 234 1
575 238 1
575 269 1
575 270 1
575 273 1
575 275 1
575 277 1
575 280 1
575 282 1
575 306 1
575 307 1
575 326 1
575 329 1
575 331 1
575 340 1
575 341 1
575 342 1
575 347 1
575 352 1
575 355 1
575 357 1
575 358 1
575 362 1
575 391 1
575 392 1
575 394 1
575 399 1
575 402 1
575 407 1
575 408 1
575 431 1
575 432 1
575 436 1
575 438 1
575 445 1
575 450 1
575 451 1
575 453 1
575 454 1
575 459 1
575 468 1
575 469 1
575 470 1
575 473 1
575 478 1
575 479 1
575 484 1
575 492 1
575 494 1
575 497 1
575 498 1
575 499 1
575 510 1
575 518 1
575 522 1
575 524 1
575 545 1
575 552 1
575 561 1
575 565 1
575 566 1
575 567 1
575 577 1
575 588 1
575 589 1
575 593 1
575 594 1
575 597 1
575 600 1
575 602 1
575 609 1
575 621 1
575 622 1
575 624 1
575 630 1
575 636 1
575 637 1
575 639 1
575 640 1
575 648 1
575 650 1
575 653 1
575 654 1
575 665 1
575 667 1
575 674 1
575 679 1
575 684 1
575 698 1
575 700 1
576 1 1
576 19 1
576 21 1
576 33 1
576 36 1
576 65 1
576 76 1
576 78 1
576 85 1
576 86 1
576 89 1
576 91 1
576 96 1
576 98 1
576 109 1
576 110 1
576 120 1
576 124 1
576 129 1
576 133 1
576 136 1
576 142 1
576 145 1
576 151 1
576 161 1
576 162 1
576 166 1
576 174 1
576 178 1
576 179 1
576 182 1
576 184 1
576 190 1
576 191 1
576 192 1
576 203 1
576 205 1
576 206 1
576 210 1
576 216 1
576 218 1
576 224 1
576 232 1
576 237 1
576 243 1
576 256 1
576 262 1
576 268 1
576 269 1
576 274 1
576 285 1
576 286 1
576 287 1
576 292 1
576 301 1
576 303 1
576 313 1
576 319 1
576 321 1
576 323 1
576 326 1
576 328 1
576 329 1
576 333 1
576 343 1
576 346 1
576 354 1
576 361 1
576 373 1
576 390 1
576 391 1
576 395 1
576 396 1
576 398 1
576 400 1
576 402 1
576 421 1
576 426 1
576 427 1
576 438 1
576 442 1
576 443 1
576 444 1
576 461 1
576 468 1
576 476 1
576 485 1
576 494 1
576 504 1
576 507 1
576 510 1
576 513 1
576 514 1
576 517 1
576 522 1
576 523 1
576 526 1
576 527 1
576 528 1
576 532 1
576 533 1
576 537 1
576 539 1
576 541 1
576 547 1
576 548 1
576 554 1
576 556 1
576 558 1
576 566 1
576 568 1
576 591 1
576 593 1
576 595 1
576 599 1
576 606 1
576 611 1
576 617 1
576 625 1
576 632 1
576 633 1
576 634 1
576 645 1
576 652 1
576 655 1
576 658 1
576 663 1
576 664 1
576 671 1
576 672 1
576 678 1
576 687 1
576 688 1
576 691 1
576 697 1
576 698 1
576 699 1
577 2 1
577 3 1
577 10 1
577 15 1
577 20 1
577 28 1
577 36 1
577 45 1
577 46 1
577 47 1
577 48 1
577 54 1
577 58 1
577 78 1
577 84 1
577 94 1
577 95 1
577 98 1
577 99 1
577 101 1
577 102 1
577 105 1
577 106 1
577 114 1
577 118 1
577 128 1
577 134 1
577 142 1
577 144 1
577 151 1
577 168 1
577 170 1
577 171 1
577 180 1
577 194 1
577 201 1
577 203 1
577 205 1
577 207 1
577 212 1
577 215 1
577 218 1
577 219 1
577 226 1
577 229 1
577 234 1
577 240 1
577 241 1
577 242 1
577 245 1
577 246 1
577 248 1
577 255 1
577 256 1
577 259 1
577 267 1
577 276 1
577 277 1
577 278 1
577 281 1
577 308 1
577 324 1
577 328 1
577 339 1
577 346 1
577 347 1
577 354 1
577 359 1
577 360 1
577 361 1
577 363 1
577 380 1
577 381 1
577 386 1
577 387 1
577 391 1
577 392 1
577 393 1
577 396 1
577 400 1
577 403 1
577 404 1
577 424 1
577 438 1
577 444 1
577 449 1
577 453 1
577 455 1
577 459 1
577 467 1
577 468 1
577 475 1
577 476 1
577 488 1
577 489 1
577 494 1
577 501 1
577 505 1
577 516 1
577 525 1
577 529 1
577 533 1
577 534 1
577 535 1
577 542 1
577 547 1
577 549 1
577 570 1
577 575 1
577 589 1
577 602 1
577 608 1
577 610 1
577 611 1
577 614 1
577 615 1
577 616 1
577 619 1
577 623 1
577 628 1
577 629 1
577 631 1
577 641 1
577 643 1
577 645 1
577 649 1
577 652 1
577 654 1
577 655 1
577 659 1
577 663 1
577 665 1
577 669 1
577 674 1
577 677 1
577 696 1
577 697 1
578 3 1
578 4 1
578 6 1
578 7 1
578 12 1
578 13 1
578 19 1
578 25 1
578 28 1
578 33 1
578 41 1
578 45 1
578 65 1
578 70 1
578 72 1
578 76 1
578 80 1
578 87 1
578 92 1
578 94 1
578 99 1
578 102 1
578 104 1
578 105 1
578 108 1
578 110 1
578 115 1
578 122 1
578 128 1
578 132 1
578 134 1
578 139 1
578 153 1
578 154 1
578 158 1
578 160 1
578 165 1
578 168 1
578 176 1
578 179 1
578 184 1
578 187 1
578 188 1
578 192 1
578 193 1
578 201 1
578 205 1
578 214 1
578 216 1
578 221 1
578 222 1
578 224 1
578 226 1
578 231 1
578 235 1
578 241 1
578 246 1
578 247 1
578 252 1
578 256 1
578 260 1
578 278 1
578 285 1
578 289 1
578 301 1
578 307 1
578 312 1
578 320 1
578 322 1
578 329 1
578 330 1
578 336 1
578 346 1
578 349 1
578 351 1
578 372 1
578 375 1
578 378 1
578 380 1
578 384 1
578 387 1
578 391 1
578 396 1
578 406 1
578 407 1
578 413 1
578 415 1
578 420 1
578 424 1
578 430 1
578 436 1
578 441 1
578 444 1
578 446 1
578 447 1
578 455 1
578 456 1
578 460 1
578 478 1
578 485 1
578 486 1
578 490 1
578 509 1
578 521 1
578 529 1
578 532 1
578 538 1
578 543 1
578 547 1
578 549 1
578 559 1
578 560 1
578 565 1
578 571 1
578 573 1
578 580 1
578 582 1
578 584 1
578 587 1
578 598 1
578 601 1
578 607 1
578 613 1
578 618 1
578 636 1
578 639 1
578 642 1
578 653 1
578 657 1
578 662 1
578 664 1
578 665 1
578 669 1
578 689 1
578 691 1
578 693 1
578 696 1
578 698 1
579 1 1
579 2 1
579 5 1
579 8 1
579 9 1
579 17 1
579 24 1
579 26 1
579 27 1
579 29 1
579 37 1
579 39 1
579 53 1
579 71 1
579 73 1
579 76 1
579 77 1
579 79 1
579 90 1
579 96 1
579 105 1
579 112 1
579 113 1
579 117 1
579 125 1
579 126 1
579 134 1
579 139 1
579 140 1
579 148 1
579 162 1
579 164 1
579 165 1
579 171 1
579 174 1
579 180 1
579 182 1
579 183 1
579 186 1
579 189 1
579 208 1
579 209 1
579 210 1
579 219 1
579 221 1
579 233 1
579 236 1
579 237 1
579 240 1
579 256 1
579 269 1
579 278 1
579 282 1
579 284 1
579 297 1
579 298 1
579 299 1
579 320 1
579 324 1
579 328 1
579 344 1
579 346 1
579 351 1
579 360 1
579 363 1
579 366 1
579 374 1
579 377 1
579 388 1
579 392 1
579 402 1
579 411 1
579 412 1
579 413 1
579 415 1
579 426 1
579 427 1
579 433 1
579 434 1
579 439 1
579 451 1
579 458 1
579 459 1
579 463 1
579 468 1
579 478 1
579 481 1
579 487 1
579 500 1
579 505 1
579 508 1
579 517 1
579 518 1
579 523 1
579 525 1
579 529 1
579 543 1
579 544 1
579 547 1
579 551 1
579 558 1
579 572 1
579 582 1
579 584 1
579 588 1
579 590 1
579 591 1
579 601 1
579 602 1
579 604 1
579 613 1
579 620 1
579 622 1
579 624 1
579 636 1
579 637 1
579 642 1
579 649 1
579 650 1
579 661 1
579 676 1
579 679 1
579 681 1
579 685 1
579 695 1
579 696 1
579 700 1
580 11 1
580 14 1
580 22 1
580 27 1
580 29 1
580 33 1
580 40 1
580 41 1
580 42 1
580 45 1
580 47 1
580 51 1
580 54 1
580 55 1
580 56 1
580 61 1
580 70 1
580 74 1
580 80 1
580 88 1
580 96 1
580 98 1
580 101 1
580 105 1
580 106 1
580 109 1
580 110 1
580 133 1
580 146 1
580 148 1
580 175 1
580 187 1
580 200 1
580 201 1
580 206 1
580 211 1
580 212 1
580 217 1
580 225 1
580 230 1
580 235 1
580 237 1
580 243 1
580 247 1
580 248 1
580 250 1
580 258 1
580 269 1
580 273 1
580 284 1
580 294 1
580 295 1
580 304 1
580 314 1
580 318 1
580 324 1
580 327 1
580 344 1
580 360 1
580 364 1
580 366 1
580 369 1
580 372 1
580 375 1
580 386 1
580 387 1
580 397 1
580 404 1
580 411 1
580 414 1
580 418 1
580 423 1
580 424 1
580 426 1
580 427 1
580 437 1
580 441 1
580 449 1
580 457 1
580 462 1
580 471 1
580 474 1
580 475 1
580 495 1
580 497 1
580 501 1
580 522 1
580 528 1
580 534 1
580 543 1
580 545 1
580 547 1
580 553 1
580 556 1
580 560 1
580 571 1
580 573 1
580 578 1
580 581 1
580 584 1
580 585 1
580 587 1
580 596 1
580 608 1
580 609 1
580 611 1
580 625 1
580 635 1
580 647 1
580 651 1
580 652 1
580 654 1
580 655 1
580 663 1
580 670 1
580 674 1
580 686 1
580 700 1
581 1 1
581 4 1
581 11 1
581 18 1
581 26 1
581 30 1
581 33 1
581 39 1
581 47 1
581 49 1
581 53 1
581 58 1
581 66 1
581 67 1
581 68 1
581 75 1
581 76 1
581 85 1
581 86 1
581 117 1
581 121 1
581 123 1
581 126 1
581 127 1
581 131 1
581 132 1
581 144 1
581 147 1
581 154 1
581 155 1
581 156 1
581 159 1
581 160 1
581 161 1
581 163 1
581 170 1
581 171 1
581 178 1
581 209 1
581 213 1
581 222 1
581 225 1
581 227 1
581 229 1
581 231 1
581 245 1
581 249 1
581 250 1
581 251 1
581 254 1
581 269 1
581 270 1
581 277 1
581 279 1
581 285 1
581 292 1
581 293 1
581 303 1
581 304 1
581 305 1
581 307 1
581 314 1
581 334 1
581 339 1
581 340 1
581 341 1
581 353 1
581 362 1
581 363 1
581 365 1
581 373 1
581 377 1
581 379 1
581 384 1
581 386 1
581 389 1
581 390 1
581 391 1
581 392 1
581 404 1
581 413 1
581 416 1
581 420 1
581 425 1
581 430 1
581 437 1
581 443 1
581 451 1
581 452 1
581 461 1
581 475 1
581 480 1
581 481 1
581 484 1
581 486 1
581 487 1
581 489 1
581 490 1
581 502 1
581 503 1
581 518 1
581 524 1
581 532 1
581 533 1
581 537 1
581 560 1
581 566 1
581 569 1
581 573 1
581 580 1
581 599 1
581 603 1
581 607 1
581 608 1
581 621 1
581 625 1
581 626 1
581 633 1
581 637 1
581 645 1
581 648 1
581 656 1
581 660 1
581 661 1
581 669 1
581 670 1
581 672 1
581 677 1
581 678 1
581 686 1
581 688 1
581 689 1
581 691 1
581 695 1
582 5 1
582 6 1
582 7 1
582 8 1
582 12 1
582 20 1
582 22 1
582 23 1
582 24 1
582 27 1
582 30 1
582 31 1
582 36 1
582 57 1
582 67 1
582 72 1
582 73 1
582 74 1
582 77 1
582 79 1
582 87 1
582 96 1
582 99 1
582 103 1
582 113 1
582 119 1
582 125 1
582 127 1
582 128 1
582 129 1
582 134 1
582 143 1
582 145 1
582 150 1
582 152 1
582 162 1
582 163 1
582 174 1
582 177 1
582 178 1
582 189 1
582 195 1
582 198 1
582 204 1
582 213 1
582 217 1
582 224 1
582 226 1
582 247 1
582 259 1
582 263 1
582 266 1
582 268 1
582 277 1
582 281 1
582 283 1
582 285 1
582 287 1
582 302 1
582 305 1
582 306 1
582 307 1
582 310 1
582 312 1
582 322 1
582 333 1
582 337 1
582 339 1
582 349 1
582 350 1
582 353 1
582 369 1
582 373 1
582 376 1
582 377 1
582 383 1
582 386 1
582 392 1
582 395 1
582 396 1
582 399 1
582 403 1
582 405 1
582 415 1
582 424 1
582 425 1
582 427 1
582 430 1
582 431 1
582 434 1
582 440 1
582 441 1
582 443 1
582 446 1
582 453 1
582 455 1
582 456 1
582 457 1
582 465 1
582 468 1
582 474 1
582 477 1
582 497 1
582 501 1
582 505 1
582 520 1
582 521 1
582 525 1
582 530 1
582 535 1
582 538 1
582 541 1
582 546 1
582 553 1
582 556 1
582 560 1
582 561 1
582 569 1
582 573 1
582 578 1
582 579 1
582 583 1
582 605 1
582 606 1
582 612 1
582 613 1
582 620 1
582 623 1
582 624 1
582 631 1
582 633 1
582 641 1
582 647 1
582 653 1
582 656 1
582 658 1
582 668 1
582 676 1
582 677 1
582 681 1
582 688 1
582 692 1
582 699 1
583 5 1
583 11 1
583 31 1
583 33 1
583 35 1
583 41 1
583 42 1
583 46 1
583 51 1
583 54 1
583 63 1
583 69 1
583 71 1
583 73 1
583 78 1
583 80 1
583 84 1
583 85 1
583 90 1
583 112 1
583 114 1
583 118 1
583 132 1
583 133 1
583 139 1
583 147 1
583 148 1
583 152 1
583 164 1
583 167 1
583 170 1
583 174 1
583 175 1
583 179 1
583 180 1
583 186 1
583 189 1
583 191 1
583 199 1
583 205 1
583 211 1
583 220 1
583 221 1
583 222 1
583 223 1
583 228 1
583 233 1
583 235 1
583 239 1
583 246 1
583 252 1
583 255 1
583 258 1
583 276 1
583 277 1
583 278 1
583 280 1
583 283 1
583 287 1
583 288 1
583 294 1
583 297 1
583 303 1
583 310 1
583 312 1
583 321 1
583 325 1
583 335 1
583 341 1
583 343 1
583 349 1
583 350 1
583 359 1
583 361 1
583 363 1
583 365 1
583 366 1
583 372 1
583 378 1
583 379 1
583 384 1
583 385 1
583 393 1
583 396 1
583 397 1
583 398 1
583 403 1
583 409 1
583 425 1
583 436 1
583 443 1
583 449 1
583 457 1
583 463 1
583 466 1
583 467 1
583 474 1
583 476 1
583 478 1
583 480 1
583 481 1
583 483 1
583 487 1
583 488 1
583 496 1
583 499 1
583 501 1
583 507 1
583 513 1
583 514 1
583 528 1
583 529 1
583 537 1
583 540 1
583 558 1
583 560 1
583 561 1
583 566 1
583 582 1
583 592 1
583 597 1
583 606 1
583 610 1
583 612 1
583 618 1
583 620 1
583 623 1
583 624 1
583 630 1
583 632 1
583 638 1
583 641 1
583 645 1
583 649 1
583 652 1
583 653 1
583 658 1
583 663 1
583 665 1
583 666 1
583 672 1
583 676 1
583 683 1
583 693 1
583 695 1
583 699 1
584 3 1
584 5 1
584 6 1
584 10 1
584 11 1
584 13 1
584 15 1
584 18 1
584 26 1
584 30 1
584 32 1
584 33 1
584 35 1
584 37 1
584 38 1
584 39 1
584 41 1
584 47 1
584 51 1
584 58 1
584 60 1
584 62 1
584 73 1
584 77 1
584 86 1
584 101 1
584 102 1
584 108 1
584 111 1
584 118 1
584 122 1
584 123 1
584 124 1
584 127 1
584 129 1
584 134 1
584 138 1
584 149 1
584 151 1
584 157 1
584 166 1
584 167 1
584 171 1
584 176 1
584 183 1
584 187 1
584 189 1
584 191 1
584 197 1
584 198 1
584 204 1
584 209 1
584 215 1
584 216 1
584 222 1
584 232 1
584 233 1
584 239 1
584 242 1
584 245 1
584 247 1
584 261 1
584 263 1
584 268 1
584 269 1
584 270 1
584 275 1
584 287 1
584 293 1
584 297 1
584 304 1
584 314 1
584 319 1
584 321 1
584 322 1
584 324 1
584 340 1
584 344 1
584 355 1
584 358 1
584 359 1
584 362 1
584 376 1
584 378 1
584 382 1
584 386 1
584 392 1
584 393 1
584 394 1
584 395 1
584 398 1
584 402 1
584 403 1
584 408 1
584 418 1
584 426 1
584 431 1
584 438 1
584 439 1
584 440 1
584 451 1
584 455 1
584 460 1
584 473 1
584 484 1
584 487 1
584 488 1
584 492 1
584 493 1
584 498 1
584 501 1
584 502 1
584 505 1
584 511 1
584 514 1
584 517 1
584 520 1
584 522 1
584 527 1
584 542 1
584 546 1
584 559 1
584 561 1
584 562 1
584 564 1
584 570 1
584 572 1
584 578 1
584 579 1
584 580 1
584 588 1
584 590 1
584 592 1
584 596 1
584 608 1
584 611 1
584 613 1
584 614 1
584 616 1
584 617 1
584 623 1
584 628 1
584 629 1
584 633 1
584 635 1
584 642 1
584 643 1
584 651 1
584 652 1
584 653 1
584 656 1
584 658 1
584 660 1
584 662 1
584 666 1
584 667 1
584 677 1
584 683 1
584 685 1
584 687 1
584 690 1
584 698 1
585 4 1
585 10 1
585 12 1
585 14 1
585 15 1
585 22 1
585 25 1
585 30 1
585 33 1
585 36 1
585 38 1
585 44 1
585 45 1
585 53 1
585 55 1
585 58 1
585 67 1
585 69 1
585 71 1
585 78 1
585 81 1
585 96 1
585 98 1
585 108 1
585 115 1
585 117 1
585 118 1
585 119 1
585 125 1
585 133 1
585 135 1
585 144 1
585 146 1
585 147 1
585 149 1
585 151 1
585 152 1
585 158 1
585 173 1
585 175 1
585 177 1
585 179 1
585 180 1
585 188 1
585 194 1
585 196 1
585 200 1
585 204 1
585 209 1
585 214 1
585 216 1
585 217 1
585 229 1
585 230 1
585 231 1
585 233 1
585 239 1
585 240 1
585 248 1
585 253 1
585 254 1
585 256 1
585 262 1
585 267 1
585 271 1
585 273 1
585 274 1
585 276 1
585 281 1
585 283 1
585 287 1
585 288 1
585 292 1
585 311 1
585 312 1
585 313 1
585 314 1
585 318 1
585 323 1
585 325 1
585 327 1
585 331 1
585 333 1
585 334 1
585 336 1
585 339 1
585 340 1
585 350 1
585 353 1
585 356 1
585 361 1
585 362 1
585 364 1
585 366 1
585 368 1
585 369 1
585 371 1
585 373 1
585 377 1
585 378 1
585 384 1
585 385 1
585 386 1
585 389 1
585 390 1
585 395 1
585 397 1
585 399 1
585 401 1
585 407 1
585 409 1
585 412 1
585 420 1
585 425 1
585 428 1
585 431 1
585 435 1
585 436 1
585 437 1
585 438 1
585 446 1
585 452 1
585 454 1
585 464 1
585 467 1
585 469 1
585 470 1
585 475 1
585 495 1
585 504 1
585 507 1
585 509 1
585 510 1
585 515 1
585 516 1
585 518 1
585 530 1
585 534 1
585 545 1
585 548 1
585 549 1
585 550 1
585 556 1
585 557 1
585 561 1
585 580 1
585 588 1
585 591 1
585 599 1
585 608 1
585 610 1
585 611 1
585 616 1
585 622 1
585 624 1
585 644 1
585 645 1
585 655 1
585 671 1
585 676 1
585 688 1
585 690 1
585 694 1
585 699 1
585 700 1
586 2 1
586 20 1
586 21 1
586 22 1
586 23 1
586 24 1
586 36 1
586 39 1
586 42 1
586 47 1
586 49 1
586 50 1
586 51 1
586 52 1
586 56 1
586 65 1
586 71 1
586 75 1
586 82 1
586 84 1
586 87 1
586 92 1
586 97 1
586 103 1
586 109 1
586 111 1
586 121 1
586 122 1
586 124 1
586 131 1
586 134 1
586 137 1
586 154 1
586 162 1
586 167 1
586 171 1
586 174 1
586 179 1
586 181 1
586 188 1
586 190 1
586 195 1
586 197 1
586 208 1
586 209 1
586 212 1
586 220 1
586 241 1
586 246 1
586 253 1
586 257 1
586 258 1
586 259 1
586 261 1
586 262 1
586 264 1
586 266 1
586 269 1
586 271 1
586 274 1
586 278 1
586 279 1
586 289 1
586 300 1
586 308 1
586 309 1
586 310 1
586 315 1
586 319 1
586 327 1
586 328 1
586 333 1
586 334 1
586 336 1
586 345 1
586 352 1
586 353 1
586 358 1
586 360 1
586 363 1
586 365 1
586 368 1
586 388 1
586 390 1
586 392 1
586 393 1
586 395 1
586 408 1
586 409 1
586 410 1
586 417 1
586 420 1
586 444 1
586 448 1
586 449 1
586 453 1
586 455 1
586 460 1
586 464 1
586 465 1
586 467 1
586 476 1
586 483 1
586 504 1
586 513 1
586 516 1
586 517 1
586 521 1
586 525 1
586 526 1
586 528 1
586 529 1
586 543 1
586 545 1
586 548 1
586 559 1
586 567 1
586 572 1
586 587 1
586 589 1
586 599 1
586 600 1
586 603 1
586 604 1
586 608 1
586 613 1
586 614 1
586 615 1
586 618 1
586 632 1
586 640 1
586 641 1
586 643 1
586 644 1
586 647 1
586 653 1
586 661 1
586 669 1
586 672 1
586 692 1
587 6 1
587 9 1
587 12 1
587 18 1
587 21 1
587 22 1
587 30 1
587 38 1
587 39 1
587 67 1
587 71 1
587 73 1
587 75 1
587 78 1
587 79 1
587 80 1
587 85 1
587 87 1
587 89 1
587 90 1
587 98 1
587 102 1
587 108 1
587 111 1
587 115 1
587 117 1
587 124 1
587 127 1
587 132 1
587 135 1
587 148 1
587 150 1
587 154 1
587 157 1
587 161 1
587 167 1
587 175 1
587 176 1
587 181 1
587 182 1
587 190 1
587 192 1
587 203 1
587 205 1
587 212 1
587 215 1
587 216 1
587 229 1
587 231 1
587 238 1
587 241 1
587 245 1
587 251 1
587 255 1
587 258 1
587 262 1
587 264 1
587 267 1
587 276 1
587 298 1
587 301 1
587 303 1
587 308 1
587 309 1
587 311 1
587 314 1
587 325 1
587 337 1
587 342 1
587 346 1
587 354 1
587 360 1
587 361 1
587 365 1
587 379 1
587 384 1
587 386 1
587 388 1
587 389 1
587 393 1
587 396 1
587 398 1
587 400 1
587 402 1
587 406 1
587 408 1
587 411 1
587 412 1
587 438 1
587 446 1
587 455 1
587 459 1
587 463 1
587 473 1
587 480 1
587 481 1
587 488 1
587 493 1
587 494 1
587 495 1
587 497 1
587 498 1
587 499 1
587 502 1
587 504 1
587 511 1
587 514 1
587 515 1
587 517 1
587 529 1
587 538 1
587 540 1
587 542 1
587 543 1
587 545 1
587 547 1
587 549 1
587 559 1
587 562 1
587 565 1
587 566 1
587 569 1
587 570 1
587 574 1
587 578 1
587 580 1
587 586 1
587 588 1
587 589 1
587 595 1
587 596 1
587 601 1
587 603 1
587 609 1
587 613 1
587 615 1
587 618 1
587 624 1
587 628 1
587 630 1
587 631 1
587 636 1
587 637 1
587 644 1
587 653 1
587 655 1
587 656 1
587 658 1
587 666 1
587 667 1
587 670 1
587 672 1
587 679 1
587 680 1
587 689 1
587 692 1
588 1 1
588 7 1
588 10 1
588 12 1
588 13 1
588 16 1
588 23 1
588 27 1
588 30 1
588 32 1
588 47 1
588 52 1
588 66 1
588 68 1
588 74 1
588 76 1
588 79 1
588 80 1
588 85 1
588 89 1
588 91 1
588 93 1
588 108 1
588 110 1
588 122 1
588 131 1
588 136 1
588 147 1
588 156 1
588 160 1
588 162 1
588 172 1
588 173 1
588 174 1
588 186 1
588 191 1
588 193 1
588 200 1
588 201 1
588 202 1
588 214 1
588 217 1
588 219 1
588 220 1
588 223 1
588 228 1
588 231 1
588 236 1
588 247 1
588 250 1
588 259 1
588 265 1
588 267 1
588 269 1
588 274 1
588 280 1
588 284 1
588 295 1
588 302 1
588 307 1
588 320 1
588 323 1
588 324 1
588 333 1
588 338 1
588 345 1
588 347 1
588 349 1
588 353 1
588 356 1
588 358 1
588 360 1
588 362 1
588 370 1
588 371 1
588 380 1
588 383 1
588 388 1
588 391 1
588 392 1
588 393 1
588 394 1
588 416 1
588 418 1
588 419 1
588 423 1
588 428 1
588 433 1
588 441 1
588 450 1
588 454 1
588 456 1
588 459 1
588 460 1
588 466 1
588 470 1
588 471 1
588 473 1
588 475 1
588 482 1
588 487 1
588 495 1
588 500 1
588 502 1
588 512 1
588 520 1
588 523 1
588 528 1
588 529 1
588 534 1
588 538 1
588 539 1
588 540 1
588 549 1
588 558 1
588 566 1
588 568 1
588 570 1
588 572 1
588 574 1
588 575 1
588 579 1
588 584 1
588 585 1
588 587 1
588 590 1
588 596 1
588 599 1
588 604 1
588 607 1
588 613 1
588 614 1
588 622 1
588 626 1
588 632 1
588 635 1
588 637 1
588 644 1
588 645 1
588 654 1
588 655 1
588 659 1
588 666 1
588 669 1
588 670 1
588 675 1
588 680 1
588 683 1
588 700 1
589 2 1
589 3 1
589 6 1
589 9 1
589 12 1
589 14 1
589 16 1
589 19 1
589 25 1
589 27 1
589 30 1
589 34 1
589 35 1
589 36 1
589 39 1
589 53 1
589 55 1
589 61 1
589 64 1
589 65 1
589 70 1
589 77 1
589 78 1
589 80 1
589 83 1
589 88 1
589 92 1
589 104 1
589 105 1
589 107 1
589 111 1
589 115 1
589 117 1
589 119 1
589 127 1
589 129 1
589 133 1
589 141 1
589 143 1
589 154 1
589 155 1
589 158 1
589 161 1
589 165 1
589 168 1
589 170 1
589 171 1
589 181 1
589 191 1
589 198 1
589 199 1
589 206 1
589 207 1
589 211 1
589 217 1
589 218 1
589 228 1
589 230 1
589 231 1
589 233 1
589 239 1
589 241 1
589 255 1
589 266 1
589 275 1
589 277 1
589 297 1
589 299 1
589 300 1
589 304 1
589 307 1
589 309 1
589 311 1
589 319 1
589 320 1
589 323 1
589 331 1
589 340 1
589 343 1
589 344 1
589 347 1
589 350 1
589 358 1
589 363 1
589 369 1
589 373 1
589 374 1
589 375 1
589 381 1
589 385 1
589 389 1
589 393 1
589 399 1
589 414 1
589 417 1
589 422 1
589 433 1
589 434 1
589 438 1
589 440 1
589 442 1
589 445 1
589 451 1
589 452 1
589 453 1
589 456 1
589 459 1
589 464 1
589 466 1
589 476 1
589 492 1
589 495 1
589 499 1
589 503 1
589 506 1
589 509 1
589 512 1
589 519 1
589 525 1
589 526 1
589 530 1
589 531 1
589 535 1
589 545 1
589 555 1
589 564 1
589 573 1
589 575 1
589 577 1
589 586 1
589 587 1
589 592 1
589 597 1
589 617 1
589 618 1
589 622 1
589 623 1
589 638 1
589 642 1
589 644 1
589 645 1
589 652 1
589 656 1
589 658 1
589 660 1
589 662 1
589 672 1
589 685 1
589 693 1
589 697 1
589 698 1
590 1 1
590 7 1
590 9 1
590 22 1
590 23 1
590 24 1
590 28 1
590 29 1
590 30 1
590 44 1
590 45 1
590 51 1
590 54 1
590 56 1
590 58 1
590 65 1
590 70 1
590 78 1
590 82 1
590 90 1
590 98 1
590 99 1
590 100 1
590 104 1
590 111 1
590 126 1
590 128 1
590 130 1
590 135 1
590 136 1
590 145 1
590 150 1
590 153 1
590 160 1
590 162 1
590 172 1
590 178 1
590 181 1
590 193 1
590 195 1
590 198 1
590 199 1
590 210 1
590 215 1
590 218 1
590 228 1
590 233 1
590 239 1
590 241 1
590 242 1
590 252 1
590 255 1
590 256 1
590 261 1
590 262 1
590 265 1
590 277 1
590 281 1
590 287 1
590 291 1
590 296 1
590 300 1
590 303 1
590 307 1
590 308 1
590 312 1
590 317 1
590 319 1
590 326 1
590 327 1
590 334 1
590 339 1
590 347 1
590 349 1
590 363 1
590 368 1
590 371 1
590 376 1
590 379 1
590 393 1
590 394 1
590 396 1
590 400 1
590 403 1
590 406 1
590 420 1
590 436 1
590 438 1
590 439 1
590 441 1
590 444 1
590 447 1
590 448 1
590 452 1
590 453 1
590 454 1
590 458 1
590 463 1
590 469 1
590 472 1
590 473 1
590 476 1
590 483 1
590 484 1
590 492 1
590 494 1
590 498 1
590 500 1
590 501 1
590 513 1
590 516 1
590 518 1
590 520 1
590 526 1
590 539 1
590 545 1
590 556 1
590 558 1
590 560 1
590 563 1
590 564 1
590 567 1
590 568 1
590 579 1
590 584 1
590 588 1
590 602 1
590 603 1
590 604 1
590 608 1
590 616 1
590 617 1
590 622 1
590 634 1
590 635 1
590 649 1
590 653 1
590 659 1
590 662 1
590 663 1
590 668 1
590 669 1
590 670 1
590 675 1
590 677 1
590 680 1
590 681 1
590 687 1
590 688 1
590 691 1
590 694 1
591 6 1
591 10 1
591 11 1
591 14 1
591 18 1
591 32 1
591 38 1
591 39 1
591 41 1
591 43 1
591 52 1
591 54 1
591 56 1
591 60 1
591 67 1
591 72 1
591 75 1
591 78 1
591 80 1
591 87 1
591 91 1
591 98 1
591 101 1
591 104 1
591 106 1
591 108 1
591 109 1
591 116 1
591 119 1
591 120 1
591 123 1
591 124 1
591 127 1
591 131 1
591 137 1
591 140 1
591 148 1
591 160 1
591 162 1
591 165 1
591 168 1
591 180 1
591 202 1
591 226 1
591 227 1
591 234 1
591 235 1
591 236 1
591 247 1
591 248 1
591 253 1
591 258 1
591 261 1
591 268 1
591 271 1
591 275 1
591 285 1
591 288 1
591 289 1
591 305 1
591 310 1
591 320 1
591 328 1
591 331 1
591 334 1
591 336 1
591 342 1
591 348 1
591 351 1
591 361 1
591 369 1
591 373 1
591 384 1
591 386 1
591 395 1
591 399 1
591 411 1
591 413 1
591 415 1
591 416 1
591 423 1
591 426 1
591 436 1
591 440 1
591 450 1
591 452 1
591 463 1
591 466 1
591 468 1
591 469 1
591 473 1
591 474 1
591 476 1
591 485 1
591 487 1
591 490 1
591 496 1
591 497 1
591 498 1
591 501 1
591 506 1
591 508 1
591 516 1
591 521 1
591 524 1
591 532 1
591 537 1
591 554 1
591 564 1
591 567 1
591 568 1
591 569 1
591 570 1
591 573 1
591 574 1
591 576 1
591 579 1
591 585 1
591 597 1
591 599 1
591 601 1
591 611 1
591 613 1
591 614 1
591 615 1
591 635 1
591 637 1
591 641 1
591 644 1
591 648 1
591 652 1
591 654 1
591 657 1
591 659 1
591 660 1
591 661 1
591 663 1
591 666 1
591 673 1
591 674 1
591 676 1
591 681 1
591 683 1
591 684 1
591 691 1
591 698 1
592 3 1
592 10 1
592 13 1
592 19 1
592 23 1
592 29 1
592 30 1
592 37 1
592 43 1
592 44 1
592 45 1
592 47 1
592 49 1
592 50 1
592 55 1
592 56 1
592 57 1
592 65 1
592 68 1
592 72 1
592 91 1
592 99 1
592 108 1
592 109 1
592 116 1
592 128 1
592 130 1
592 131 1
592 135 1
592 140 1
592 143 1
592 155 1
592 163 1
592 171 1
592 179 1
592 197 1
592 205 1
592 206 1
592 211 1
592 213 1
592 215 1
592 224 1
592 227 1
592 233 1
592 237 1
592 240 1
592 244 1
592 251 1
592 254 1
592 265 1
592 276 1
592 282 1
592 289 1
592 300 1
592 306 1
592 310 1
592 311 1
592 313 1
592 322 1
592 339 1
592 352 1
592 354 1
592 356 1
592 368 1
592 374 1
592 377 1
592 387 1
592 392 1
592 413 1
592 421 1
592 424 1
592 434 1
592 446 1
592 457 1
592 462 1
592 465 1
592 470 1
592 471 1
592 473 1
592 474 1
592 481 1
592 484 1
592 485 1
592 496 1
592 498 1
592 505 1
592 512 1
592 515 1
592 520 1
592 523 1
592 526 1
592 530 1
592 536 1
592 544 1
592 545 1
592 546 1
592 549 1
592 552 1
592 557 1
592 566 1
592 567 1
592 583 1
592 584 1
592 589 1
592 609 1
592 614 1
592 625 1
592 630 1
592 634 1
592 636 1
592 637 1
592 638 1
592 654 1
592 656 1
592 663 1
592 664 1
592 668 1
592 674 1
592 681 1
592 683 1
592 686 1
592 689 1
592 691 1
593 10 1
593 13 1
593 17 1
593 19 1
593 29 1
593 30 1
593 35 1
593 40 1
593 42 1
593 47 1
593 58 1
593 66 1
593 70 1
593 73 1
593 85 1
593 87 1
593 90 1
593 95 1
593 109 1
593 124 1
593 127 1
593 133 1
593 136 1
593 139 1
593 145 1
593 149 1
593 152 1
593 171 1
593 172 1
593 177 1
593 183 1
593 184 1
593 189 1
593 192 1
593 197 1
593 204 1
593 209 1
593 211 1
593 218 1
593 219 1
593 220 1
593 225 1
593 228 1
593 229 1
593 235 1
593 236 1
593 238 1
593 243 1
593 252 1
593 254 1
593 260 1
593 263 1
593 265 1
593 270 1
593 273 1
593 274 1
593 276 1
593 277 1
593 283 1
593 287 1
593 290 1
593 291 1
593 293 1
593 296 1
593 298 1
593 301 1
593 307 1
593 315 1
593 323 1
593 329 1
593 331 1
593 344 1
593 359 1
593 365 1
593 379 1
593 383 1
593 384 1
593 387 1
593 393 1
593 401 1
593 404 1
593 415 1
593 417 1
593 444 1
593 451 1
593 474 1
593 482 1
593 496 1
593 497 1
593 498 1
593 501 1
593 510 1
593 514 1
593 521 1
593 522 1
593 523 1
593 533 1
593 534 1
593 536 1
593 539 1
593 550 1
593 553 1
593 555 1
593 563 1
593 566 1
593 570 1
593 575 1
593 576 1
593 597 1
593 604 1
593 605 1
593 609 1
593 622 1
593 624 1
593 625 1
593 629 1
593 630 1
593 632 1
593 634 1
593 650 1
593 651 1
593 656 1
593 659 1
593 660 1
593 665 1
593 669 1
593 675 1
593 680 1
593 683 1
593 690 1
593 691 1
593 694 1
593 695 1
593 696 1
593 697 1
594 1 1
594 3 1
594 5 1
594 7 1
594 16 1
594 24 1
594 25 1
594 26 1
594 30 1
594 33 1
594 34 1
594 35 1
594 36 1
594 44 1
594 45 1
594 56 1
594 58 1
594 59 1
594 61 1
594 63 1
594 78 1
594 94 1
594 95 1
594 97 1
594 110 1
594 115 1
594 118 1
594 120 1
594 122 1
594 123 1
594 128 1
594 131 1
594 132 1
594 137 1
594 144 1
594 150 1
594 153 1
594 173 1
594 174 1
594 188 1
594 189 1
594 191 1
594 193 1
594 195 1
594 199 1
594 207 1
594 209 1
594 218 1
594 227 1
594 230 1
594 238 1
594 241 1
594 242 1
594 251 1
594 258 1
594 262 1
594 263 1
594 266 1
594 272 1
594 276 1
594 283 1
594 286 1
594 287 1
594 297 1
594 304 1
594 306 1
594 307 1
594 309 1
594 310 1
594 323 1
594 332 1
594 334 1
594 335 1
594 345 1
594 347 1
594 349 1
594 351 1
594 352 1
594 355 1
594 359 1
594 368 1
594 371 1
594 372 1
594 374 1
594 383 1
594 389 1
594 400 1
594 408 1
594 416 1
594 423 1
594 431 1
594 434 1
594 452 1
594 455 1
594 456 1
594 458 1
594 459 1
594 460 1
594 465 1
594 473 1
594 483 1
594 485 1
594 490 1
594 491 1
594 493 1
594 496 1
594 501 1
594 511 1
594 514 1
594 520 1
594 524 1
594 527 1
594 528 1
594 529 1
594 531 1
594 548 1
594 551 1
594 553 1
594 554 1
594 556 1
594 567 1
594 569 1
594 572 1
594 575 1
594 596 1
594 597 1
594 610 1
594 618 1
594 624 1
594 627 1
594 640 1
594 642 1
594 654 1
594 657 1
594 658 1
594 659 1
594 663 1
594 673 1
594 675 1
594 678 1
594 681 1
594 683 1
594 684 1
594 686 1
594 697 1
594 698 1
595 1 1
595 3 1
595 7 1
595 8 1
595 10 1
595 25 1
595 26 1
595 29 1
595 53 1
595 56 1
595 58 1
595 71 1
595 76 1
595 83 1
595 85 1
595 87 1
595 88 1
595 89 1
595 108 1
595 109 1
595 119 1
595 124 1
595 125 1
595 130 1
595 133 1
595 140 1
595 141 1
595 142 1
595 149 1
595 157 1
595 162 1
595 163 1
595 165 1
595 168 1
595 169 1
595 170 1
595 174 1
595 176 1
595 178 1
595 182 1
595 185 1
595 188 1
595 193 1
595 195 1
595 206 1
595 210 1
595 223 1
595 225 1
595 226 1
595 236 1
595 238 1
595 239 1
595 240 1
595 257 1
595 260 1
595 269 1
595 276 1
595 277 1
595 286 1
595 289 1
595 291 1
595 302 1
595 309 1
595 315 1
595 317 1
595 324 1
595 332 1
595 340 1
595 342 1
595 344 1
595 351 1
595 356 1
595 363 1
595 366 1
595 369 1
595 379 1
595 381 1
595 384 1
595 387 1
595 395 1
595 402 1
595 404 1
595 407 1
595 423 1
595 429 1
595 434 1
595 437 1
595 450 1
595 459 1
595 460 1
595 462 1
595 471 1
595 475 1
595 479 1
595 486 1
595 495 1
595 498 1
595 501 1
595 509 1
595 510 1
595 519 1
595 520 1
595 525 1
595 528 1
595 529 1
595 538 1
595 556 1
595 563 1
595 571 1
595 576 1
595 587 1
595 602 1
595 604 1
595 608 1
595 612 1
595 621 1
595 630 1
595 632 1
595 634 1
595 635 1
595 636 1
595 642 1
595 648 1
595 651 1
595 654 1
595 659 1
595 664 1
595 667 1
595 670 1
595 675 1
595 678 1
595 682 1
595 686 1
595 688 1
595 689 1
595 694 1
595 697 1
596 1 1
596 12 1
596 22 1
596 40 1
596 41 1
596 51 1
596 53 1
596 54 1
596 55 1
596 56 1
596 57 1
596 63 1
596 64 1
596 66 1
596 71 1
596 74 1
596 76 1
596 82 1
596 83 1
596 104 1
596 105 1
596 120 1
596 123 1
596 124 1
596 131 1
596 133 1
596 142 1
596 151 1
596 152 1
596 154 1
596 161 1
596 168 1
596 169 1
596 172 1
596 176 1
596 185 1
596 187 1
596 190 1
596 198 1
596 203 1
596 204 1
596 210 1
596 223 1
596 233 1
596 239 1
596 242 1
596 252 1
596 261 1
596 272 1
596 274 1
596 275 1
596 281 1
596 284 1
596 289 1
596 292 1
596 296 1
596 303 1
596 309 1
596 322 1
596 328 1
596 337 1
596 350 1
596 357 1
596 361 1
596 363 1
596 365 1
596 366 1
596 368 1
596 373 1
596 375 1
596 388 1
596 394 1
596 398 1
596 401 1
596 409 1
596 410 1
596 412 1
596 413 1
596 414 1
596 422 1
596 425 1
596 446 1
596 462 1
596 465 1
596 466 1
596 468 1
596 482 1
596 489 1
596 492 1
596 493 1
596 499 1
596 502 1
596 503 1
596 508 1
596 528 1
596 535 1
596 538 1
596 545 1
596 555 1
596 556 1
596 557 1
596 563 1
596 564 1
596 574 1
596 580 1
596 584 1
596 587 1
596 588 1
596 594 1
596 597 1
596 601 1
596 602 1
596 608 1
596 610 1
596 614 1
596 661 1
596 663 1
596 664 1
596 667 1
596 669 1
596 671 1
596 675 1
596 682 1
596 689 1
596 692 1
596 695 1
596 697 1
596 700 1
597 1 1
597 7 1
597 10 1
597 14 1
597 16 1
597 20 1
597 21 1
597 23 1
597 25 1
597 27 1
597 36 1
597 41 1
597 44 1
597 48 1
597 54 1
597 59 1
597 69 1
597 75 1
597 78 1
597 85 1
597 86 1
597 93 1
597 97 1
597 104 1
597 110 1
597 113 1
597 118 1
597 119 1
597 124 1
597 130 1
597 136 1
597 138 1
597 139 1
597 140 1
597 143 1
597 144 1
597 146 1
597 162 1
597 163 1
597 164 1
597 165 1
597 168 1
597 175 1
597 176 1
597 202 1
597 203 1
597 210 1
597 211 1
597 212 1
597 213 1
597 214 1
597 216 1
597 219 1
597 220 1
597 222 1
597 227 1
597 245 1
597 246 1
597 247 1
597 250 1
597 256 1
597 261 1
597 278 1
597 281 1
597 286 1
597 288 1
597 295 1
597 298 1
597 300 1
597 303 1
597 312 1
597 315 1
597 316 1
597 321 1
597 322 1
597 328 1
597 330 1
597 340 1
597 346 1
597 347 1
597 359 1
597 361 1
597 364 1
597 369 1
597 374 1
597 386 1
597 390 1
597 393 1
597 401 1
597 402 1
597 406 1
597 407 1
597 409 1
597 417 1
597 421 1
597 425 1
597 427 1
597 428 1
597 429 1
597 430 1
597 433 1
597 443 1
597 445 1
597 446 1
597 450 1
597 452 1
597 453 1
597 454 1
597 460 1
597 465 1
597 471 1
597 479 1
597 483 1
597 484 1
597 485 1
597 494 1
597 496 1
597 500 1
597 507 1
597 508 1
597 511 1
597 512 1
597 515 1
597 517 1
597 518 1
597 521 1
597 522 1
597 524 1
597 528 1
597 533 1
597 546 1
597 549 1
597 550 1
597 556 1
597 558 1
597 563 1
597 573 1
597 574 1
597 575 1
597 583 1
597 589 1
597 591 1
597 593 1
597 594 1
597 596 1
597 605 1
597 611 1
597 613 1
597 617 1
597 620 1
597 622 1
597 625 1
597 626 1
597 628 1
597 631 1
597 632 1
597 633 1
597 636 1
597 637 1
597 638 1
597 644 1
597 647 1
597 648 1
597 649 1
597 660 1
597 661 1
597 662 1
597 667 1
597 670 1
597 671 1
597 680 1
597 684 1
597 696 1
598 1 1
598 8 1
598 9 1
598 16 1
598 17 1
598 23 1
598 27 1
598 32 1
598 44 1
598 46 1
598 52 1
598 54 1
598 64 1
598 77 1
598 82 1
598 91 1
598 94 1
598 95 1
598 97 1
598 99 1
598 101 1
598 105 1
598 107 1
598 108 1
598 109 1
598 114 1
598 143 1
598 149 1
598 152 1
598 153 1
598 159 1
598 165 1
598 173 1
598 174 1
598 177 1
598 182 1
598 195 1
598 197 1
598 219 1
598 222 1
598 223 1
598 224 1
598 235 1
598 236 1
598 237 1
598 246 1
598 248 1
598 250 1
598 254 1
598 276 1
598 277 1
598 278 1
598 279 1
598 281 1
598 283 1
598 286 1
598 287 1
598 288 1
598 297 1
598 299 1
598 302 1
598 304 1
598 307 1
598 315 1
598 318 1
598 322 1
598 325 1
598 329 1
598 332 1
598 335 1
598 338 1
598 339 1
598 342 1
598 349 1
598 350 1
598 360 1
598 364 1
598 367 1
598 369 1
598 374 1
598 376 1
598 382 1
598 384 1
598 389 1
598 395 1
598 398 1
598 408 1
598 412 1
598 414 1
598 427 1
598 428 1
598 432 1
598 449 1
598 450 1
598 456 1
598 460 1
598 468 1
598 471 1
598 474 1
598 475 1
598 482 1
598 489 1
598 492 1
598 502 1
598 515 1
598 518 1
598 522 1
598 523 1
598 541 1
598 548 1
598 549 1
598 551 1
598 554 1
598 555 1
598 559 1
598 561 1
598 562 1
598 564 1
598 568 1
598 578 1
598 599 1
598 603 1
598 608 1
598 611 1
598 614 1
598 615 1
598 632 1
598 636 1
598 639 1
598 640 1
598 641 1
598 643 1
598 646 1
598 653 1
598 654 1
598 668 1
598 669 1
598 672 1
598 679 1
598 680 1
598 684 1
598 685 1
598 688 1
598 690 1
598 697 1
598 700 1
599 1 1
599 16 1
599 17 1
599 30 1
599 33 1
599 39 1
599 47 1
599 57 1
599 63 1
599 64 1
599 71 1
599 74 1
599 77 1
599 80 1
599 83 1
599 99 1
599 108 1
599 109 1
599 110 1
599 116 1
599 118 1
599 119 1
599 123 1
599 124 1
599 129 1
599 131 1
599 135 1
599 138 1
599 142 1
599 160 1
599 161 1
599 165 1
599 168 1
599 169 1
599 171 1
599 176 1
599 202 1
599 204 1
599 219 1
599 222 1
599 224 1
599 232 1
599 233 1
599 235 1
599 238 1
599 248 1
599 250 1
599 251 1
599 255 1
599 264 1
599 276 1
599 278 1
599 279 1
599 285 1
599 289 1
599 303 1
599 304 1
599 307 1
599 310 1
599 321 1
599 326 1
599 334 1
599 336 1
599 338 1
599 343 1
599 344 1
599 346 1
599 347 1
599 348 1
599 365 1
599 368 1
599 370 1
599 372 1
599 374 1
599 380 1
599 383 1
599 392 1
599 393 1
599 400 1
599 412 1
599 413 1
599 415 1
599 419 1
599 422 1
599 423 1
599 427 1
599 444 1
599 448 1
599 453 1
599 457 1
599 461 1
599 462 1
599 464 1
599 470 1
599 476 1
599 478 1
599 479 1
599 480 1
599 483 1
599 491 1
599 502 1
599 508 1
599 509 1
599 511 1
599 529 1
599 530 1
599 540 1
599 542 1
599 543 1
599 549 1
599 557 1
599 570 1
599 576 1
599 581 1
599 585 1
599 586 1
599 588 1
599 591 1
599 598 1
599 600 1
599 603 1
599 606 1
599 621 1
599 625 1
599 626 1
599 633 1
599 636 1
599 639 1
599 642 1
599 644 1
599 648 1
599 649 1
599 655 1
599 661 1
599 662 1
599 666 1
599 680 1
599 683 1
599 684 1
599 690 1
599 696 1
599 700 1
600 1 1
600 2 1
600 3 1
600 5 1
600 8 1
600 9 1
600 14 1
600 15 1
600 23 1
600 26 1
600 29 1
600 38 1
600 42 1
600 45 1
600 47 1
600 54 1
600 56 1
600 59 1
600 61 1
600 62 1
600 64 1
600 68 1
600 74 1
600 80 1
600 83 1
600 86 1
600 89 1
600 92 1
600 95 1
600 100 1
600 104 1
600 105 1
600 109 1
600 121 1
600 127 1
600 139 1
600 148 1
600 160 1
600 167 1
600 179 1
600 180 1
600 181 1
600 182 1
600 184 1
600 196 1
600 215 1
600 231 1
600 232 1
600 240 1
600 241 1
600 250 1
600 251 1
600 255 1
600 270 1
600 282 1
600 284 1
600 292 1
600 293 1
600 295 1
600 301 1
600 302 1
600 304 1
600 306 1
600 308 1
600 316 1
600 319 1
600 322 1
600 325 1
600 326 1
600 332 1
600 339 1
600 351 1
600 352 1
600 358 1
600 361 1
600 362 1
600 366 1
600 367 1
600 373 1
600 375 1
600 377 1
600 392 1
600 393 1
600 395 1
600 396 1
600 397 1
600 401 1
600 402 1
600 403 1
600 423 1
600 427 1
600 436 1
600 437 1
600 441 1
600 445 1
600 449 1
600 454 1
600 455 1
600 474 1
600 475 1
600 477 1
600 478 1
600 487 1
600 488 1
600 495 1
600 501 1
600 502 1
600 506 1
600 508 1
600 512 1
600 523 1
600 526 1
600 532 1
600 536 1
600 537 1
600 545 1
600 546 1
600 548 1
600 549 1
600 551 1
600 561 1
600 566 1
600 569 1
600 571 1
600 575 1
600 586 1
600 599 1
600 604 1
600 605 1
600 607 1
600 610 1
600 611 1
600 612 1
600 614 1
600 620 1
600 622 1
600 634 1
600 636 1
600 639 1
600 640 1
600 644 1
600 647 1
600 654 1
600 655 1
600 662 1
600 671 1
600 680 1
600 682 1
600 685 1
600 686 1
600 696 1
601 2 1
601 18 1
601 19 1
601 20 1
601 28 1
601 30 1
601 35 1
601 42 1
601 45 1
601 57 1
601 59 1
601 64 1
601 67 1
601 71 1
601 74 1
601 79 1
601 84 1
601 94 1
601 95 1
601 106 1
601 107 1
601 111 1
601 112 1
601 113 1
601 114 1
601 116 1
601 121 1
601 126 1
601 129 1
601 137 1
601 139 1
601 140 1
601 141 1
601 148 1
601 158 1
601 159 1
601 161 1
601 164 1
601 167 1
601 168 1
601 169 1
601 183 1
601 187 1
601 190 1
601 197 1
601 201 1
601 205 1
601 207 1
601 212 1
601 216 1
601 219 1
601 225 1
601 227 1
601 229 1
601 230 1
601 237 1
601 242 1
601 250 1
601 251 1
601 253 1
601 258 1
601 260 1
601 261 1
601 267 1
601 268 1
601 275 1
601 279 1
601 280 1
601 293 1
601 301 1
601 302 1
601 306 1
601 310 1
601 316 1
601 318 1
601 321 1
601 322 1
601 329 1
601 337 1
601 345 1
601 348 1
601 372 1
601 375 1
601 394 1
601 402 1
601 406 1
601 409 1
601 425 1
601 429 1
601 433 1
601 434 1
601 454 1
601 457 1
601 465 1
601 466 1
601 479 1
601 487 1
601 489 1
601 492 1
601 498 1
601 503 1
601 510 1
601 511 1
601 512 1
601 525 1
601 531 1
601 538 1
601 543 1
601 544 1
601 545 1
601 546 1
601 548 1
601 554 1
601 571 1
601 578 1
601 579 1
601 587 1
601 591 1
601 596 1
601 603 1
601 610 1
601 612 1
601 615 1
601 618 1
601 621 1
601 630 1
601 631 1
601 635 1
601 636 1
601 664 1
601 666 1
601 668 1
601 670 1
601 677 1
601 678 1
601 679 1
601 685 1
601 686 1
601 688 1
601 694 1
601 695 1
602 3 1
602 15 1
602 19 1
602 29 1
602 30 1
602 31 1
602 39 1
602 51 1
602 55 1
602 57 1
602 59 1
602 75 1
602 79 1
602 93 1
602 99 1
602 101 1
602 102 1
602 104 1
602 106 1
602 112 1
602 131 1
602 136 1
602 142 1
602 146 1
602 151 1
602 155 1
602 157 1
602 160 1
602 174 1
602 179 1
602 183 1
602 203 1
602 205 1
602 211 1
602 213 1
602 216 1
602 221 1
602 229 1
602 240 1
602 243 1
602 252 1
602 256 1
602 271 1
602 284 1
602 295 1
602 300 1
602 308 1
602 315 1
602 318 1
602 329 1
602 331 1
602 338 1
602 340 1
602 342 1
602 346 1
602 365 1
602 369 1
602 374 1
602 382 1
602 383 1
602 384 1
602 392 1
602 393 1
602 401 1
602 402 1
602 414 1
602 415 1
602 422 1
602 426 1
602 427 1
602 437 1
602 448 1
602 453 1
602 459 1
602 465 1
602 467 1
602 470 1
602 478 1
602 479 1
602 488 1
602 489 1
602 508 1
602 512 1
602 517 1
602 518 1
602 523 1
602 524 1
602 528 1
602 537 1
602 545 1
602 547 1
602 559 1
602 562 1
602 563 1
602 564 1
602 570 1
602 575 1
602 577 1
602 579 1
602 590 1
602 595 1
602 596 1
602 606 1
602 612 1
602 615 1
602 620 1
602 625 1
602 626 1
602 627 1
602 635 1
602 636 1
602 637 1
602 645 1
602 647 1
602 653 1
602 655 1
602 659 1
602 666 1
602 672 1
602 673 1
602 677 1
602 680 1
602 681 1
602 692 1
602 693 1
602 696 1
602 697 1
603 1 1
603 2 1
603 7 1
603 15 1
603 27 1
603 28 1
603 31 1
603 32 1
603 33 1
603 36 1
603 48 1
603 55 1
603 63 1
603 73 1
603 75 1
603 76 1
603 78 1
603 79 1
603 82 1
603 92 1
603 100 1
603 115 1
603 125 1
603 127 1
603 128 1
603 129 1
603 138 1
603 139 1
603 140 1
603 141 1
603 150 1
603 160 1
603 162 1
603 163 1
603 166 1
603 172 1
603 174 1
603 177 1
603 179 1
603 181 1
603 183 1
603 191 1
603 192 1
603 193 1
603 198 1
603 207 1
603 208 1
603 212 1
603 213 1
603 219 1
603 225 1
603 228 1
603 231 1
603 233 1
603 234 1
603 242 1
603 243 1
603 244 1
603 246 1
603 251 1
603 257 1
603 262 1
603 267 1
603 271 1
603 275 1
603 276 1
603 281 1
603 284 1
603 290 1
603 293 1
603 294 1
603 298 1
603 301 1
603 304 1
603 309 1
603 311 1
603 312 1
603 315 1
603 330 1
603 335 1
603 337 1
603 340 1
603 350 1
603 351 1
603 355 1
603 361 1
603 364 1
603 370 1
603 372 1
603 378 1
603 380 1
603 400 1
603 408 1
603 409 1
603 416 1
603 431 1
603 446 1
603 454 1
603 458 1
603 459 1
603 461 1
603 465 1
603 474 1
603 479 1
603 486 1
603 489 1
603 490 1
603 491 1
603 493 1
603 505 1
603 507 1
603 512 1
603 520 1
603 524 1
603 527 1
603 529 1
603 537 1
603 541 1
603 557 1
603 562 1
603 572 1
603 581 1
603 586 1
603 587 1
603 590 1
603 598 1
603 599 1
603 601 1
603 604 1
603 606 1
603 610 1
603 613 1
603 614 1
603 643 1
603 645 1
603 647 1
603 653 1
603 658 1
603 659 1
603 670 1
603 671 1
603 674 1
603 679 1
603 690 1
603 692 1
603 694 1
603 695 1
604 13 1
604 30 1
604 31 1
604 35 1
604 37 1
604 46 1
604 53 1
604 58 1
604 61 1
604 62 1
604 64 1
604 66 1
604 68 1
604 76 1
604 77 1
604 78 1
604 81 1
604 85 1
604 94 1
604 97 1
604 99 1
604 100 1
604 113 1
604 115 1
604 120 1
604 127 1
604 130 1
604 133 1
604 134 1
604 138 1
604 139 1
604 146 1
604 147 1
604 148 1
604 149 1
604 155 1
604 157 1
604 162 1
604 175 1
604 178 1
604 188 1
604 189 1
604 190 1
604 198 1
604 206 1
604 207 1
604 209 1
604 210 1
604 215 1
604 222 1
604 223 1
604 224 1
604 225 1
604 226 1
604 230 1
604 231 1
604 238 1
604 245 1
604 246 1
604 249 1
604 255 1
604 257 1
604 259 1
604 266 1
604 267 1
604 272 1
604 276 1
604 285 1
604 287 1
604 288 1
604 293 1
604 300 1
604 302 1
604 303 1
604 311 1
604 315 1
604 316 1
604 324 1
604 325 1
604 328 1
604 333 1
604 337 1
604 342 1
604 345 1
604 364 1
604 374 1
604 377 1
604 378 1
604 383 1
604 387 1
604 402 1
604 403 1
604 409 1
604 412 1
604 414 1
604 417 1
604 418 1
604 426 1
604 428 1
604 435 1
604 436 1
604 449 1
604 453 1
604 457 1
604 459 1
604 465 1
604 472 1
604 475 1
604 476 1
604 480 1
604 484 1
604 488 1
604 490 1
604 498 1
604 507 1
604 509 1
604 510 1
604 512 1
604 515 1
604 523 1
604 528 1
604 529 1
604 541 1
604 549 1
604 557 1
604 564 1
604 566 1
604 579 1
604 586 1
604 588 1
604 590 1
604 593 1
604 595 1
604 600 1
604 603 1
604 606 1
604 608 1
604 611 1
604 612 1
604 639 1
604 644 1
604 645 1
604 648 1
604 651 1
604 655 1
604 658 1
604 659 1
604 663 1
604 675 1
604 677 1
604 681 1
604 693 1
605 3 1
605 17 1
605 23 1
605 25 1
605 30 1
605 33 1
605 34 1
605 44 1
605 46 1
605 49 1
605 55 1
605 62 1
605 73 1
605 74 1
605 77 1
605 78 1
605 79 1
605 84 1
605 91 1
605 98 1
605 101 1
605 104 1
605 105 1
605 116 1
605 121 1
605 125 1
605 127 1
605 139 1
605 142 1
605 143 1
605 154 1
605 155 1
605 157 1
605 163 1
605 165 1
605 166 1
605 168 1
605 178 1
605 188 1
605 189 1
605 191 1
605 196 1
605 197 1
605 198 1
605 201 1
605 203 1
605 206 1
605 207 1
605 208 1
605 212 1
605 216 1
605 218 1
605 222 1
605 223 1
605 227 1
605 229 1
605 238 1
605 241 1
605 251 1
605 252 1
605 257 1
605 258 1
605 259 1
605 265 1
605 266 1
605 268 1
605 270 1
605 273 1
605 276 1
605 280 1
605 282 1
605 283 1
605 287 1
605 290 1
605 292 1
605 300 1
605 301 1
605 302 1
605 312 1
605 315 1
605 322 1
605 324 1
605 326 1
605 332 1
605 336 1
605 338 1
605 346 1
605 351 1
605 367 1
605 370 1
605 381 1
605 382 1
605 383 1
605 384 1
605 385 1
605 395 1
605 397 1
605 403 1
605 412 1
605 420 1
605 428 1
605 431 1
605 433 1
605 435 1
605 437 1
605 440 1
605 443 1
605 445 1
605 446 1
605 450 1
605 452 1
605 453 1
605 463 1
605 464 1
605 465 1
605 469 1
605 471 1
605 474 1
605 476 1
605 477 1
605 487 1
605 488 1
605 490 1
605 491 1
605 497 1
605 503 1
605 507 1
605 517 1
605 518 1
605 519 1
605 522 1
605 523 1
605 531 1
605 532 1
605 535 1
605 536 1
605 543 1
605 545 1
605 550 1
605 551 1
605 555 1
605 556 1
605 559 1
605 561 1
605 566 1
605 572 1
605 582 1
605 593 1
605 597 1
605 600 1
605 608 1
605 610 1
605 613 1
605 621 1
605 626 1
605 628 1
605 632 1
605 634 1
605 643 1
605 650 1
605 651 1
605 653 1
605 654 1
605 661 1
605 663 1
605 665 1
605 673 1
605 693 1
605 695 1
606 1 1
606 11 1
606 17 1
606 29 1
606 33 1
606 38 1
606 48 1
606 52 1
606 65 1
606 68 1
606 70 1
606 73 1
606 77 1
606 82 1
606 91 1
606 96 1
606 97 1
606 101 1
606 109 1
606 112 1
606 113 1
606 117 1
606 134 1
606 135 1
606 136 1
606 141 1
606 143 1
606 147 1
606 151 1
606 167 1
606 168 1
606 174 1
606 175 1
606 177 1
606 180 1
606 184 1
606 185 1
606 187 1
606 188 1
606 191 1
606 199 1
606 200 1
606 201 1
606 206 1
606 210 1
606 211 1
606 222 1
606 225 1
606 258 1
606 260 1
606 265 1
606 277 1
606 290 1
606 308 1
606 310 1
606 316 1
606 317 1
606 327 1
606 330 1
606 344 1
606 347 1
606 350 1
606 351 1
606 356 1
606 357 1
606 360 1
606 363 1
606 369 1
606 372 1
606 374 1
606 376 1
606 379 1
606 385 1
606 386 1
606 387 1
606 392 1
606 397 1
606 413 1
606 425 1
606 438 1
606 450 1
606 451 1
606 452 1
606 453 1
606 457 1
606 467 1
606 470 1
606 471 1
606 474 1
606 480 1
606 495 1
606 504 1
606 508 1
606 522 1
606 526 1
606 528 1
606 529 1
606 530 1
606 533 1
606 559 1
606 576 1
606 582 1
606 583 1
606 599 1
606 602 1
606 603 1
606 604 1
606 612 1
606 616 1
606 622 1
606 630 1
606 632 1
606 638 1
606 639 1
606 640 1
606 653 1
606 655 1
606 656 1
606 658 1
606 659 1
606 669 1
606 677 1
606 679 1
606 684 1
606 697 1
606 699 1
606 700 1
607 5 1
607 9 1
607 22 1
607 26 1
607 28 1
607 33 1
607 38 1
607 45 1
607 50 1
607 52 1
607 60 1
607 64 1
607 66 1
607 76 1
607 80 1
607 81 1
607 98 1
607 112 1
607 116 1
607 120 1
607 129 1
607 139 1
607 140 1
607 141 1
607 164 1
607 166 1
607 168 1
607 171 1
607 174 1
607 185 1
607 197 1
607 199 1
607 202 1
607 203 1
607 216 1
607 220 1
607 221 1
607 225 1
607 227 1
607 231 1
607 235 1
607 239 1
607 252 1
607 265 1
607 269 1
607 271 1
607 277 1
607 284 1
607 286 1
607 287 1
607 293 1
607 294 1
607 305 1
607 308 1
607 322 1
607 323 1
607 325 1
607 326 1
607 328 1
607 335 1
607 338 1
607 341 1
607 356 1
607 358 1
607 362 1
607 363 1
607 367 1
607 382 1
607 391 1
607 400 1
607 404 1
607 406 1
607 409 1
607 417 1
607 418 1
607 422 1
607 429 1
607 431 1
607 434 1
607 437 1
607 443 1
607 445 1
607 447 1
607 453 1
607 455 1
607 456 1
607 458 1
607 469 1
607 474 1
607 480 1
607 483 1
607 495 1
607 496 1
607 498 1
607 503 1
607 511 1
607 513 1
607 516 1
607 518 1
607 520 1
607 524 1
607 536 1
607 542 1
607 544 1
607 547 1
607 549 1
607 554 1
607 557 1
607 573 1
607 574 1
607 578 1
607 581 1
607 588 1
607 600 1
607 620 1
607 625 1
607 626 1
607 630 1
607 636 1
607 637 1
607 644 1
607 651 1
607 654 1
607 655 1
607 658 1
607 679 1
607 682 1
607 683 1
607 685 1
607 695 1
608 1 1
608 3 1
608 30 1
608 32 1
608 33 1
608 36 1
608 45 1
608 58 1
608 60 1
608 63 1
608 66 1
608 72 1
608 74 1
608 77 1
608 79 1
608 80 1
608 84 1
608 92 1
608 96 1
608 99 1
608 102 1
608 110 1
608 112 1
608 117 1
608 121 1
608 123 1
608 128 1
608 131 1
608 138 1
608 145 1
608 149 1
608 152 1
608 158 1
608 163 1
608 164 1
608 168 1
608 169 1
608 176 1
608 181 1
608 194 1
608 200 1
608 201 1
608 203 1
608 205 1
608 206 1
608 211 1
608 218 1
608 221 1
608 244 1
608 254 1
608 258 1
608 260 1
608 265 1
608 269 1
608 283 1
608 291 1
608 293 1
608 299 1
608 305 1
608 308 1
608 309 1
608 318 1
608 319 1
608 324 1
608 326 1
608 330 1
608 332 1
608 335 1
608 347 1
608 348 1
608 351 1
608 364 1
608 366 1
608 376 1
608 380 1
608 386 1
608 405 1
608 412 1
608 422 1
608 427 1
608 432 1
608 438 1
608 450 1
608 456 1
608 464 1
608 465 1
608 475 1
608 481 1
608 485 1
608 489 1
608 508 1
608 516 1
608 527 1
608 534 1
608 536 1
608 541 1
608 542 1
608 545 1
608 546 1
608 547 1
608 556 1
608 567 1
608 577 1
608 580 1
608 581 1
608 584 1
608 585 1
608 586 1
608 590 1
608 595 1
608 596 1
608 598 1
608 604 1
608 605 1
608 622 1
608 632 1
608 640 1
608 647 1
608 649 1
608 654 1
608 656 1
608 658 1
608 665 1
608 670 1
608 673 1
608 676 1
608 678 1
608 679 1
608 680 1
608 683 1
608 685 1
608 692 1
608 694 1
608 695 1
608 698 1
609 3 1
609 5 1
609 7 1
609 10 1
609 14 1
609 21 1
609 25 1
609 26 1
609 42 1
609 49 1
609 50 1
609 51 1
609 56 1
609 57 1
609 70 1
609 73 1
609 78 1
609 82 1
609 87 1
609 94 1
609 98 1
609 99 1
609 109 1
609 114 1
609 122 1
609 126 1
609 128 1
609 135 1
609 141 1
609 144 1
609 153 1
609 156 1
609 157 1
609 159 1
609 163 1
609 164 1
609 188 1
609 194 1
609 198 1
609 199 1
609 210 1
609 211 1
609 213 1
609 215 1
609 227 1
609 232 1
609 236 1
609 252 1
609 253 1
609 280 1
609 289 1
609 295 1
609 305 1
609 308 1
609 309 1
609 313 1
609 323 1
609 338 1
609 341 1
609 343 1
609 348 1
609 354 1
609 355 1
609 357 1
609 359 1
609 363 1
609 373 1
609 375 1
609 378 1
609 383 1
609 393 1
609 395 1
609 396 1
609 397 1
609 416 1
609 417 1
609 424 1
609 437 1
609 438 1
609 449 1
609 453 1
609 454 1
609 456 1
609 459 1
609 465 1
609 473 1
609 474 1
609 479 1
609 496 1
609 500 1
609 503 1
609 512 1
609 516 1
609 525 1
609 529 1
609 531 1
609 535 1
609 536 1
609 539 1
609 540 1
609 553 1
609 561 1
609 575 1
609 580 1
609 587 1
609 592 1
609 593 1
609 610 1
609 618 1
609 626 1
609 645 1
609 647 1
609 650 1
609 656 1
609 659 1
609 668 1
609 672 1
609 673 1
609 679 1
609 680 1
609 691 1
609 698 1
610 1 1
610 4 1
610 8 1
610 13 1
610 17 1
610 24 1
610 42 1
610 44 1
610 48 1
610 52 1
610 53 1
610 58 1
610 66 1
610 71 1
610 83 1
610 84 1
610 85 1
610 87 1
610 90 1
610 99 1
610 101 1
610 102 1
610 104 1
610 107 1
610 112 1
610 124 1
610 127 1
610 128 1
610 133 1
610 137 1
610 138 1
610 139 1
610 140 1
610 142 1
610 143 1
610 151 1
610 157 1
610 159 1
610 167 1
610 168 1
610 171 1
610 172 1
610 185 1
610 186 1
610 191 1
610 192 1
610 199 1
610 212 1
610 215 1
610 219 1
610 220 1
610 222 1
610 227 1
610 236 1
610 239 1
610 246 1
610 250 1
610 251 1
610 261 1
610 272 1
610 279 1
610 281 1
610 288 1
610 293 1
610 295 1
610 302 1
610 305 1
610 308 1
610 310 1
610 319 1
610 321 1
610 324 1
610 326 1
610 333 1
610 351 1
610 357 1
610 360 1
610 370 1
610 373 1
610 386 1
610 387 1
610 390 1
610 391 1
610 397 1
610 398 1
610 399 1
610 406 1
610 412 1
610 415 1
610 443 1
610 457 1
610 465 1
610 468 1
610 476 1
610 477 1
610 486 1
610 488 1
610 491 1
610 492 1
610 493 1
610 499 1
610 501 1
610 509 1
610 511 1
610 518 1
610 522 1
610 524 1
610 533 1
610 535 1
610 536 1
610 537 1
610 538 1
610 551 1
610 563 1
610 577 1
610 583 1
610 585 1
610 594 1
610 596 1
610 600 1
610 601 1
610 603 1
610 605 1
610 609 1
610 620 1
610 630 1
610 635 1
610 657 1
610 665 1
610 666 1
610 673 1
610 681 1
610 686 1
610 687 1
610 689 1
610 690 1
611 7 1
611 8 1
611 16 1
611 17 1
611 19 1
611 24 1
611 25 1
611 29 1
611 52 1
611 54 1
611 59 1
611 64 1
611 69 1
611 76 1
611 85 1
611 91 1
611 110 1
611 118 1
611 120 1
611 121 1
611 122 1
611 125 1
611 128 1
611 137 1
611 138 1
611 144 1
611 150 1
611 156 1
611 167 1
611 173 1
611 175 1
611 181 1
611 192 1
611 194 1
611 198 1
611 202 1
611 211 1
611 213 1
611 215 1
611 225 1
611 226 1
611 228 1
611 234 1
611 242 1
611 243 1
611 269 1
611 280 1
611 285 1
611 289 1
611 311 1
611 317 1
611 323 1
611 324 1
611 336 1
611 340 1
611 347 1
611 356 1
611 364 1
611 377 1
611 386 1
611 387 1
611 393 1
611 402 1
611 417 1
611 420 1
611 424 1
611 432 1
611 433 1
611 439 1
611 445 1
611 446 1
611 453 1
611 460 1
611 465 1
611 466 1
611 467 1
611 469 1
611 472 1
611 473 1
611 474 1
611 478 1
611 484 1
611 488 1
611 499 1
611 510 1
611 513 1
611 519 1
611 522 1
611 524 1
611 525 1
611 534 1
611 537 1
611 542 1
611 545 1
611 554 1
611 564 1
611 572 1
611 573 1
611 576 1
611 577 1
611 580 1
611 584 1
611 585 1
611 591 1
611 597 1
611 598 1
611 600 1
611 604 1
611 616 1
611 618 1
611 624 1
611 633 1
611 642 1
611 645 1
611 655 1
611 658 1
611 659 1
611 661 1
611 663 1
611 664 1
611 673 1
611 687 1
611 689 1
611 690 1
611 691 1
611 699 1
612 9 1
612 14 1
612 18 1
612 20 1
612 37 1
612 46 1
612 59 1
612 65 1
612 67 1
612 70 1
612 72 1
612 78 1
612 86 1
612 87 1
612 90 1
612 91 1
612 92 1
612 95 1
612 103 1
612 108 1
612 109 1
612 141 1
612 144 1
612 145 1
612 148 1
612 151 1
612 156 1
612 157 1
612 164 1
612 172 1
612 181 1
612 195 1
612 200 1
612 205 1
612 206 1
612 207 1
612 209 1
612 211 1
612 213 1
612 223 1
612 224 1
612 229 1
612 240 1
612 249 1
612 250 1
612 255 1
612 256 1
612 258 1
612 260 1
612 262 1
612 267 1
612 270 1
612 277 1
612 282 1
612 287 1
612 289 1
612 290 1
612 295 1
612 305 1
612 308 1
612 317 1
612 326 1
612 332 1
612 333 1
612 336 1
612 338 1
612 340 1
612 360 1
612 367 1
612 368 1
612 369 1
612 371 1
612 374 1
612 383 1
612 386 1
612 405 1
612 407 1
612 408 1
612 417 1
612 419 1
612 420 1
612 422 1
612 428 1
612 436 1
612 442 1
612 445 1
612 447 1
612 451 1
612 456 1
612 461 1
612 466 1
612 467 1
612 473 1
612 485 1
612 486 1
612 495 1
612 507 1
612 509 1
612 511 1
612 517 1
612 518 1
612 521 1
612 524 1
612 536 1
612 555 1
612 556 1
612 560 1
612 562 1
612 565 1
612 582 1
612 583 1
612 595 1
612 600 1
612 601 1
612 602 1
612 604 1
612 606 1
612 615 1
612 619 1
612 629 1
612 644 1
612 646 1
612 649 1
612 653 1
612 656 1
612 657 1
612 659 1
612 661 1
612 665 1
612 666 1
612 669 1
612 671 1
612 688 1
612 689 1
612 695 1
613 5 1
613 17 1
613 18 1
613 22 1
613 23 1
613 26 1
613 32 1
613 41 1
613 46 1
613 49 1
613 52 1
613 56 1
613 64 1
613 66 1
613 74 1
613 75 1
613 83 1
613 87 1
613 90 1
613 94 1
613 98 1
613 101 1
613 108 1
613 112 1
613 116 1
613 120 1
613 123 1
613 129 1
613 131 1
613 135 1
613 136 1
613 137 1
613 140 1
613 144 1
613 149 1
613 150 1
613 156 1
613 164 1
613 167 1
613 173 1
613 178 1
613 179 1
613 183 1
613 185 1
613 187 1
613 195 1
613 211 1
613 212 1
613 222 1
613 226 1
613 232 1
613 236 1
613 244 1
613 245 1
613 248 1
613 249 1
613 250 1
613 252 1
613 255 1
613 263 1
613 265 1
613 266 1
613 268 1
613 275 1
613 284 1
613 289 1
613 292 1
613 294 1
613 295 1
613 321 1
613 329 1
613 332 1
613 333 1
613 339 1
613 340 1
613 341 1
613 343 1
613 349 1
613 360 1
613 367 1
613 368 1
613 373 1
613 375 1
613 385 1
613 387 1
613 389 1
613 390 1
613 392 1
613 397 1
613 401 1
613 415 1
613 417 1
613 419 1
613 425 1
613 445 1
613 447 1
613 448 1
613 456 1
613 470 1
613 472 1
613 483 1
613 484 1
613 494 1
613 498 1
613 502 1
613 503 1
613 506 1
613 507 1
613 509 1
613 510 1
613 514 1
613 517 1
613 518 1
613 525 1
613 528 1
613 541 1
613 542 1
613 555 1
613 557 1
613 558 1
613 567 1
613 569 1
613 578 1
613 579 1
613 582 1
613 584 1
613 586 1
613 587 1
613 588 1
613 591 1
613 597 1
613 603 1
613 605 1
613 617 1
613 622 1
613 631 1
613 637 1
613 647 1
613 656 1
613 669 1
613 672 1
613 689 1
613 691 1
613 694 1
613 695 1
614 3 1
614 4 1
614 18 1
614 21 1
614 25 1
614 37 1
614 45 1
614 46 1
614 49 1
614 50 1
614 67 1
614 69 1
614 70 1
614 71 1
614 83 1
614 85 1
614 89 1
614 92 1
614 113 1
614 115 1
614 121 1
614 129 1
614 132 1
614 133 1
614 145 1
614 146 1
614 158 1
614 164 1
614 165 1
614 169 1
614 174 1
614 179 1
614 180 1
614 181 1
614 190 1
614 191 1
614 196 1
614 202 1
614 204 1
614 206 1
614 214 1
614 228 1
614 244 1
614 252 1
614 256 1
614 258 1
614 260 1
614 261 1
614 265 1
614 280 1
614 282 1
614 283 1
614 289 1
614 294 1
614 313 1
614 314 1
614 318 1
614 320 1
614 323 1
614 326 1
614 328 1
614 330 1
614 335 1
614 348 1
614 356 1
614 363 1
614 367 1
614 369 1
614 373 1
614 387 1
614 391 1
614 395 1
614 405 1
614 411 1
614 419 1
614 425 1
614 427 1
614 430 1
614 436 1
614 437 1
614 438 1
614 446 1
614 456 1
614 457 1
614 463 1
614 469 1
614 470 1
614 472 1
614 476 1
614 479 1
614 488 1
614 491 1
614 492 1
614 510 1
614 513 1
614 515 1
614 519 1
614 522 1
614 525 1
614 528 1
614 531 1
614 535 1
614 544 1
614 546 1
614 547 1
614 548 1
614 552 1
614 559 1
614 564 1
614 569 1
614 573 1
614 577 1
614 584 1
614 586 1
614 588 1
614 591 1
614 592 1
614 596 1
614 598 1
614 600 1
614 603 1
614 617 1
614 618 1
614 623 1
614 630 1
614 631 1
614 634 1
614 641 1
614 642 1
614 644 1
614 647 1
614 656 1
614 657 1
614 668 1
614 670 1
614 671 1
614 678 1
614 680 1
614 689 1
614 695 1
614 697 1
614 698 1
615 12 1
615 20 1
615 29 1
615 32 1
615 34 1
615 39 1
615 46 1
615 51 1
615 53 1
615 57 1
615 60 1
615 63 1
615 67 1
615 74 1
615 77 1
615 80 1
615 81 1
615 86 1
615 87 1
615 96 1
615 98 1
615 103 1
615 104 1
615 117 1
615 121 1
615 124 1
615 131 1
615 132 1
615 140 1
615 145 1
615 149 1
615 156 1
615 161 1
615 162 1
615 165 1
615 169 1
615 172 1
615 173 1
615 177 1
615 181 1
615 212 1
615 213 1
615 216 1
615 217 1
615 218 1
615 226 1
615 230 1
615 232 1
615 233 1
615 236 1
615 239 1
615 240 1
615 245 1
615 247 1
615 251 1
615 256 1
615 261 1
615 263 1
615 264 1
615 265 1
615 271 1
615 274 1
615 276 1
615 283 1
615 285 1
615 286 1
615 290 1
615 301 1
615 302 1
615 306 1
615 308 1
615 311 1
615 312 1
615 315 1
615 316 1
615 319 1
615 322 1
615 332 1
615 338 1
615 342 1
615 345 1
615 356 1
615 364 1
615 365 1
615 371 1
615 377 1
615 378 1
615 380 1
615 381 1
615 386 1
615 391 1
615 403 1
615 404 1
615 405 1
615 411 1
615 415 1
615 416 1
615 433 1
615 435 1
615 441 1
615 445 1
615 450 1
615 459 1
615 461 1
615 462 1
615 466 1
615 469 1
615 470 1
615 476 1
615 477 1
615 478 1
615 481 1
615 483 1
615 487 1
615 490 1
615 494 1
615 503 1
615 504 1
615 512 1
615 517 1
615 519 1
615 524 1
615 533 1
615 536 1
615 543 1
615 545 1
615 548 1
615 553 1
615 556 1
615 562 1
615 571 1
615 577 1
615 586 1
615 587 1
615 591 1
615 598 1
615 601 1
615 602 1
615 612 1
615 617 1
615 621 1
615 624 1
615 625 1
615 632 1
615 634 1
615 637 1
615 638 1
615 646 1
615 661 1
615 665 1
615 666 1
615 672 1
615 674 1
615 688 1
615 693 1
616 2 1
616 17 1
616 18 1
616 19 1
616 20 1
616 32 1
616 37 1
616 39 1
616 40 1
616 44 1
616 47 1
616 48 1
616 53 1
616 57 1
616 59 1
616 70 1
616 75 1
616 76 1
616 83 1
616 87 1
616 88 1
616 91 1
616 94 1
616 95 1
616 98 1
616 100 1
616 101 1
616 104 1
616 108 1
616 111 1
616 132 1
616 134 1
616 137 1
616 138 1
616 144 1
616 149 1
616 150 1
616 159 1
616 176 1
616 178 1
616 179 1
616 190 1
616 191 1
616 203 1
616 205 1
616 210 1
616 215 1
616 216 1
616 218 1
616 222 1
616 231 1
616 236 1
616 238 1
616 247 1
616 253 1
616 259 1
616 263 1
616 271 1
616 273 1
616 275 1
616 277 1
616 281 1
616 285 1
616 303 1
616 304 1
616 307 1
616 318 1
616 325 1
616 326 1
616 327 1
616 328 1
616 329 1
616 334 1
616 339 1
616 341 1
616 343 1
616 346 1
616 348 1
616 350 1
616 352 1
616 354 1
616 361 1
616 363 1
616 368 1
616 374 1
616 381 1
616 387 1
616 391 1
616 394 1
616 403 1
616 405 1
616 414 1
616 423 1
616 425 1
616 427 1
616 430 1
616 442 1
616 445 1
616 452 1
616 456 1
616 460 1
616 466 1
616 469 1
616 471 1
616 478 1
616 490 1
616 494 1
616 499 1
616 502 1
616 512 1
616 514 1
616 526 1
616 529 1
616 530 1
616 532 1
616 533 1
616 544 1
616 559 1
616 562 1
616 571 1
616 574 1
616 577 1
616 584 1
616 585 1
616 590 1
616 606 1
616 611 1
616 622 1
616 627 1
616 628 1
616 640 1
616 644 1
616 647 1
616 650 1
616 654 1
616 656 1
616 661 1
616 662 1
616 663 1
616 676 1
616 678 1
616 679 1
616 683 1
616 684 1
616 690 1
616 693 1
616 697 1
617 7 1
617 10 1
617 16 1
617 19 1
617 36 1
617 38 1
617 42 1
617 44 1
617 46 1
617 49 1
617 52 1
617 57 1
617 69 1
617 73 1
617 75 1
617 78 1
617 85 1
617 88 1
617 90 1
617 91 1
617 92 1
617 94 1
617 95 1
617 97 1
617 107 1
617 108 1
617 112 1
617 119 1
617 124 1
617 136 1
617 147 1
617 152 1
617 165 1
617 166 1
617 185 1
617 186 1
617 187 1
617 193 1
617 197 1
617 198 1
617 214 1
617 228 1
617 236 1
617 240 1
617 241 1
617 249 1
617 256 1
617 263 1
617 266 1
617 268 1
617 280 1
617 281 1
617 290 1
617 291 1
617 296 1
617 298 1
617 300 1
617 301 1
617 304 1
617 305 1
617 307 1
617 309 1
617 317 1
617 322 1
617 327 1
617 329 1
617 332 1
617 333 1
617 344 1
617 346 1
617 347 1
617 351 1
617 355 1
617 356 1
617 360 1
617 367 1
617 369 1
617 375 1
617 380 1
617 384 1
617 392 1
617 395 1
617 402 1
617 420 1
617 421 1
617 427 1
617 444 1
617 447 1
617 453 1
617 456 1
617 457 1
617 473 1
617 475 1
617 479 1
617 480 1
617 483 1
617 487 1
617 496 1
617 505 1
617 507 1
617 520 1
617 526 1
617 527 1
617 533 1
617 543 1
617 553 1
617 561 1
617 564 1
617 571 1
617 573 1
617 576 1
617 584 1
617 589 1
617 590 1
617 597 1
617 613 1
617 614 1
617 615 1
617 619 1
617 622 1
617 628 1
617 633 1
617 634 1
617 635 1
617 643 1
617 660 1
617 665 1
617 671 1
617 677 1
617 685 1
617 693 1
617 697 1
617 700 1
618 2 1
618 3 1
618 5 1
618 17 1
618 18 1
618 22 1
618 24 1
618 32 1
618 36 1
618 47 1
618 49 1
618 54 1
618 56 1
618 64 1
618 66 1
618 77 1
618 78 1
618 81 1
618 83 1
618 86 1
618 98 1
618 99 1
618 102 1
618 105 1
618 106 1
618 117 1
618 119 1
618 121 1
618 124 1
618 126 1
618 130 1
618 131 1
618 135 1
618 136 1
618 139 1
618 150 1
618 157 1
618 159 1
618 160 1
618 161 1
618 168 1
618 171 1
618 176 1
618 184 1
618 207 1
618 208 1
618 209 1
618 216 1
618 222 1
618 226 1
618 227 1
618 230 1
618 234 1
618 236 1
618 239 1
618 240 1
618 242 1
618 248 1
618 249 1
618 258 1
618 270 1
618 274 1
618 276 1
618 279 1
618 280 1
618 281 1
618 284 1
618 291 1
618 295 1
618 304 1
618 310 1
618 315 1
618 323 1
618 324 1
618 337 1
618 345 1
618 350 1
618 351 1
618 364 1
618 370 1
618 375 1
618 389 1
618 398 1
618 403 1
618 404 1
618 406 1
618 407 1
618 419 1
618 441 1
618 447 1
618 473 1
618 475 1
618 479 1
618 482 1
618 483 1
618 489 1
618 497 1
618 498 1
618 500 1
618 507 1
618 512 1
618 515 1
618 516 1
618 533 1
618 537 1
618 538 1
618 546 1
618 552 1
618 568 1
618 569 1
618 570 1
618 572 1
618 578 1
618 583 1
618 586 1
618 587 1
618 589 1
618 594 1
618 601 1
618 609 1
618 611 1
618 614 1
618 622 1
618 625 1
618 629 1
618 636 1
618 641 1
618 651 1
618 660 1
618 661 1
618 662 1
618 665 1
618 666 1
618 667 1
618 668 1
618 678 1
618 680 1
618 681 1
618 690 1
618 691 1
618 692 1
618 693 1
619 5 1
619 14 1
619 17 1
619 28 1
619 35 1
619 40 1
619 45 1
619 50 1
619 52 1
619 58 1
619 67 1
619 75 1
619 79 1
619 80 1
619 84 1
619 96 1
619 102 1
619 115 1
619 117 1
619 126 1
619 129 1
619 143 1
619 144 1
619 157 1
619 159 1
619 175 1
619 176 1
619 179 1
619 186 1
619 190 1
619 197 1
619 203 1
619 205 1
619 211 1
619 214 1
619 215 1
619 216 1
619 219 1
619 221 1
619 226 1
619 231 1
619 233 1
619 243 1
619 246 1
619 254 1
619 257 1
619 264 1
619 276 1
619 283 1
619 285 1
619 286 1
619 290 1
619 295 1
619 296 1
619 312 1
619 313 1
619 316 1
619 317 1
619 330 1
619 331 1
619 338 1
619 339 1
619 344 1
619 345 1
619 347 1
619 355 1
619 363 1
619 367 1
619 374 1
619 378 1
619 380 1
619 382 1
619 390 1
619 398 1
619 402 1
619 413 1
619 414 1
619 419 1
619 423 1
619 425 1
619 427 1
619 428 1
619 435 1
619 449 1
619 456 1
619 462 1
619 471 1
619 477 1
619 478 1
619 480 1
619 491 1
619 495 1
619 497 1
619 500 1
619 508 1
619 509 1
619 520 1
619 521 1
619 527 1
619 532 1
619 533 1
619 534 1
619 535 1
619 536 1
619 537 1
619 540 1
619 551 1
619 558 1
619 561 1
619 562 1
619 569 1
619 571 1
619 572 1
619 573 1
619 577 1
619 612 1
619 617 1
619 626 1
619 627 1
619 630 1
619 632 1
619 633 1
619 645 1
619 648 1
619 653 1
619 654 1
619 661 1
619 662 1
619 665 1
619 666 1
619 668 1
619 676 1
619 680 1
619 683 1
619 685 1
619 689 1
619 695 1
619 697 1
619 699 1
620 3 1
620 6 1
620 15 1
620 19 1
620 20 1
620 29 1
620 30 1
620 35 1
620 46 1
620 47 1
620 53 1
620 54 1
620 65 1
620 70 1
620 71 1
620 75 1
620 78 1
620 80 1
620 86 1
620 88 1
620 91 1
620 92 1
620 93 1
620 97 1
620 102 1
620 105 1
620 113 1
620 120 1
620 121 1
620 127 1
620 133 1
620 136 1
620 138 1
620 139 1
620 149 1
620 159 1
620 173 1
620 178 1
620 185 1
620 194 1
620 203 1
620 212 1
620 214 1
620 224 1
620 227 1
620 240 1
620 242 1
620 252 1
620 258 1
620 271 1
620 274 1
620 276 1
620 286 1
620 293 1
620 299 1
620 300 1
620 309 1
620 316 1
620 318 1
620 358 1
620 370 1
620 379 1
620 382 1
620 383 1
620 394 1
620 400 1
620 403 1
620 406 1
620 407 1
620 410 1
620 435 1
620 452 1
620 458 1
620 464 1
620 465 1
620 469 1
620 470 1
620 471 1
620 476 1
620 478 1
620 480 1
620 484 1
620 486 1
620 494 1
620 499 1
620 500 1
620 502 1
620 507 1
620 518 1
620 520 1
620 524 1
620 531 1
620 532 1
620 536 1
620 540 1
620 541 1
620 542 1
620 545 1
620 552 1
620 558 1
620 561 1
620 567 1
620 579 1
620 582 1
620 583 1
620 597 1
620 600 1
620 602 1
620 607 1
620 610 1
620 621 1
620 623 1
620 625 1
620 632 1
620 636 1
620 642 1
620 653 1
620 654 1
620 655 1
620 656 1
620 657 1
620 666 1
620 668 1
620 669 1
620 675 1
620 677 1
620 679 1
620 681 1
620 685 1
620 686 1
620 695 1
621 5 1
621 13 1
621 17 1
621 23 1
621 27 1
621 31 1
621 32 1
621 35 1
621 37 1
621 55 1
621 62 1
621 66 1
621 68 1
621 71 1
621 83 1
621 85 1
621 87 1
621 96 1
621 98 1
621 101 1
621 111 1
621 122 1
621 132 1
621 135 1
621 150 1
621 152 1
621 159 1
621 163 1
621 164 1
621 171 1
621 176 1
621 178 1
621 181 1
621 192 1
621 195 1
621 197 1
621 198 1
621 205 1
621 214 1
621 217 1
621 225 1
621 238 1
621 241 1
621 253 1
621 262 1
621 268 1
621 269 1
621 280 1
621 285 1
621 286 1
621 287 1
621 290 1
621 295 1
621 307 1
621 310 1
621 312 1
621 313 1
621 316 1
621 320 1
621 326 1
621 327 1
621 330 1
621 333 1
621 337 1
621 340 1
621 346 1
621 347 1
621 348 1
621 353 1
621 358 1
621 363 1
621 365 1
621 370 1
621 371 1
621 375 1
621 382 1
621 385 1
621 393 1
621 400 1
621 403 1
621 407 1
621 409 1
621 414 1
621 424 1
621 432 1
621 440 1
621 442 1
621 445 1
621 449 1
621 454 1
621 460 1
621 469 1
621 483 1
621 492 1
621 503 1
621 507 1
621 513 1
621 529 1
621 539 1
621 567 1
621 569 1
621 571 1
621 575 1
621 581 1
621 595 1
621 599 1
621 601 1
621 605 1
621 615 1
621 620 1
621 627 1
621 632 1
621 644 1
621 649 1
621 655 1
621 656 1
621 664 1
621 667 1
621 685 1
621 692 1
621 700 1
622 4 1
622 6 1
622 10 1
622 22 1
622 27 1
622 32 1
622 35 1
622 39 1
622 44 1
622 47 1
622 51 1
622 56 1
622 58 1
622 60 1
622 64 1
622 71 1
622 72 1
622 75 1
622 79 1
622 80 1
622 87 1
622 90 1
622 94 1
622 95 1
622 100 1
622 104 1
622 118 1
622 121 1
622 125 1
622 126 1
622 128 1
622 138 1
622 140 1
622 141 1
622 143 1
622 146 1
622 151 1
622 152 1
622 153 1
622 157 1
622 164 1
622 165 1
622 166 1
622 171 1
622 173 1
622 175 1
622 176 1
622 181 1
622 193 1
622 203 1
622 205 1
622 207 1
622 209 1
622 211 1
622 212 1
622 219 1
622 222 1
622 225 1
622 226 1
622 231 1
622 234 1
622 236 1
622 241 1
622 243 1
622 250 1
622 253 1
622 254 1
622 260 1
622 269 1
622 272 1
622 276 1
622 280 1
622 300 1
622 302 1
622 304 1
622 306 1
622 307 1
622 316 1
622 319 1
622 326 1
622 327 1
622 330 1
622 336 1
622 344 1
622 353 1
622 356 1
622 364 1
622 368 1
622 371 1
622 378 1
622 379 1
622 385 1
622 388 1
622 398 1
622 417 1
622 420 1
622 421 1
622 423 1
622 424 1
622 433 1
622 444 1
622 445 1
622 452 1
622 453 1
622 455 1
622 456 1
622 463 1
622 466 1
622 468 1
622 478 1
622 484 1
622 485 1
622 488 1
622 491 1
622 494 1
622 496 1
622 498 1
622 507 1
622 522 1
622 523 1
622 525 1
622 543 1
622 547 1
622 549 1
622 551 1
622 555 1
622 556 1
622 562 1
622 563 1
622 575 1
622 579 1
622 585 1
622 588 1
622 589 1
622 590 1
622 593 1
622 597 1
622 600 1
622 606 1
622 608 1
622 613 1
622 616 1
622 617 1
622 618 1
622 624 1
622 630 1
622 636 1
622 637 1
622 640 1
622 647 1
622 649 1
622 652 1
622 659 1
622 666 1
622 667 1
622 672 1
622 678 1
622 680 1
622 681 1
622 689 1
623 5 1
623 11 1
623 14 1
623 22 1
623 28 1
623 37 1
623 41 1
623 42 1
623 53 1
623 57 1
623 58 1
623 60 1
623 61 1
623 65 1
623 69 1
623 73 1
623 75 1
623 79 1
623 92 1
623 97 1
623 100 1
623 109 1
623 127 1
623 133 1
623 137 1
623 143 1
623 149 1
623 161 1
623 162 1
623 163 1
623 174 1
623 177 1
623 182 1
623 193 1
623 203 1
623 208 1
623 212 1
623 215 1
623 217 1
623 218 1
623 229 1
623 230 1
623 232 1
623 234 1
623 236 1
623 239 1
623 240 1
623 241 1
623 243 1
623 244 1
623 247 1
623 250 1
623 252 1
623 253 1
623 257 1
623 268 1
623 273 1
623 277 1
623 280 1
623 282 1
623 286 1
623 291 1
623 304 1
623 306 1
623 307 1
623 310 1
623 318 1
623 324 1
623 325 1
623 334 1
623 337 1
623 340 1
623 344 1
623 347 1
623 353 1
623 358 1
623 361 1
623 363 1
623 370 1
623 371 1
623 374 1
623 379 1
623 381 1
623 386 1
623 387 1
623 388 1
623 393 1
623 399 1
623 400 1
623 413 1
623 417 1
623 431 1
623 439 1
623 442 1
623 443 1
623 461 1
623 466 1
623 473 1
623 479 1
623 488 1
623 495 1
623 498 1
623 502 1
623 506 1
623 526 1
623 529 1
623 533 1
623 547 1
623 550 1
623 577 1
623 582 1
623 583 1
623 584 1
623 589 1
623 614 1
623 620 1
623 637 1
623 642 1
623 648 1
623 649 1
623 654 1
623 657 1
623 661 1
623 666 1
623 670 1
623 673 1
623 678 1
623 684 1
623 699 1
623 700 1
624 11 1
624 18 1
624 22 1
624 29 1
624 31 1
624 36 1
624 37 1
624 41 1
624 49 1
624 53 1
624 55 1
624 56 1
624 59 1
624 65 1
624 69 1
624 78 1
624 80 1
624 83 1
624 91 1
624 93 1
624 98 1
624 101 1
624 104 1
624 106 1
624 123 1
624 125 1
624 142 1
624 155 1
624 162 1
624 178 1
624 181 1
624 184 1
624 192 1
624 197 1
624 199 1
624 203 1
624 204 1
624 207 1
624 217 1
624 219 1
624 234 1
624 237 1
624 239 1
624 244 1
624 261 1
624 263 1
624 264 1
624 266 1
624 271 1
624 279 1
624 286 1
624 288 1
624 292 1
624 295 1
624 299 1
624 302 1
624 304 1
624 305 1
624 310 1
624 314 1
624 317 1
624 327 1
624 332 1
624 334 1
624 336 1
624 338 1
624 356 1
624 357 1
624 361 1
624 367 1
624 369 1
624 372 1
624 373 1
624 380 1
624 383 1
624 387 1
624 393 1
624 394 1
624 399 1
624 402 1
624 404 1
624 406 1
624 415 1
624 419 1
624 425 1
624 432 1
624 436 1
624 452 1
624 469 1
624 476 1
624 479 1
624 494 1
624 495 1
624 506 1
624 510 1
624 514 1
624 518 1
624 524 1
624 528 1
624 533 1
624 537 1
624 542 1
624 550 1
624 554 1
624 559 1
624 565 1
624 567 1
624 568 1
624 570 1
624 571 1
624 573 1
624 575 1
624 579 1
624 582 1
624 583 1
624 585 1
624 587 1
624 593 1
624 594 1
624 611 1
624 615 1
624 622 1
624 633 1
624 634 1
624 635 1
624 645 1
624 648 1
624 652 1
624 653 1
624 654 1
624 663 1
624 667 1
624 670 1
624 671 1
624 677 1
624 685 1
624 688 1
624 697 1
625 3 1
625 6 1
625 7 1
625 11 1
625 15 1
625 25 1
625 30 1
625 33 1
625 35 1
625 36 1
625 44 1
625 46 1
625 55 1
625 62 1
625 63 1
625 68 1
625 70 1
625 72 1
625 74 1
625 78 1
625 80 1
625 82 1
625 92 1
625 104 1
625 107 1
625 122 1
625 129 1
625 131 1
625 138 1
625 141 1
625 142 1
625 163 1
625 176 1
625 177 1
625 180 1
625 183 1
625 196 1
625 202 1
625 204 1
625 206 1
625 207 1
625 209 1
625 216 1
625 221 1
625 222 1
625 226 1
625 228 1
625 231 1
625 237 1
625 243 1
625 245 1
625 248 1
625 252 1
625 254 1
625 255 1
625 257 1
625 259 1
625 263 1
625 280 1
625 283 1
625 293 1
625 295 1
625 301 1
625 314 1
625 327 1
625 334 1
625 335 1
625 343 1
625 344 1
625 346 1
625 354 1
625 357 1
625 364 1
625 367 1
625 373 1
625 377 1
625 392 1
625 396 1
625 403 1
625 410 1
625 411 1
625 430 1
625 432 1
625 439 1
625 441 1
625 452 1
625 454 1
625 467 1
625 471 1
625 472 1
625 494 1
625 502 1
625 504 1
625 509 1
625 514 1
625 519 1
625 523 1
625 527 1
625 537 1
625 538 1
625 551 1
625 555 1
625 568 1
625 576 1
625 580 1
625 581 1
625 592 1
625 593 1
625 597 1
625 599 1
625 602 1
625 607 1
625 615 1
625 618 1
625 620 1
625 627 1
625 632 1
625 633 1
625 638 1
625 640 1
625 643 1
625 656 1
625 658 1
625 659 1
625 662 1
625 665 1
625 666 1
625 667 1
625 670 1
625 673 1
625 675 1
625 676 1
625 686 1
625 688 1
625 690 1
625 691 1
625 693 1
625 698 1
626 5 1
626 6 1
626 16 1
626 24 1
626 25 1
626 27 1
626 28 1
626 29 1
626 30 1
626 35 1
626 36 1
626 38 1
626 41 1
626 43 1
626 46 1
626 50 1
626 51 1
626 54 1
626 59 1
626 66 1
626 73 1
626 90 1
626 93 1
626 94 1
626 96 1
626 109 1
626 113 1
626 122 1
626 124 1
626 127 1
626 130 1
626 131 1
626 143 1
626 147 1
626 155 1
626 159 1
626 163 1
626 168 1
626 170 1
626 173 1
626 176 1
626 187 1
626 188 1
626 195 1
626 198 1
626 201 1
626 202 1
626 203 1
626 204 1
626 209 1
626 210 1
626 213 1
626 219 1
626 220 1
626 235 1
626 236 1
626 239 1
626 241 1
626 275 1
626 279 1
626 282 1
626 284 1
626 287 1
626 292 1
626 294 1
626 300 1
626 309 1
626 313 1
626 318 1
626 319 1
626 323 1
626 326 1
626 327 1
626 338 1
626 345 1
626 353 1
626 355 1
626 360 1
626 368 1
626 376 1
626 377 1
626 379 1
626 382 1
626 383 1
626 409 1
626 410 1
626 411 1
626 417 1
626 427 1
626 432 1
626 433 1
626 434 1
626 441 1
626 453 1
626 463 1
626 468 1
626 472 1
626 478 1
626 485 1
626 496 1
626 499 1
626 504 1
626 506 1
626 508 1
626 509 1
626 512 1
626 521 1
626 526 1
626 531 1
626 532 1
626 536 1
626 553 1
626 568 1
626 570 1
626 581 1
626 588 1
626 597 1
626 599 1
626 602 1
626 605 1
626 607 1
626 609 1
626 619 1
626 635 1
626 641 1
626 643 1
626 646 1
626 650 1
626 652 1
626 668 1
626 670 1
626 671 1
626 675 1
626 681 1
626 683 1
626 692 1
626 697 1
626 700 1
627 7 1
627 11 1
627 12 1
627 14 1
627 20 1
627 26 1
627 28 1
627 29 1
627 31 1
627 36 1
627 40 1
627 42 1
627 43 1
627 44 1
627 63 1
627 69 1
627 70 1
627 79 1
627 82 1
627 83 1
627 87 1
627 98 1
627 99 1
627 100 1
627 109 1
627 110 1
627 112 1
627 117 1
627 121 1
627 130 1
627 131 1
627 133 1
627 139 1
627 140 1
627 143 1
627 149 1
627 150 1
627 155 1
627 163 1
627 164 1
627 165 1
627 178 1
627 185 1
627 195 1
627 200 1
627 204 1
627 206 1
627 207 1
627 211 1
627 214 1
627 218 1
627 221 1
627 223 1
627 224 1
627 239 1
627 241 1
627 242 1
627 245 1
627 247 1
627 248 1
627 249 1
627 255 1
627 260 1
627 264 1
627 268 1
627 269 1
627 276 1
627 284 1
627 295 1
627 298 1
627 302 1
627 305 1
627 313 1
627 314 1
627 316 1
627 321 1
627 328 1
627 330 1
627 331 1
627 340 1
627 346 1
627 363 1
627 373 1
627 379 1
627 381 1
627 386 1
627 389 1
627 391 1
627 394 1
627 395 1
627 402 1
627 405 1
627 412 1
627 422 1
627 423 1
627 424 1
627 428 1
627 450 1
627 451 1
627 456 1
627 458 1
627 461 1
627 463 1
627 464 1
627 465 1
627 468 1
627 478 1
627 483 1
627 484 1
627 493 1
627 500 1
627 507 1
627 512 1
627 518 1
627 523 1
627 528 1
627 535 1
627 539 1
627 548 1
627 554 1
627 555 1
627 558 1
627 562 1
627 594 1
627 602 1
627 616 1
627 619 1
627 621 1
627 625 1
627 632 1
627 634 1
627 637 1
627 641 1
627 648 1
627 650 1
627 658 1
627 660 1
627 667 1
627 668 1
627 671 1
627 678 1
627 686 1
627 691 1
627 694 1
627 696 1
628 4 1
628 8 1
628 9 1
628 16 1
628 19 1
628 22 1
628 23 1
628 41 1
628 55 1
628 62 1
628 72 1
628 76 1
628 79 1
628 83 1
628 96 1
628 104 1
628 112 1
628 118 1
628 120 1
628 121 1
628 123 1
628 127 1
628 135 1
628 149 1
628 153 1
628 157 1
628 160 1
628 167 1
628 168 1
628 169 1
628 178 1
628 183 1
628 185 1
628 190 1
628 192 1
628 193 1
628 195 1
628 197 1
628 199 1
628 204 1
628 206 1
628 225 1
628 227 1
628 230 1
628 234 1
628 235 1
628 237 1
628 241 1
628 245 1
628 252 1
628 254 1
628 257 1
628 258 1
628 264 1
628 265 1
628 271 1
628 274 1
628 285 1
628 291 1
628 298 1
628 308 1
628 314 1
628 318 1
628 321 1
628 325 1
628 328 1
628 333 1
628 337 1
628 352 1
628 354 1
628 355 1
628 362 1
628 367 1
628 368 1
628 369 1
628 380 1
628 383 1
628 385 1
628 386 1
628 389 1
628 396 1
628 399 1
628 400 1
628 409 1
628 413 1
628 416 1
628 417 1
628 428 1
628 436 1
628 439 1
628 442 1
628 445 1
628 449 1
628 457 1
628 458 1
628 461 1
628 465 1
628 470 1
628 473 1
628 483 1
628 485 1
628 489 1
628 492 1
628 494 1
628 500 1
628 506 1
628 508 1
628 509 1
628 517 1
628 520 1
628 528 1
628 539 1
628 544 1
628 546 1
628 549 1
628 550 1
628 553 1
628 555 1
628 556 1
628 562 1
628 570 1
628 571 1
628 572 1
628 577 1
628 584 1
628 587 1
628 597 1
628 605 1
628 616 1
628 617 1
628 634 1
628 640 1
628 643 1
628 644 1
628 646 1
628 658 1
628 661 1
628 669 1
628 672 1
628 677 1
628 678 1
628 679 1
628 683 1
628 689 1
628 691 1
628 696 1
628 698 1
629 4 1
629 13 1
629 18 1
629 21 1
629 22 1
629 26 1
629 27 1
629 33 1
629 34 1
629 42 1
629 52 1
629 54 1
629 64 1
629 65 1
629 67 1
629 69 1
629 81 1
629 84 1
629 101 1
629 108 1
629 114 1
629 116 1
629 120 1
629 134 1
629 139 1
629 142 1
629 143 1
629 146 1
629 148 1
629 149 1
629 157 1
629 161 1
629 163 1
629 164 1
629 170 1
629 174 1
629 176 1
629 177 1
629 182 1
629 186 1
629 187 1
629 202 1
629 223 1
629 228 1
629 229 1
629 232 1
629 233 1
629 235 1
629 243 1
629 244 1
629 246 1
629 252 1
629 254 1
629 259 1
629 264 1
629 275 1
629 276 1
629 280 1
629 282 1
629 295 1
629 301 1
629 302 1
629 306 1
629 310 1
629 311 1
629 325 1
629 333 1
629 340 1
629 341 1
629 350 1
629 356 1
629 362 1
629 363 1
629 364 1
629 365 1
629 368 1
629 374 1
629 376 1
629 389 1
629 391 1
629 401 1
629 402 1
629 406 1
629 412 1
629 414 1
629 415 1
629 420 1
629 421 1
629 428 1
629 431 1
629 445 1
629 447 1
629 451 1
629 467 1
629 473 1
629 475 1
629 485 1
629 487 1
629 490 1
629 493 1
629 496 1
629 503 1
629 504 1
629 514 1
629 523 1
629 529 1
629 536 1
629 539 1
629 543 1
629 546 1
629 551 1
629 553 1
629 555 1
629 558 1
629 568 1
629 570 1
629 571 1
629 577 1
629 584 1
629 593 1
629 612 1
629 618 1
629 630 1
629 631 1
629 632 1
629 642 1
629 644 1
629 645 1
629 646 1
629 667 1
629 668 1
629 671 1
629 677 1
629 681 1
630 1 1
630 7 1
630 22 1
630 26 1
630 31 1
630 34 1
630 39 1
630 45 1
630 50 1
630 51 1
630 54 1
630 62 1
630 70 1
630 74 1
630 77 1
630 83 1
630 87 1
630 101 1
630 109 1
630 110 1
630 119 1
630 124 1
630 127 1
630 130 1
630 132 1
630 138 1
630 145 1
630 148 1
630 167 1
630 168 1
630 169 1
630 172 1
630 174 1
630 182 1
630 193 1
630 197 1
630 201 1
630 210 1
630 216 1
630 219 1
630 222 1
630 228 1
630 229 1
630 230 1
630 235 1
630 241 1
630 244 1
630 247 1
630 251 1
630 255 1
630 265 1
630 266 1
630 270 1
630 278 1
630 283 1
630 289 1
630 291 1
630 294 1
630 309 1
630 311 1
630 318 1
630 321 1
630 336 1
630 337 1
630 338 1
630 348 1
630 353 1
630 362 1
630 366 1
630 372 1
630 373 1
630 375 1
630 377 1
630 378 1
630 389 1
630 390 1
630 395 1
630 399 1
630 424 1
630 435 1
630 439 1
630 465 1
630 467 1
630 468 1
630 481 1
630 488 1
630 489 1
630 492 1
630 495 1
630 501 1
630 503 1
630 508 1
630 509 1
630 512 1
630 513 1
630 516 1
630 530 1
630 532 1
630 546 1
630 553 1
630 554 1
630 556 1
630 559 1
630 560 1
630 561 1
630 568 1
630 570 1
630 571 1
630 575 1
630 583 1
630 587 1
630 592 1
630 593 1
630 595 1
630 601 1
630 606 1
630 607 1
630 610 1
630 614 1
630 619 1
630 622 1
630 629 1
630 631 1
630 637 1
630 641 1
630 656 1
630 671 1
630 683 1
630 687 1
630 695 1
630 696 1
631 3 1
631 5 1
631 11 1
631 12 1
631 16 1
631 20 1
631 35 1
631 36 1
631 46 1
631 48 1
631 51 1
631 52 1
631 53 1
631 57 1
631 59 1
631 73 1
631 74 1
631 79 1
631 83 1
631 86 1
631 87 1
631 90 1
631 91 1
631 97 1
631 111 1
631 113 1
631 115 1
631 116 1
631 123 1
631 127 1
631 129 1
631 135 1
631 142 1
631 144 1
631 154 1
631 157 1
631 160 1
631 163 1
631 164 1
631 173 1
631 176 1
631 177 1
631 181 1
631 194 1
631 199 1
631 205 1
631 212 1
631 232 1
631 233 1
631 236 1
631 237 1
631 241 1
631 249 1
631 254 1
631 256 1
631 259 1
631 262 1
631 265 1
631 267 1
631 274 1
631 288 1
631 303 1
631 307 1
631 311 1
631 317 1
631 321 1
631 322 1
631 329 1
631 331 1
631 333 1
631 334 1
631 336 1
631 340 1
631 341 1
631 344 1
631 357 1
631 361 1
631 364 1
631 366 1
631 388 1
631 389 1
631 392 1
631 394 1
631 395 1
631 403 1
631 410 1
631 413 1
631 419 1
631 422 1
631 426 1
631 427 1
631 440 1
631 441 1
631 444 1
631 448 1
631 460 1
631 469 1
631 476 1
631 477 1
631 479 1
631 481 1
631 483 1
631 496 1
631 501 1
631 502 1
631 507 1
631 508 1
631 511 1
631 512 1
631 521 1
631 522 1
631 524 1
631 530 1
631 534 1
631 535 1
631 536 1
631 541 1
631 545 1
631 558 1
631 560 1
631 571 1
631 573 1
631 577 1
631 582 1
631 587 1
631 597 1
631 601 1
631 613 1
631 614 1
631 629 1
631 630 1
631 633 1
631 635 1
631 636 1
631 640 1
631 641 1
631 642 1
631 645 1
631 658 1
631 662 1
631 663 1
631 664 1
631 671 1
631 674 1
632 19 1
632 21 1
632 25 1
632 32 1
632 33 1
632 39 1
632 42 1
632 43 1
632 53 1
632 56 1
632 59 1
632 61 1
632 63 1
632 64 1
632 74 1
632 76 1
632 79 1
632 93 1
632 97 1
632 102 1
632 103 1
632 113 1
632 114 1
632 119 1
632 121 1
632 124 1
632 128 1
632 140 1
632 144 1
632 149 1
632 150 1
632 155 1
632 165 1
632 166 1
632 168 1
632 173 1
632 176 1
632 178 1
632 179 1
632 198 1
632 210 1
632 212 1
632 223 1
632 228 1
632 232 1
632 247 1
632 249 1
632 253 1
632 257 1
632 261 1
632 263 1
632 268 1
632 269 1
632 270 1
632 273 1
632 294 1
632 310 1
632 311 1
632 313 1
632 323 1
632 337 1
632 339 1
632 340 1
632 342 1
632 349 1
632 351 1
632 355 1
632 358 1
632 362 1
632 363 1
632 373 1
632 375 1
632 377 1
632 380 1
632 381 1
632 384 1
632 394 1
632 408 1
632 409 1
632 411 1
632 416 1
632 420 1
632 421 1
632 429 1
632 434 1
632 435 1
632 444 1
632 448 1
632 449 1
632 455 1
632 462 1
632 468 1
632 482 1
632 494 1
632 497 1
632 504 1
632 525 1
632 535 1
632 536 1
632 543 1
632 546 1
632 547 1
632 548 1
632 551 1
632 557 1
632 558 1
632 569 1
632 572 1
632 576 1
632 583 1
632 586 1
632 588 1
632 593 1
632 595 1
632 597 1
632 598 1
632 605 1
632 606 1
632 608 1
632 615 1
632 619 1
632 620 1
632 621 1
632 625 1
632 627 1
632 629 1
632 633 1
632 636 1
632 640 1
632 642 1
632 652 1
632 655 1
632 656 1
632 661 1
632 663 1
632 664 1
632 669 1
632 672 1
632 679 1
632 682 1
632 693 1
632 696 1
633 7 1
633 8 1
633 13 1
633 18 1
633 20 1
633 21 1
633 26 1
633 27 1
633 33 1
633 37 1
633 41 1
633 48 1
633 51 1
633 55 1
633 57 1
633 64 1
633 72 1
633 79 1
633 82 1
633 85 1
633 86 1
633 87 1
633 94 1
633 97 1
633 99 1
633 115 1
633 122 1
633 134 1
633 138 1
633 151 1
633 160 1
633 163 1
633 164 1
633 171 1
633 176 1
633 178 1
633 182 1
633 188 1
633 189 1
633 192 1
633 194 1
633 199 1
633 216 1
633 222 1
633 225 1
633 231 1
633 235 1
633 236 1
633 237 1
633 239 1
633 240 1
633 245 1
633 253 1
633 259 1
633 262 1
633 276 1
633 281 1
633 284 1
633 285 1
633 289 1
633 302 1
633 305 1
633 316 1
633 322 1
633 323 1
633 327 1
633 332 1
633 335 1
633 337 1
633 340 1
633 343 1
633 356 1
633 357 1
633 359 1
633 365 1
633 368 1
633 371 1
633 392 1
633 403 1
633 405 1
633 407 1
633 415 1
633 416 1
633 425 1
633 431 1
633 432 1
633 437 1
633 440 1
633 444 1
633 448 1
633 456 1
633 460 1
633 464 1
633 467 1
633 471 1
633 474 1
633 480 1
633 484 1
633 486 1
633 489 1
633 491 1
633 494 1
633 501 1
633 507 1
633 511 1
633 512 1
633 517 1
633 519 1
633 526 1
633 534 1
633 539 1
633 542 1
633 544 1
633 557 1
633 558 1
633 560 1
633 566 1
633 576 1
633 581 1
633 582 1
633 584 1
633 597 1
633 599 1
633 611 1
633 617 1
633 619 1
633 624 1
633 625 1
633 631 1
633 632 1
633 635 1
633 637 1
633 643 1
633 659 1
633 660 1
633 665 1
633 666 1
633 672 1
633 673 1
633 675 1
633 677 1
633 684 1
634 3 1
634 13 1
634 21 1
634 26 1
634 29 1
634 32 1
634 38 1
634 41 1
634 45 1
634 48 1
634 69 1
634 76 1
634 79 1
634 80 1
634 82 1
634 101 1
634 105 1
634 107 1
634 108 1
634 109 1
634 117 1
634 121 1
634 133 1
634 134 1
634 136 1
634 142 1
634 145 1
634 153 1
634 154 1
634 155 1
634 158 1
634 160 1
634 165 1
634 167 1
634 171 1
634 173 1
634 179 1
634 180 1
634 183 1
634 196 1
634 201 1
634 215 1
634 220 1
634 221 1
634 225 1
634 227 1
634 235 1
634 237 1
634 243 1
634 247 1
634 248 1
634 259 1
634 260 1
634 261 1
634 266 1
634 276 1
634 297 1
634 304 1
634 312 1
634 313 1
634 316 1
634 319 1
634 321 1
634 323 1
634 324 1
634 326 1
634 359 1
634 365 1
634 368 1
634 373 1
634 374 1
634 377 1
634 378 1
634 382 1
634 389 1
634 399 1
634 400 1
634 406 1
634 411 1
634 412 1
634 422 1
634 434 1
634 439 1
634 447 1
634 455 1
634 461 1
634 466 1
634 467 1
634 468 1
634 469 1
634 470 1
634 473 1
634 485 1
634 488 1
634 494 1
634 496 1
634 497 1
634 498 1
634 499 1
634 514 1
634 519 1
634 521 1
634 525 1
634 526 1
634 527 1
634 530 1
634 539 1
634 548 1
634 549 1
634 553 1
634 558 1
634 569 1
634 572 1
634 576 1
634 590 1
634 592 1
634 593 1
634 595 1
634 600 1
634 605 1
634 614 1
634 615 1
634 617 1
634 624 1
634 627 1
634 628 1
634 637 1
634 638 1
634 640 1
634 644 1
634 647 1
634 657 1
634 659 1
634 667 1
634 669 1
634 672 1
634 679 1
634 687 1
634 691 1
634 696 1
634 698 1
635 10 1
635 13 1
635 21 1
635 33 1
635 36 1
635 38 1
635 39 1
635 40 1
635 41 1
635 43 1
635 47 1
635 49 1
635 58 1
635 69 1
635 74 1
635 76 1
635 99 1
635 103 1
635 104 1
635 105 1
635 116 1
635 121 1
635 124 1
635 125 1
635 131 1
635 142 1
635 149 1
635 153 1
635 155 1
635 163 1
635 165 1
635 167 1
635 188 1
635 191 1
635 192 1
635 193 1
635 200 1
635 209 1
635 214 1
635 219 1
635 223 1
635 227 1
635 237 1
635 238 1
635 239 1
635 249 1
635 251 1
635 256 1
635 261 1
635 271 1
635 278 1
635 303 1
635 310 1
635 313 1
635 319 1
635 322 1
635 330 1
635 333 1
635 340 1
635 346 1
635 357 1
635 359 1
635 362 1
635 363 1
635 365 1
635 366 1
635 367 1
635 369 1
635 378 1
635 383 1
635 387 1
635 388 1
635 391 1
635 402 1
635 409 1
635 410 1
635 421 1
635 423 1
635 428 1
635 431 1
635 432 1
635 444 1
635 445 1
635 450 1
635 453 1
635 457 1
635 461 1
635 464 1
635 467 1
635 468 1
635 484 1
635 487 1
635 491 1
635 496 1
635 498 1
635 503 1
635 505 1
635 508 1
635 511 1
635 527 1
635 535 1
635 536 1
635 549 1
635 557 1
635 560 1
635 561 1
635 580 1
635 584 1
635 588 1
635 590 1
635 591 1
635 595 1
635 601 1
635 602 1
635 610 1
635 617 1
635 624 1
635 626 1
635 631 1
635 633 1
635 638 1
635 639 1
635 644 1
635 645 1
635 647 1
635 652 1
635 655 1
635 661 1
635 664 1
635 666 1
635 668 1
635 670 1
635 672 1
635 680 1
635 683 1
635 691 1
635 699 1
635 700 1
636 3 1
636 10 1
636 21 1
636 24 1
636 25 1
636 40 1
636 41 1
636 45 1
636 46 1
636 49 1
636 51 1
636 57 1
636 60 1
636 64 1
636 65 1
636 67 1
636 74 1
636 75 1
636 80 1
636 81 1
636 88 1
636 90 1
636 95 1
636 96 1
636 100 1
636 102 1
636 103 1
636 106 1
636 107 1
636 121 1
636 130 1
636 145 1
636 146 1
636 149 1
636 157 1
636 172 1
636 179 1
636 180 1
636 182 1
636 190 1
636 194 1
636 196 1
636 197 1
636 208 1
636 212 1
636 224 1
636 235 1
636 236 1
636 238 1
636 239 1
636 244 1
636 248 1
636 253 1
636 255 1
636 269 1
636 283 1
636 284 1
636 286 1
636 288 1
636 291 1
636 296 1
636 300 1
636 303 1
636 322 1
636 332 1
636 335 1
636 337 1
636 344 1
636 345 1
636 368 1
636 373 1
636 379 1
636 391 1
636 396 1
636 400 1
636 411 1
636 421 1
636 422 1
636 424 1
636 430 1
636 435 1
636 452 1
636 468 1
636 480 1
636 481 1
636 486 1
636 499 1
636 510 1
636 513 1
636 517 1
636 518 1
636 540 1
636 541 1
636 556 1
636 559 1
636 575 1
636 578 1
636 579 1
636 587 1
636 592 1
636 595 1
636 597 1
636 598 1
636 599 1
636 600 1
636 601 1
636 602 1
636 607 1
636 618 1
636 620 1
636 622 1
636 631 1
636 632 1
636 638 1
636 639 1
636 647 1
636 655 1
636 657 1
636 681 1
636 686 1
636 693 1
636 699 1
637 2 1
637 9 1
637 12 1
637 14 1
637 34 1
637 35 1
637 36 1
637 38 1
637 57 1
637 64 1
637 68 1
637 69 1
637 74 1
637 75 1
637 79 1
637 84 1
637 95 1
637 97 1
637 99 1
637 101 1
637 109 1
637 118 1
637 128 1
637 134 1
637 139 1
637 141 1
637 143 1
637 144 1
637 146 1
637 153 1
637 161 1
637 166 1
637 171 1
637 174 1
637 176 1
637 180 1
637 183 1
637 185 1
637 187 1
637 189 1
637 190 1
637 192 1
637 201 1
637 208 1
637 211 1
637 212 1
637 213 1
637 219 1
637 222 1
637 227 1
637 234 1
637 240 1
637 245 1
637 253 1
637 258 1
637 259 1
637 276 1
637 286 1
637 287 1
637 291 1
637 303 1
637 306 1
637 317 1
637 320 1
637 321 1
637 325 1
637 332 1
637 333 1
637 337 1
637 339 1
637 340 1
637 346 1
637 351 1
637 354 1
637 356 1
637 358 1
637 362 1
637 363 1
637 369 1
637 372 1
637 374 1
637 376 1
637 377 1
637 379 1
637 388 1
637 395 1
637 396 1
637 409 1
637 411 1
637 415 1
637 420 1
637 422 1
637 423 1
637 433 1
637 438 1
637 442 1
637 443 1
637 447 1
637 449 1
637 450 1
637 452 1
637 460 1
637 472 1
637 477 1
637 480 1
637 487 1
637 492 1
637 497 1
637 498 1
637 504 1
637 513 1
637 514 1
637 517 1
637 520 1
637 523 1
637 529 1
637 538 1
637 544 1
637 550 1
637 553 1
637 560 1
637 565 1
637 568 1
637 575 1
637 579 1
637 581 1
637 587 1
637 588 1
637 591 1
637 592 1
637 597 1
637 602 1
637 607 1
637 613 1
637 615 1
637 622 1
637 623 1
637 627 1
637 630 1
637 633 1
637 634 1
637 640 1
637 641 1
637 646 1
637 657 1
637 661 1
637 691 1
637 693 1
638 2 1
638 3 1
638 7 1
638 12 1
638 14 1
638 23 1
638 32 1
638 35 1
638 37 1
638 38 1
638 40 1
638 43 1
638 54 1
638 56 1
638 57 1
638 59 1
638 65 1
638 66 1
638 69 1
638 70 1
638 74 1
638 75 1
638 76 1
638 81 1
638 85 1
638 87 1
638 94 1
638 98 1
638 109 1
638 113 1
638 128 1
638 143 1
638 144 1
638 145 1
638 152 1
638 154 1
638 155 1
638 159 1
638 162 1
638 166 1
638 182 1
638 183 1
638 184 1
638 186 1
638 187 1
638 198 1
638 205 1
638 214 1
638 215 1
638 216 1
638 223 1
638 224 1
638 228 1
638 234 1
638 238 1
638 245 1
638 248 1
638 274 1
638 275 1
638 283 1
638 285 1
638 286 1
638 287 1
638 305 1
638 306 1
638 307 1
638 309 1
638 312 1
638 323 1
638 325 1
638 339 1
638 346 1
638 351 1
638 356 1
638 362 1
638 370 1
638 376 1
638 390 1
638 398 1
638 400 1
638 405 1
638 408 1
638 414 1
638 420 1
638 422 1
638 431 1
638 432 1
638 448 1
638 453 1
638 456 1
638 470 1
638 478 1
638 482 1
638 486 1
638 489 1
638 494 1
638 496 1
638 501 1
638 505 1
638 508 1
638 512 1
638 514 1
638 522 1
638 525 1
638 533 1
638 540 1
638 547 1
638 550 1
638 555 1
638 561 1
638 565 1
638 569 1
638 573 1
638 574 1
638 583 1
638 589 1
638 592 1
638 597 1
638 606 1
638 615 1
638 625 1
638 634 1
638 635 1
638 636 1
638 645 1
638 669 1
638 670 1
638 671 1
638 674 1
638 675 1
638 678 1
638 687 1
638 694 1
639 5 1
639 8 1
639 10 1
639 21 1
639 41 1
639 46 1
639 47 1
639 54 1
639 62 1
639 67 1
639 69 1
639 71 1
639 78 1
639 81 1
639 82 1
639 91 1
639 96 1
639 98 1
639 103 1
639 104 1
639 105 1
639 109 1
639 126 1
639 138 1
639 141 1
639 142 1
639 143 1
639 150 1
639 157 1
639 162 1
639 172 1
639 177 1
639 178 1
639 180 1
639 187 1
639 188 1
639 190 1
639 191 1
639 196 1
639 198 1
639 199 1
639 203 1
639 212 1
639 218 1
639 227 1
639 231 1
639 234 1
639 236 1
639 242 1
639 243 1
639 244 1
639 261 1
639 262 1
639 272 1
639 275 1
639 277 1
639 279 1
639 285 1
639 298 1
639 299 1
639 301 1
639 309 1
639 312 1
639 318 1
639 322 1
639 323 1
639 328 1
639 336 1
639 338 1
639 339 1
639 342 1
639 354 1
639 361 1
639 362 1
639 364 1
639 373 1
639 375 1
639 376 1
639 379 1
639 391 1
639 397 1
639 398 1
639 399 1
639 403 1
639 407 1
639 413 1
639 414 1
639 418 1
639 429 1
639 431 1
639 434 1
639 445 1
639 450 1
639 456 1
639 463 1
639 468 1
639 478 1
639 485 1
639 497 1
639 508 1
639 517 1
639 518 1
639 528 1
639 529 1
639 537 1
639 543 1
639 546 1
639 552 1
639 553 1
639 555 1
639 565 1
639 575 1
639 578 1
639 598 1
639 599 1
639 600 1
639 604 1
639 606 1
639 635 1
639 636 1
639 646 1
639 649 1
639 654 1
639 655 1
639 656 1
639 667 1
639 678 1
639 680 1
639 687 1
639 689 1
639 690 1
639 696 1
640 10 1
640 14 1
640 29 1
640 33 1
640 41 1
640 45 1
640 48 1
640 49 1
640 58 1
640 61 1
640 64 1
640 68 1
640 72 1
640 75 1
640 79 1
640 80 1
640 81 1
640 82 1
640 85 1
640 95 1
640 103 1
640 107 1
640 110 1
640 114 1
640 117 1
640 118 1
640 119 1
640 121 1
640 122 1
640 125 1
640 135 1
640 136 1
640 139 1
640 145 1
640 154 1
640 156 1
640 162 1
640 176 1
640 188 1
640 210 1
640 211 1
640 215 1
640 222 1
640 228 1
640 231 1
640 238 1
640 249 1
640 250 1
640 253 1
640 255 1
640 261 1
640 265 1
640 268 1
640 269 1
640 272 1
640 276 1
640 292 1
640 303 1
640 307 1
640 308 1
640 314 1
640 324 1
640 330 1
640 339 1
640 341 1
640 343 1
640 351 1
640 354 1
640 356 1
640 371 1
640 374 1
640 375 1
640 378 1
640 381 1
640 383 1
640 402 1
640 409 1
640 424 1
640 426 1
640 432 1
640 435 1
640 436 1
640 437 1
640 438 1
640 441 1
640 456 1
640 460 1
640 461 1
640 468 1
640 475 1
640 480 1
640 490 1
640 491 1
640 493 1
640 502 1
640 504 1
640 513 1
640 514 1
640 518 1
640 522 1
640 524 1
640 535 1
640 538 1
640 543 1
640 549 1
640 556 1
640 561 1
640 569 1
640 571 1
640 574 1
640 575 1
640 586 1
640 594 1
640 598 1
640 600 1
640 606 1
640 608 1
640 616 1
640 622 1
640 625 1
640 628 1
640 631 1
640 632 1
640 634 1
640 637 1
640 644 1
640 654 1
640 656 1
640 663 1
640 664 1
640 669 1
640 671 1
640 672 1
640 686 1
640 687 1
640 691 1
640 697 1
640 700 1
641 1 1
641 8 1
641 20 1
641 22 1
641 30 1
641 34 1
641 40 1
641 42 1
641 43 1
641 50 1
641 53 1
641 63 1
641 74 1
641 75 1
641 85 1
641 88 1
641 89 1
641 94 1
641 96 1
641 102 1
641 103 1
641 105 1
641 108 1
641 116 1
641 117 1
641 119 1
641 127 1
641 129 1
641 130 1
641 132 1
641 139 1
641 141 1
641 145 1
641 148 1
641 149 1
641 150 1
641 152 1
641 156 1
641 157 1
641 158 1
641 160 1
641 161 1
641 173 1
641 178 1
641 181 1
641 185 1
641 191 1
641 194 1
641 216 1
641 221 1
641 231 1
641 232 1
641 233 1
641 236 1
641 238 1
641 244 1
641 246 1
641 251 1
641 252 1
641 262 1
641 268 1
641 269 1
641 272 1
641 274 1
641 279 1
641 283 1
641 284 1
641 287 1
641 288 1
641 300 1
641 322 1
641 332 1
641 333 1
641 338 1
641 340 1
641 342 1
641 344 1
641 347 1
641 349 1
641 353 1
641 355 1
641 358 1
641 361 1
641 368 1
641 369 1
641 372 1
641 373 1
641 378 1
641 383 1
641 384 1
641 387 1
641 392 1
641 399 1
641 401 1
641 410 1
641 414 1
641 427 1
641 429 1
641 432 1
641 433 1
641 434 1
641 437 1
641 440 1
641 444 1
641 462 1
641 465 1
641 466 1
641 467 1
641 471 1
641 476 1
641 479 1
641 488 1
641 495 1
641 496 1
641 500 1
641 508 1
641 512 1
641 521 1
641 542 1
641 546 1
641 550 1
641 552 1
641 565 1
641 570 1
641 571 1
641 577 1
641 582 1
641 583 1
641 586 1
641 591 1
641 598 1
641 614 1
641 618 1
641 626 1
641 627 1
641 630 1
641 631 1
641 637 1
641 644 1
641 654 1
641 657 1
641 658 1
641 663 1
641 665 1
641 670 1
641 672 1
641 675 1
641 684 1
641 686 1
641 693 1
641 700 1
642 8 1
642 15 1
642 18 1
642 21 1
642 22 1
642 23 1
642 25 1
642 26 1
642 28 1
642 34 1
642 40 1
642 41 1
642 45 1
642 46 1
642 51 1
642 58 1
642 63 1
642 65 1
642 66 1
642 68 1
642 79 1
642 81 1
642 83 1
642 85 1
642 92 1
642 99 1
642 102 1
642 103 1
642 108 1
642 117 1
642 122 1
642 125 1
642 130 1
642 133 1
642 151 1
642 157 1
642 158 1
642 160 1
642 165 1
642 175 1
642 181 1
642 189 1
642 190 1
642 193 1
642 196 1
642 202 1
642 217 1
642 225 1
642 226 1
642 229 1
642 240 1
642 251 1
642 262 1
642 264 1
642 269 1
642 278 1
642 281 1
642 282 1
642 284 1
642 291 1
642 300 1
642 301 1
642 302 1
642 303 1
642 312 1
642 317 1
642 320 1
642 321 1
642 328 1
642 343 1
642 345 1
642 349 1
642 353 1
642 355 1
642 363 1
642 367 1
642 375 1
642 377 1
642 378 1
642 387 1
642 389 1
642 390 1
642 405 1
642 407 1
642 412 1
642 416 1
642 429 1
642 432 1
642 433 1
642 436 1
642 438 1
642 441 1
642 442 1
642 444 1
642 448 1
642 452 1
642 455 1
642 457 1
642 464 1
642 469 1
642 471 1
642 472 1
642 476 1
642 479 1
642 480 1
642 483 1
642 485 1
642 495 1
642 496 1
642 498 1
642 499 1
642 505 1
642 509 1
642 511 1
642 512 1
642 513 1
642 514 1
642 516 1
642 522 1
642 525 1
642 531 1
642 532 1
642 535 1
642 540 1
642 542 1
642 544 1
642 548 1
642 555 1
642 557 1
642 560 1
642 564 1
642 573 1
642 574 1
642 578 1
642 579 1
642 584 1
642 589 1
642 594 1
642 595 1
642 599 1
642 611 1
642 614 1
642 620 1
642 623 1
642 629 1
642 631 1
642 632 1
642 648 1
642 655 1
642 668 1
642 669 1
642 677 1
642 679 1
642 682 1
642 686 1
642 687 1
642 689 1
642 694 1
642 700 1
643 3 1
643 10 1
643 14 1
643 16 1
643 22 1
643 23 1
643 26 1
643 30 1
643 36 1
643 45 1
643 46 1
643 47 1
643 48 1
643 49 1
643 61 1
643 71 1
643 72 1
643 74 1
643 78 1
643 79 1
643 84 1
643 88 1
643 96 1
643 101 1
643 109 1
643 110 1
643 111 1
643 120 1
643 128 1
643 132 1
643 137 1
643 142 1
643 144 1
643 153 1
643 155 1
643 156 1
643 163 1
643 164 1
643 168 1
643 174 1
643 183 1
643 191 1
643 200 1
643 202 1
643 205 1
643 212 1
643 213 1
643 214 1
643 218 1
643 224 1
643 228 1
643 229 1
643 235 1
643 236 1
643 240 1
643 251 1
643 254 1
643 262 1
643 263 1
643 264 1
643 271 1
643 272 1
643 285 1
643 291 1
643 294 1
643 295 1
643 305 1
643 312 1
643 321 1
643 325 1
643 332 1
643 333 1
643 338 1
643 346 1
643 348 1
643 353 1
643 354 1
643 356 1
643 357 1
643 358 1
643 359 1
643 364 1
643 365 1
643 367 1
643 369 1
643 370 1
643 372 1
643 388 1
643 399 1
643 400 1
643 402 1
643 405 1
643 410 1
643 421 1
643 425 1
643 430 1
643 436 1
643 445 1
643 460 1
643 467 1
643 483 1
643 486 1
643 490 1
643 492 1
643 493 1
643 508 1
643 509 1
643 515 1
643 520 1
643 521 1
643 523 1
643 530 1
643 535 1
643 543 1
643 547 1
643 553 1
643 563 1
643 564 1
643 569 1
643 571 1
643 577 1
643 584 1
643 586 1
643 598 1
643 603 1
643 605 1
643 617 1
643 625 1
643 626 1
643 628 1
643 633 1
643 653 1
643 666 1
643 670 1
643 671 1
643 673 1
643 675 1
643 683 1
643 684 1
643 685 1
643 691 1
643 694 1
643 699 1
643 700 1
644 2 1
644 8 1
644 11 1
644 14 1
644 16 1
644 20 1
644 41 1
644 44 1
644 46 1
644 52 1
644 54 1
644 56 1
644 61 1
644 62 1
644 68 1
644 72 1
644 76 1
644 78 1
644 79 1
644 93 1
644 98 1
644 102 1
644 110 1
644 114 1
644 119 1
644 131 1
644 137 1
644 154 1
644 163 1
644 164 1
644 166 1
644 168 1
644 179 1
644 181 1
644 187 1
644 191 1
644 194 1
644 202 1
644 204 1
644 207 1
644 208 1
644 212 1
644 213 1
644 214 1
644 221 1
644 228 1
644 233 1
644 238 1
644 239 1
644 241 1
644 247 1
644 251 1
644 253 1
644 256 1
644 263 1
644 269 1
644 277 1
644 284 1
644 287 1
644 290 1
644 291 1
644 293 1
644 295 1
644 303 1
644 306 1
644 325 1
644 327 1
644 331 1
644 333 1
644 335 1
644 337 1
644 343 1
644 348 1
644 354 1
644 360 1
644 364 1
644 367 1
644 371 1
644 373 1
644 377 1
644 378 1
644 379 1
644 380 1
644 382 1
644 387 1
644 392 1
644 410 1
644 411 1
644 412 1
644 414 1
644 451 1
644 454 1
644 466 1
644 467 1
644 476 1
644 479 1
644 488 1
644 493 1
644 498 1
644 499 1
644 500 1
644 502 1
644 504 1
644 506 1
644 515 1
644 521 1
644 524 1
644 531 1
644 535 1
644 537 1
644 540 1
644 541 1
644 545 1
644 547 1
644 550 1
644 554 1
644 556 1
644 563 1
644 566 1
644 585 1
644 586 1
644 587 1
644 588 1
644 589 1
644 591 1
644 597 1
644 599 1
644 600 1
644 604 1
644 607 1
644 612 1
644 614 1
644 616 1
644 621 1
644 628 1
644 629 1
644 634 1
644 635 1
644 640 1
644 641 1
644 649 1
644 651 1
644 655 1
644 660 1
644 662 1
644 671 1
644 683 1
644 691 1
644 697 1
644 698 1
645 3 1
645 9 1
645 13 1
645 27 1
645 36 1
645 38 1
645 47 1
645 53 1
645 54 1
645 57 1
645 61 1
645 62 1
645 68 1
645 69 1
645 70 1
645 72 1
645 76 1
645 81 1
645 88 1
645 91 1
645 93 1
645 96 1
645 109 1
645 112 1
645 113 1
645 116 1
645 118 1
645 120 1
645 135 1
645 138 1
645 142 1
645 147 1
645 154 1
645 157 1
645 165 1
645 170 1
645 176 1
645 179 1
645 182 1
645 184 1
645 187 1
645 191 1
645 195 1
645 211 1
645 215 1
645 222 1
645 224 1
645 225 1
645 229 1
645 236 1
645 245 1
645 247 1
645 250 1
645 256 1
645 272 1
645 279 1
645 281 1
645 293 1
645 302 1
645 309 1
645 315 1
645 316 1
645 319 1
645 331 1
645 335 1
645 337 1
645 338 1
645 347 1
645 351 1
645 352 1
645 375 1
645 377 1
645 380 1
645 388 1
645 402 1
645 403 1
645 411 1
645 434 1
645 450 1
645 456 1
645 464 1
645 468 1
645 476 1
645 479 1
645 485 1
645 488 1
645 493 1
645 506 1
645 508 1
645 513 1
645 514 1
645 516 1
645 528 1
645 531 1
645 535 1
645 546 1
645 553 1
645 558 1
645 559 1
645 561 1
645 568 1
645 576 1
645 577 1
645 581 1
645 583 1
645 585 1
645 588 1
645 589 1
645 602 1
645 603 1
645 604 1
645 609 1
645 611 1
645 619 1
645 624 1
645 629 1
645 631 1
645 635 1
645 638 1
645 650 1
645 652 1
645 657 1
645 666 1
645 667 1
645 686 1
645 692 1
645 693 1
645 700 1
646 9 1
646 28 1
646 46 1
646 51 1
646 52 1
646 54 1
646 59 1
646 60 1
646 62 1
646 67 1
646 69 1
646 78 1
646 79 1
646 80 1
646 86 1
646 93 1
646 95 1
646 98 1
646 99 1
646 107 1
646 116 1
646 118 1
646 119 1
646 121 1
646 122 1
646 126 1
646 135 1
646 142 1
646 144 1
646 146 1
646 151 1
646 153 1
646 159 1
646 160 1
646 162 1
646 164 1
646 174 1
646 184 1
646 191 1
646 192 1
646 200 1
646 201 1
646 203 1
646 204 1
646 210 1
646 224 1
646 243 1
646 245 1
646 246 1
646 247 1
646 250 1
646 259 1
646 262 1
646 264 1
646 271 1
646 276 1
646 284 1
646 292 1
646 303 1
646 308 1
646 311 1
646 336 1
646 340 1
646 361 1
646 368 1
646 372 1
646 373 1
646 389 1
646 395 1
646 396 1
646 398 1
646 402 1
646 405 1
646 410 1
646 411 1
646 425 1
646 433 1
646 444 1
646 445 1
646 448 1
646 449 1
646 457 1
646 458 1
646 461 1
646 463 1
646 468 1
646 473 1
646 482 1
646 484 1
646 486 1
646 487 1
646 505 1
646 506 1
646 511 1
646 515 1
646 517 1
646 520 1
646 523 1
646 535 1
646 539 1
646 545 1
646 558 1
646 559 1
646 565 1
646 569 1
646 598 1
646 612 1
646 615 1
646 626 1
646 628 1
646 629 1
646 637 1
646 639 1
646 648 1
646 650 1
646 654 1
646 657 1
646 666 1
646 672 1
646 673 1
646 676 1
646 677 1
646 680 1
646 686 1
646 689 1
646 691 1
646 694 1
646 697 1
646 700 1
647 9 1
647 16 1
647 20 1
647 23 1
647 26 1
647 30 1
647 50 1
647 62 1
647 74 1
647 77 1
647 79 1
647 80 1
647 85 1
647 87 1
647 90 1
647 92 1
647 100 1
647 101 1
647 116 1
647 117 1
647 118 1
647 122 1
647 128 1
647 131 1
647 132 1
647 135 1
647 159 1
647 163 1
647 179 1
647 193 1
647 195 1
647 197 1
647 205 1
647 207 1
647 211 1
647 215 1
647 217 1
647 222 1
647 223 1
647 225 1
647 230 1
647 238 1
647 247 1
647 250 1
647 253 1
647 258 1
647 270 1
647 272 1
647 276 1
647 278 1
647 288 1
647 295 1
647 299 1
647 301 1
647 307 1
647 316 1
647 333 1
647 339 1
647 353 1
647 359 1
647 363 1
647 372 1
647 386 1
647 390 1
647 397 1
647 402 1
647 403 1
647 411 1
647 415 1
647 425 1
647 426 1
647 429 1
647 433 1
647 434 1
647 440 1
647 441 1
647 443 1
647 445 1
647 450 1
647 455 1
647 458 1
647 462 1
647 466 1
647 470 1
647 474 1
647 476 1
647 477 1
647 479 1
647 480 1
647 489 1
647 491 1
647 492 1
647 496 1
647 498 1
647 503 1
647 508 1
647 522 1
647 530 1
647 531 1
647 534 1
647 536 1
647 543 1
647 544 1
647 560 1
647 562 1
647 563 1
647 567 1
647 568 1
647 580 1
647 582 1
647 586 1
647 597 1
647 600 1
647 602 1
647 603 1
647 608 1
647 609 1
647 613 1
647 614 1
647 616 1
647 622 1
647 634 1
647 635 1
647 636 1
647 649 1
647 653 1
647 657 1
647 658 1
647 660 1
647 662 1
647 668 1
647 670 1
647 671 1
647 680 1
647 688 1
647 692 1
647 694 1
647 696 1
647 699 1
647 700 1
648 3 1
648 8 1
648 15 1
648 16 1
648 28 1
648 35 1
648 41 1
648 43 1
648 47 1
648 51 1
648 67 1
648 71 1
648 80 1
648 84 1
648 85 1
648 87 1
648 93 1
648 95 1
648 98 1
648 102 1
648 104 1
648 115 1
648 117 1
648 118 1
648 121 1
648 127 1
648 133 1
648 138 1
648 143 1
648 146 1
648 154 1
648 158 1
648 165 1
648 168 1
648 170 1
648 178 1
648 185 1
648 186 1
648 196 1
648 198 1
648 199 1
648 202 1
648 203 1
648 208 1
648 217 1
648 224 1
648 233 1
648 236 1
648 245 1
648 247 1
648 251 1
648 254 1
648 261 1
648 262 1
648 265 1
648 266 1
648 273 1
648 274 1
648 285 1
648 292 1
648 297 1
648 323 1
648 328 1
648 330 1
648 331 1
648 336 1
648 345 1
648 347 1
648 348 1
648 353 1
648 359 1
648 361 1
648 365 1
648 374 1
648 377 1
648 381 1
648 383 1
648 409 1
648 411 1
648 416 1
648 418 1
648 427 1
648 429 1
648 432 1
648 435 1
648 446 1
648 459 1
648 462 1
648 467 1
648 470 1
648 475 1
648 477 1
648 478 1
648 487 1
648 488 1
648 492 1
648 495 1
648 496 1
648 505 1
648 508 1
648 519 1
648 521 1
648 522 1
648 525 1
648 530 1
648 532 1
648 542 1
648 545 1
648 546 1
648 549 1
648 553 1
648 555 1
648 558 1
648 559 1
648 564 1
648 566 1
648 568 1
648 575 1
648 581 1
648 591 1
648 595 1
648 597 1
648 599 1
648 604 1
648 619 1
648 623 1
648 624 1
648 627 1
648 642 1
648 646 1
648 658 1
648 667 1
648 675 1
648 678 1
648 680 1
648 681 1
648 682 1
648 683 1
648 684 1
648 685 1
648 689 1
648 691 1
648 693 1
648 700 1
649 4 1
649 6 1
649 7 1
649 13 1
649 15 1
649 18 1
649 19 1
649 25 1
649 29 1
649 30 1
649 36 1
649 48 1
649 49 1
649 52 1
649 54 1
649 56 1
649 70 1
649 71 1
649 73 1
649 87 1
649 91 1
649 101 1
649 104 1
649 106 1
649 110 1
649 112 1
649 113 1
649 117 1
649 120 1
649 125 1
649 130 1
649 137 1
649 139 1
649 144 1
649 147 1
649 156 1
649 174 1
649 177 1
649 178 1
649 199 1
649 203 1
649 208 1
649 209 1
649 215 1
649 218 1
649 224 1
649 226 1
649 230 1
649 233 1
649 238 1
649 243 1
649 247 1
649 248 1
649 259 1
649 260 1
649 261 1
649 265 1
649 270 1
649 272 1
649 273 1
649 277 1
649 281 1
649 287 1
649 296 1
649 299 1
649 302 1
649 304 1
649 331 1
649 334 1
649 336 1
649 340 1
649 350 1
649 352 1
649 354 1
649 357 1
649 365 1
649 371 1
649 372 1
649 373 1
649 380 1
649 387 1
649 399 1
649 404 1
649 407 1
649 420 1
649 423 1
649 427 1
649 430 1
649 435 1
649 448 1
649 452 1
649 457 1
649 472 1
649 475 1
649 480 1
649 482 1
649 486 1
649 492 1
649 498 1
649 506 1
649 507 1
649 512 1
649 513 1
649 516 1
649 519 1
649 530 1
649 534 1
649 545 1
649 550 1
649 552 1
649 553 1
649 562 1
649 564 1
649 570 1
649 574 1
649 577 1
649 579 1
649 583 1
649 590 1
649 597 1
649 599 1
649 608 1
649 612 1
649 621 1
649 622 1
649 623 1
649 639 1
649 644 1
649 647 1
649 657 1
649 661 1
649 665 1
649 668 1
649 671 1
649 680 1
649 687 1
649 688 1
649 689 1
649 691 1
649 696 1
650 2 1
650 6 1
650 7 1
650 9 1
650 12 1
650 14 1
650 16 1
650 17 1
650 19 1
650 20 1
650 21 1
650 26 1
650 29 1
650 35 1
650 50 1
650 55 1
650 70 1
650 77 1
650 79 1
650 80 1
650 89 1
650 96 1
650 100 1
650 102 1
650 111 1
650 112 1
650 114 1
650 117 1
650 120 1
650 123 1
650 128 1
650 133 1
650 138 1
650 140 1
650 141 1
650 142 1
650 143 1
650 144 1
650 153 1
650 156 1
650 166 1
650 169 1
650 171 1
650 179 1
650 185 1
650 192 1
650 205 1
650 208 1
650 210 1
650 212 1
650 215 1
650 222 1
650 226 1
650 227 1
650 230 1
650 242 1
650 244 1
650 251 1
650 255 1
650 260 1
650 267 1
650 270 1
650 272 1
650 276 1
650 279 1
650 282 1
650 283 1
650 286 1
650 289 1
650 291 1
650 326 1
650 329 1
650 333 1
650 334 1
650 336 1
650 338 1
650 339 1
650 343 1
650 345 1
650 348 1
650 349 1
650 350 1
650 354 1
650 357 1
650 360 1
650 361 1
650 366 1
650 377 1
650 381 1
650 385 1
650 388 1
650 389 1
650 400 1
650 401 1
650 406 1
650 407 1
650 409 1
650 414 1
650 420 1
650 422 1
650 436 1
650 439 1
650 440 1
650 456 1
650 462 1
650 466 1
650 470 1
650 473 1
650 476 1
650 482 1
650 483 1
650 489 1
650 497 1
650 503 1
650 507 1
650 508 1
650 511 1
650 516 1
650 530 1
650 541 1
650 552 1
650 575 1
650 579 1
650 593 1
650 605 1
650 609 1
650 616 1
650 626 1
650 627 1
650 645 1
650 646 1
650 651 1
650 657 1
650 658 1
650 663 1
650 667 1
650 671 1
650 682 1
650 685 1
650 686 1
650 689 1
650 692 1
650 693 1
650 695 1
651 17 1
651 23 1
651 32 1
651 33 1
651 34 1
651 42 1
651 45 1
651 54 1
651 61 1
651 65 1
651 68 1
651 70 1
651 73 1
651 76 1
651 85 1
651 87 1
651 93 1
651 101 1
651 103 1
651 107 1
651 114 1
651 120 1
651 123 1
651 127 1
651 129 1
651 134 1
651 142 1
651 143 1
651 145 1
651 146 1
651 152 1
651 154 1
651 156 1
651 158 1
651 165 1
651 167 1
651 168 1
651 169 1
651 173 1
651 175 1
651 185 1
651 187 1
651 188 1
651 196 1
651 198 1
651 212 1
651 215 1
651 217 1
651 218 1
651 223 1
651 224 1
651 229 1
651 245 1
651 251 1
651 252 1
651 253 1
651 258 1
651 266 1
651 275 1
651 284 1
651 286 1
651 293 1
651 304 1
651 308 1
651 310 1
651 311 1
651 315 1
651 319 1
651 322 1
651 323 1
651 325 1
651 333 1
651 334 1
651 337 1
651 355 1
651 357 1
651 362 1
651 367 1
651 370 1
651 377 1
651 381 1
651 400 1
651 415 1
651 423 1
651 430 1
651 447 1
651 456 1
651 458 1
651 462 1
651 463 1
651 467 1
651 473 1
651 482 1
651 484 1
651 488 1
651 491 1
651 494 1
651 500 1
651 515 1
651 521 1
651 531 1
651 533 1
651 535 1
651 543 1
651 545 1
651 546 1
651 547 1
651 563 1
651 567 1
651 570 1
651 573 1
651 580 1
651 584 1
651 593 1
651 595 1
651 604 1
651 605 1
651 607 1
651 618 1
651 644 1
651 650 1
651 652 1
651 656 1
651 658 1
651 661 1
651 664 1
651 665 1
651 671 1
651 680 1
651 681 1
651 687 1
651 690 1
651 694 1
651 695 1
651 696 1
652 3 1
652 8 1
652 10 1
652 13 1
652 21 1
652 22 1
652 34 1
652 35 1
652 42 1
652 49 1
652 54 1
652 55 1
652 63 1
652 65 1
652 68 1
652 70 1
652 74 1
652 75 1
652 76 1
652 83 1
652 98 1
652 99 1
652 101 1
652 107 1
652 108 1
652 111 1
652 112 1
652 116 1
652 118 1
652 122 1
652 132 1
652 137 1
652 145 1
652 146 1
652 149 1
652 152 1
652 155 1
652 157 1
652 159 1
652 162 1
652 167 1
652 169 1
652 170 1
652 178 1
652 181 1
652 196 1
652 198 1
652 202 1
652 204 1
652 207 1
652 210 1
652 214 1
652 215 1
652 216 1
652 217 1
652 228 1
652 230 1
652 235 1
652 246 1
652 247 1
652 250 1
652 251 1
652 252 1
652 257 1
652 259 1
652 260 1
652 261 1
652 270 1
652 271 1
652 277 1
652 278 1
652 289 1
652 296 1
652 304 1
652 318 1
652 333 1
652 342 1
652 343 1
652 351 1
652 352 1
652 355 1
652 372 1
652 377 1
652 380 1
652 381 1
652 387 1
652 390 1
652 395 1
652 400 1
652 404 1
652 408 1
652 420 1
652 436 1
652 443 1
652 445 1
652 452 1
652 460 1
652 465 1
652 470 1
652 473 1
652 477 1
652 479 1
652 480 1
652 484 1
652 489 1
652 512 1
652 514 1
652 523 1
652 524 1
652 525 1
652 526 1
652 533 1
652 534 1
652 535 1
652 541 1
652 552 1
652 557 1
652 559 1
652 564 1
652 566 1
652 567 1
652 576 1
652 577 1
652 580 1
652 583 1
652 584 1
652 589 1
652 591 1
652 622 1
652 624 1
652 626 1
652 632 1
652 635 1
652 645 1
652 651 1
652 657 1
652 682 1
652 692 1
652 696 1
653 10 1
653 18 1
653 19 1
653 22 1
653 27 1
653 30 1
653 39 1
653 49 1
653 57 1
653 59 1
653 64 1
653 65 1
653 73 1
653 85 1
653 86 1
653 87 1
653 92 1
653 97 1
653 106 1
653 119 1
653 122 1
653 131 1
653 133 1
653 137 1
653 138 1
653 140 1
653 146 1
653 149 1
653 161 1
653 192 1
653 194 1
653 197 1
653 210 1
653 218 1
653 219 1
653 228 1
653 244 1
653 245 1
653 246 1
653 256 1
653 259 1
653 263 1
653 264 1
653 269 1
653 271 1
653 272 1
653 279 1
653 284 1
653 285 1
653 286 1
653 288 1
653 292 1
653 302 1
653 303 1
653 304 1
653 306 1
653 312 1
653 319 1
653 320 1
653 322 1
653 329 1
653 331 1
653 332 1
653 342 1
653 343 1
653 348 1
653 350 1
653 358 1
653 360 1
653 363 1
653 380 1
653 386 1
653 387 1
653 407 1
653 408 1
653 409 1
653 413 1
653 422 1
653 427 1
653 429 1
653 437 1
653 445 1
653 447 1
653 448 1
653 453 1
653 470 1
653 478 1
653 479 1
653 484 1
653 485 1
653 487 1
653 488 1
653 490 1
653 495 1
653 496 1
653 497 1
653 499 1
653 512 1
653 520 1
653 521 1
653 522 1
653 526 1
653 532 1
653 533 1
653 546 1
653 549 1
653 552 1
653 554 1
653 575 1
653 578 1
653 582 1
653 583 1
653 584 1
653 586 1
653 587 1
653 590 1
653 598 1
653 602 1
653 603 1
653 605 1
653 606 1
653 612 1
653 619 1
653 620 1
653 624 1
653 643 1
653 647 1
653 655 1
653 661 1
653 663 1
653 676 1
653 677 1
653 682 1
653 686 1
653 690 1
653 692 1
653 699 1
654 7 1
654 8 1
654 10 1
654 12 1
654 17 1
654 21 1
654 22 1
654 30 1
654 31 1
654 34 1
654 46 1
654 65 1
654 70 1
654 82 1
654 86 1
654 88 1
654 91 1
654 103 1
654 105 1
654 114 1
654 116 1
654 121 1
654 129 1
654 130 1
654 135 1
654 136 1
654 141 1
654 144 1
654 152 1
654 164 1
654 172 1
654 174 1
654 197 1
654 200 1
654 202 1
654 207 1
654 208 1
654 210 1
654 211 1
654 214 1
654 220 1
654 224 1
654 225 1
654 230 1
654 235 1
654 236 1
654 239 1
654 241 1
654 245 1
654 246 1
654 250 1
654 260 1
654 262 1
654 278 1
654 282 1
654 286 1
654 289 1
654 290 1
654 301 1
654 305 1
654 306 1
654 313 1
654 316 1
654 318 1
654 323 1
654 329 1
654 342 1
654 350 1
654 352 1
654 356 1
654 358 1
654 359 1
654 363 1
654 369 1
654 374 1
654 375 1
654 377 1
654 380 1
654 388 1
654 392 1
654 393 1
654 400 1
654 407 1
654 409 1
654 412 1
654 421 1
654 424 1
654 430 1
654 431 1
654 437 1
654 454 1
654 465 1
654 471 1
654 474 1
654 475 1
654 476 1
654 477 1
654 478 1
654 484 1
654 485 1
654 489 1
654 497 1
654 506 1
654 507 1
654 515 1
654 521 1
654 522 1
654 528 1
654 530 1
654 532 1
654 534 1
654 536 1
654 537 1
654 541 1
654 545 1
654 548 1
654 558 1
654 564 1
654 571 1
654 573 1
654 575 1
654 577 1
654 580 1
654 588 1
654 591 1
654 592 1
654 594 1
654 595 1
654 598 1
654 600 1
654 605 1
654 607 1
654 608 1
654 616 1
654 619 1
654 620 1
654 623 1
654 624 1
654 639 1
654 640 1
654 641 1
654 646 1
654 657 1
654 661 1
654 665 1
654 666 1
654 668 1
654 673 1
654 675 1
654 681 1
654 692 1
654 696 1
655 11 1
655 12 1
655 16 1
655 17 1
655 18 1
655 19 1
655 24 1
655 32 1
655 38 1
655 39 1
655 48 1
655 57 1
655 68 1
655 97 1
655 98 1
655 103 1
655 104 1
655 106 1
655 117 1
655 118 1
655 128 1
655 132 1
655 144 1
655 152 1
655 162 1
655 163 1
655 164 1
655 166 1
655 170 1
655 174 1
655 177 1
655 179 1
655 182 1
655 186 1
655 203 1
655 205 1
655 208 1
655 212 1
655 215 1
655 216 1
655 225 1
655 226 1
655 227 1
655 250 1
655 257 1
655 278 1
655 281 1
655 283 1
655 287 1
655 288 1
655 294 1
655 299 1
655 301 1
655 305 1
655 311 1
655 312 1
655 314 1
655 317 1
655 318 1
655 321 1
655 324 1
655 327 1
655 331 1
655 332 1
655 334 1
655 351 1
655 352 1
655 355 1
655 359 1
655 362 1
655 367 1
655 371 1
655 379 1
655 380 1
655 386 1
655 390 1
655 395 1
655 396 1
655 397 1
655 403 1
655 406 1
655 411 1
655 413 1
655 428 1
655 429 1
655 441 1
655 455 1
655 458 1
655 460 1
655 465 1
655 471 1
655 474 1
655 477 1
655 479 1
655 488 1
655 491 1
655 498 1
655 499 1
655 505 1
655 509 1
655 519 1
655 526 1
655 528 1
655 536 1
655 548 1
655 557 1
655 566 1
655 572 1
655 576 1
655 577 1
655 580 1
655 585 1
655 587 1
655 588 1
655 599 1
655 600 1
655 602 1
655 604 1
655 606 1
655 607 1
655 611 1
655 620 1
655 621 1
655 632 1
655 635 1
655 636 1
655 639 1
655 642 1
655 644 1
655 653 1
655 661 1
655 672 1
655 677 1
655 689 1
655 694 1
655 699 1
656 1 1
656 3 1
656 4 1
656 20 1
656 26 1
656 34 1
656 36 1
656 49 1
656 51 1
656 54 1
656 56 1
656 57 1
656 59 1
656 80 1
656 81 1
656 82 1
656 90 1
656 92 1
656 97 1
656 100 1
656 105 1
656 112 1
656 128 1
656 135 1
656 160 1
656 162 1
656 166 1
656 167 1
656 174 1
656 177 1
656 187 1
656 189 1
656 199 1
656 202 1
656 205 1
656 206 1
656 207 1
656 208 1
656 212 1
656 216 1
656 220 1
656 223 1
656 225 1
656 227 1
656 234 1
656 236 1
656 239 1
656 256 1
656 257 1
656 262 1
656 264 1
656 270 1
656 272 1
656 275 1
656 280 1
656 288 1
656 292 1
656 295 1
656 299 1
656 300 1
656 301 1
656 312 1
656 322 1
656 327 1
656 329 1
656 330 1
656 340 1
656 350 1
656 354 1
656 361 1
656 364 1
656 369 1
656 371 1
656 384 1
656 385 1
656 390 1
656 395 1
656 398 1
656 403 1
656 408 1
656 411 1
656 412 1
656 413 1
656 414 1
656 419 1
656 431 1
656 434 1
656 441 1
656 447 1
656 449 1
656 450 1
656 455 1
656 459 1
656 478 1
656 479 1
656 495 1
656 497 1
656 512 1
656 513 1
656 514 1
656 518 1
656 523 1
656 528 1
656 532 1
656 541 1
656 542 1
656 543 1
656 549 1
656 552 1
656 555 1
656 556 1
656 564 1
656 565 1
656 566 1
656 569 1
656 572 1
656 581 1
656 582 1
656 584 1
656 587 1
656 589 1
656 592 1
656 593 1
656 606 1
656 608 1
656 609 1
656 612 1
656 613 1
656 614 1
656 616 1
656 620 1
656 621 1
656 625 1
656 630 1
656 632 1
656 639 1
656 640 1
656 651 1
656 676 1
656 680 1
656 684 1
656 687 1
656 695 1
657 5 1
657 29 1
657 32 1
657 43 1
657 55 1
657 68 1
657 72 1
657 77 1
657 78 1
657 80 1
657 82 1
657 84 1
657 89 1
657 90 1
657 96 1
657 102 1
657 108 1
657 112 1
657 115 1
657 122 1
657 125 1
657 130 1
657 131 1
657 133 1
657 135 1
657 146 1
657 147 1
657 150 1
657 152 1
657 154 1
657 164 1
657 168 1
657 171 1
657 174 1
657 188 1
657 194 1
657 197 1
657 198 1
657 202 1
657 204 1
657 207 1
657 219 1
657 220 1
657 223 1
657 224 1
657 230 1
657 232 1
657 236 1
657 241 1
657 242 1
657 243 1
657 247 1
657 251 1
657 260 1
657 269 1
657 278 1
657 281 1
657 284 1
657 286 1
657 290 1
657 291 1
657 298 1
657 301 1
657 304 1
657 306 1
657 307 1
657 308 1
657 309 1
657 319 1
657 320 1
657 322 1
657 324 1
657 325 1
657 333 1
657 340 1
657 347 1
657 348 1
657 354 1
657 361 1
657 363 1
657 364 1
657 367 1
657 369 1
657 378 1
657 379 1
657 399 1
657 407 1
657 417 1
657 421 1
657 425 1
657 426 1
657 431 1
657 435 1
657 437 1
657 443 1
657 445 1
657 446 1
657 451 1
657 457 1
657 460 1
657 464 1
657 470 1
657 483 1
657 486 1
657 488 1
657 491 1
657 501 1
657 504 1
657 510 1
657 518 1
657 521 1
657 535 1
657 539 1
657 544 1
657 546 1
657 549 1
657 559 1
657 564 1
657 574 1
657 578 1
657 591 1
657 594 1
657 610 1
657 612 1
657 614 1
657 620 1
657 623 1
657 634 1
657 636 1
657 637 1
657 641 1
657 645 1
657 646 1
657 647 1
657 649 1
657 650 1
657 652 1
657 654 1
657 658 1
657 679 1
657 688 1
657 696 1
658 2 1
658 6 1
658 11 1
658 14 1
658 15 1
658 20 1
658 23 1
658 24 1
658 29 1
658 32 1
658 33 1
658 34 1
658 39 1
658 40 1
658 46 1
658 50 1
658 57 1
658 59 1
658 63 1
658 71 1
658 85 1
658 91 1
658 107 1
658 118 1
658 127 1
658 128 1
658 142 1
658 144 1
658 156 1
658 162 1
658 172 1
658 179 1
658 181 1
658 186 1
658 187 1
658 188 1
658 197 1
658 202 1
658 210 1
658 222 1
658 223 1
658 224 1
658 229 1
658 233 1
658 237 1
658 238 1
658 244 1
658 254 1
658 257 1
658 266 1
658 268 1
658 272 1
658 286 1
658 288 1
658 289 1
658 309 1
658 319 1
658 321 1
658 322 1
658 324 1
658 328 1
658 334 1
658 339 1
658 349 1
658 354 1
658 355 1
658 358 1
658 360 1
658 366 1
658 380 1
658 384 1
658 386 1
658 388 1
658 390 1
658 402 1
658 406 1
658 413 1
658 415 1
658 438 1
658 440 1
658 448 1
658 451 1
658 454 1
658 455 1
658 466 1
658 470 1
658 498 1
658 504 1
658 520 1
658 532 1
658 534 1
658 537 1
658 552 1
658 555 1
658 558 1
658 559 1
658 562 1
658 563 1
658 567 1
658 571 1
658 576 1
658 582 1
658 583 1
658 584 1
658 587 1
658 589 1
658 594 1
658 603 1
658 604 1
658 606 1
658 607 1
658 608 1
658 611 1
658 625 1
658 627 1
658 628 1
658 631 1
658 641 1
658 647 1
658 648 1
658 650 1
658 651 1
658 657 1
658 661 1
658 663 1
658 666 1
658 668 1
658 670 1
658 674 1
658 676 1
658 678 1
658 682 1
658 683 1
658 688 1
658 692 1
659 3 1
659 10 1
659 11 1
659 20 1
659 21 1
659 29 1
659 30 1
659 35 1
659 57 1
659 60 1
659 68 1
659 91 1
659 93 1
659 94 1
659 105 1
659 109 1
659 123 1
659 124 1
659 131 1
659 138 1
659 139 1
659 142 1
659 148 1
659 149 1
659 151 1
659 160 1
659 161 1
659 163 1
659 172 1
659 175 1
659 178 1
659 181 1
659 185 1
659 192 1
659 193 1
659 195 1
659 197 1
659 200 1
659 208 1
659 210 1
659 211 1
659 221 1
659 228 1
659 229 1
659 231 1
659 249 1
659 261 1
659 262 1
659 271 1
659 274 1
659 275 1
659 277 1
659 284 1
659 290 1
659 296 1
659 297 1
659 303 1
659 305 1
659 316 1
659 323 1
659 326 1
659 333 1
659 346 1
659 347 1
659 350 1
659 352 1
659 361 1
659 365 1
659 369 1
659 376 1
659 377 1
659 382 1
659 388 1
659 392 1
659 393 1
659 399 1
659 403 1
659 412 1
659 419 1
659 421 1
659 428 1
659 429 1
659 430 1
659 431 1
659 443 1
659 446 1
659 454 1
659 459 1
659 460 1
659 462 1
659 466 1
659 469 1
659 483 1
659 487 1
659 489 1
659 490 1
659 496 1
659 501 1
659 504 1
659 505 1
659 507 1
659 512 1
659 513 1
659 515 1
659 522 1
659 523 1
659 524 1
659 529 1
659 533 1
659 535 1
659 538 1
659 553 1
659 554 1
659 561 1
659 564 1
659 577 1
659 588 1
659 590 1
659 591 1
659 593 1
659 594 1
659 595 1
659 602 1
659 603 1
659 604 1
659 606 1
659 609 1
659 611 1
659 612 1
659 622 1
659 625 1
659 633 1
659 634 1
659 666 1
659 667 1
659 668 1
659 669 1
659 674 1
659 680 1
659 683 1
659 685 1
659 691 1
659 697 1
659 698 1
660 5 1
660 15 1
660 16 1
660 17 1
660 19 1
660 21 1
660 28 1
660 34 1
660 38 1
660 46 1
660 53 1
660 54 1
660 57 1
660 61 1
660 64 1
660 72 1
660 74 1
660 81 1
660 84 1
660 86 1
660 90 1
660 92 1
660 96 1
660 108 1
660 120 1
660 122 1
660 127 1
660 128 1
660 133 1
660 140 1
660 147 1
660 149 1
660 161 1
660 168 1
660 169 1
660 173 1
660 174 1
660 175 1
660 176 1
660 189 1
660 201 1
660 205 1
660 220 1
660 225 1
660 230 1
660 231 1
660 232 1
660 233 1
660 235 1
660 243 1
660 244 1
660 250 1
660 254 1
660 261 1
660 266 1
660 272 1
660 274 1
660 281 1
660 282 1
660 285 1
660 291 1
660 298 1
660 299 1
660 304 1
660 310 1
660 313 1
660 319 1
660 338 1
660 344 1
660 346 1
660 347 1
660 349 1
660 356 1
660 361 1
660 362 1
660 364 1
660 365 1
660 366 1
660 370 1
660 372 1
660 375 1
660 379 1
660 381 1
660 386 1
660 393 1
660 397 1
660 407 1
660 413 1
660 419 1
660 435 1
660 437 1
660 462 1
660 468 1
660 472 1
660 475 1
660 478 1
660 484 1
660 491 1
660 493 1
660 496 1
660 499 1
660 512 1
660 515 1
660 519 1
660 523 1
660 530 1
660 535 1
660 537 1
660 543 1
660 546 1
660 547 1
660 560 1
660 561 1
660 568 1
660 571 1
660 581 1
660 584 1
660 589 1
660 591 1
660 593 1
660 597 1
660 617 1
660 618 1
660 627 1
660 633 1
660 644 1
660 647 1
660 666 1
660 671 1
660 673 1
660 675 1
660 682 1
660 683 1
660 694 1
660 698 1
660 699 1
660 700 1
661 11 1
661 19 1
661 30 1
661 32 1
661 33 1
661 40 1
661 48 1
661 53 1
661 56 1
661 59 1
661 62 1
661 68 1
661 69 1
661 94 1
661 95 1
661 96 1
661 102 1
661 107 1
661 111 1
661 113 1
661 117 1
661 126 1
661 127 1
661 131 1
661 138 1
661 149 1
661 150 1
661 153 1
661 163 1
661 171 1
661 175 1
661 180 1
661 187 1
661 190 1
661 191 1
661 198 1
661 207 1
661 209 1
661 213 1
661 214 1
661 219 1
661 222 1
661 224 1
661 246 1
661 252 1
661 256 1
661 258 1
661 260 1
661 261 1
661 262 1
661 271 1
661 275 1
661 276 1
661 279 1
661 280 1
661 282 1
661 291 1
661 293 1
661 310 1
661 311 1
661 312 1
661 316 1
661 322 1
661 333 1
661 335 1
661 336 1
661 340 1
661 348 1
661 352 1
661 356 1
661 359 1
661 366 1
661 368 1
661 379 1
661 384 1
661 392 1
661 394 1
661 399 1
661 401 1
661 402 1
661 403 1
661 412 1
661 414 1
661 415 1
661 417 1
661 423 1
661 428 1
661 433 1
661 434 1
661 437 1
661 440 1
661 446 1
661 447 1
661 460 1
661 473 1
661 475 1
661 477 1
661 483 1
661 489 1
661 497 1
661 498 1
661 501 1
661 509 1
661 525 1
661 528 1
661 537 1
661 538 1
661 539 1
661 543 1
661 544 1
661 550 1
661 559 1
661 568 1
661 569 1
661 574 1
661 579 1
661 581 1
661 586 1
661 591 1
661 596 1
661 597 1
661 599 1
661 605 1
661 611 1
661 612 1
661 615 1
661 616 1
661 618 1
661 619 1
661 623 1
661 628 1
661 632 1
661 635 1
661 637 1
661 649 1
661 651 1
661 653 1
661 654 1
661 655 1
661 658 1
661 666 1
661 677 1
661 683 1
661 689 1
661 698 1
661 699 1
662 8 1
662 22 1
662 25 1
662 28 1
662 29 1
662 30 1
662 36 1
662 41 1
662 51 1
662 54 1
662 60 1
662 66 1
662 68 1
662 69 1
662 75 1
662 79 1
662 81 1
662 90 1
662 91 1
662 93 1
662 101 1
662 119 1
662 124 1
662 125 1
662 131 1
662 136 1
662 138 1
662 139 1
662 143 1
662 158 1
662 163 1
662 171 1
662 187 1
662 188 1
662 190 1
662 192 1
662 208 1
662 210 1
662 211 1
662 213 1
662 231 1
662 237 1
662 247 1
662 252 1
662 258 1
662 265 1
662 270 1
662 281 1
662 285 1
662 287 1
662 295 1
662 302 1
662 307 1
662 311 1
662 324 1
662 330 1
662 340 1
662 344 1
662 351 1
662 352 1
662 361 1
662 363 1
662 370 1
662 371 1
662 375 1
662 376 1
662 378 1
662 388 1
662 392 1
662 398 1
662 401 1
662 402 1
662 404 1
662 410 1
662 413 1
662 415 1
662 425 1
662 428 1
662 430 1
662 435 1
662 436 1
662 449 1
662 453 1
662 464 1
662 466 1
662 481 1
662 486 1
662 490 1
662 493 1
662 510 1
662 516 1
662 523 1
662 531 1
662 532 1
662 538 1
662 540 1
662 543 1
662 545 1
662 549 1
662 550 1
662 552 1
662 553 1
662 559 1
662 561 1
662 565 1
662 571 1
662 572 1
662 574 1
662 578 1
662 584 1
662 589 1
662 590 1
662 597 1
662 599 1
662 600 1
662 616 1
662 618 1
662 619 1
662 625 1
662 631 1
662 644 1
662 647 1
662 675 1
662 676 1
662 682 1
662 683 1
662 687 1
662 690 1
662 697 1
662 700 1
663 1 1
663 10 1
663 13 1
663 17 1
663 19 1
663 35 1
663 56 1
663 57 1
663 61 1
663 62 1
663 63 1
663 95 1
663 96 1
663 98 1
663 105 1
663 112 1
663 115 1
663 121 1
663 122 1
663 132 1
663 133 1
663 135 1
663 136 1
663 139 1
663 144 1
663 148 1
663 160 1
663 163 1
663 169 1
663 171 1
663 173 1
663 174 1
663 176 1
663 180 1
663 184 1
663 200 1
663 202 1
663 214 1
663 221 1
663 227 1
663 228 1
663 229 1
663 230 1
663 231 1
663 233 1
663 235 1
663 238 1
663 244 1
663 246 1
663 247 1
663 251 1
663 261 1
663 266 1
663 270 1
663 274 1
663 281 1
663 283 1
663 285 1
663 287 1
663 288 1
663 294 1
663 298 1
663 300 1
663 303 1
663 312 1
663 314 1
663 317 1
663 318 1
663 321 1
663 323 1
663 337 1
663 341 1
663 343 1
663 345 1
663 347 1
663 352 1
663 360 1
663 371 1
663 372 1
663 375 1
663 377 1
663 379 1
663 380 1
663 387 1
663 401 1
663 412 1
663 414 1
663 415 1
663 419 1
663 422 1
663 423 1
663 427 1
663 431 1
663 432 1
663 435 1
663 442 1
663 443 1
663 452 1
663 459 1
663 463 1
663 467 1
663 469 1
663 470 1
663 473 1
663 479 1
663 481 1
663 483 1
663 486 1
663 487 1
663 488 1
663 499 1
663 503 1
663 506 1
663 514 1
663 516 1
663 517 1
663 519 1
663 522 1
663 527 1
663 531 1
663 537 1
663 543 1
663 545 1
663 547 1
663 550 1
663 555 1
663 569 1
663 571 1
663 574 1
663 576 1
663 577 1
663 580 1
663 583 1
663 590 1
663 591 1
663 592 1
663 594 1
663 596 1
663 604 1
663 605 1
663 611 1
663 616 1
663 624 1
663 631 1
663 632 1
663 640 1
663 641 1
663 650 1
663 653 1
663 658 1
663 668 1
663 686 1
663 691 1
663 692 1
663 700 1
664 1 1
664 7 1
664 8 1
664 16 1
664 19 1
664 20 1
664 29 1
664 43 1
664 51 1
664 52 1
664 55 1
664 59 1
664 60 1
664 61 1
664 64 1
664 70 1
664 81 1
664 89 1
664 95 1
664 96 1
664 99 1
664 104 1
664 105 1
664 119 1
664 120 1
664 121 1
664 124 1
664 132 1
664 137 1
664 140 1
664 145 1
664 147 1
664 149 1
664 152 1
664 154 1
664 162 1
664 167 1
664 171 1
664 172 1
664 182 1
664 183 1
664 184 1
664 188 1
664 191 1
664 196 1
664 200 1
664 202 1
664 208 1
664 213 1
664 215 1
664 219 1
664 226 1
664 239 1
664 243 1
664 248 1
664 252 1
664 263 1
664 266 1
664 268 1
664 271 1
664 282 1
664 287 1
664 292 1
664 293 1
664 295 1
664 298 1
664 307 1
664 308 1
664 319 1
664 326 1
664 327 1
664 336 1
664 339 1
664 341 1
664 343 1
664 344 1
664 350 1
664 352 1
664 356 1
664 358 1
664 359 1
664 362 1
664 366 1
664 373 1
664 374 1
664 375 1
664 381 1
664 386 1
664 389 1
664 396 1
664 397 1
664 400 1
664 408 1
664 416 1
664 424 1
664 426 1
664 431 1
664 443 1
664 447 1
664 450 1
664 452 1
664 459 1
664 461 1
664 468 1
664 473 1
664 482 1
664 497 1
664 498 1
664 500 1
664 506 1
664 508 1
664 518 1
664 521 1
664 526 1
664 538 1
664 545 1
664 546 1
664 547 1
664 550 1
664 555 1
664 556 1
664 558 1
664 560 1
664 561 1
664 569 1
664 576 1
664 578 1
664 592 1
664 595 1
664 596 1
664 601 1
664 611 1
664 621 1
664 631 1
664 632 1
664 635 1
664 640 1
664 651 1
664 668 1
664 669 1
664 675 1
664 676 1
664 682 1
664 684 1
664 685 1
664 700 1
665 2 1
665 10 1
665 11 1
665 12 1
665 14 1
665 15 1
665 17 1
665 18 1
665 22 1
665 27 1
665 32 1
665 36 1
665 41 1
665 42 1
665 44 1
665 51 1
665 52 1
665 57 1
665 59 1
665 61 1
665 62 1
665 65 1
665 71 1
665 72 1
665 80 1
665 83 1
665 92 1
665 93 1
665 106 1
665 109 1
665 110 1
665 120 1
665 125 1
665 129 1
665 131 1
665 140 1
665 146 1
665 150 1
665 155 1
665 159 1
665 163 1
665 164 1
665 165 1
665 176 1
665 179 1
665 185 1
665 188 1
665 189 1
665 192 1
665 199 1
665 204 1
665 212 1
665 213 1
665 216 1
665 217 1
665 219 1
665 220 1
665 221 1
665 223 1
665 225 1
665 234 1
665 243 1
665 246 1
665 254 1
665 266 1
665 272 1
665 278 1
665 286 1
665 292 1
665 293 1
665 295 1
665 298 1
665 299 1
665 312 1
665 313 1
665 316 1
665 323 1
665 324 1
665 328 1
665 329 1
665 339 1
665 340 1
665 351 1
665 365 1
665 373 1
665 378 1
665 381 1
665 383 1
665 392 1
665 399 1
665 400 1
665 408 1
665 410 1
665 436 1
665 438 1
665 446 1
665 454 1
665 461 1
665 462 1
665 464 1
665 469 1
665 473 1
665 478 1
665 479 1
665 480 1
665 482 1
665 493 1
665 499 1
665 504 1
665 508 1
665 511 1
665 513 1
665 516 1
665 518 1
665 527 1
665 531 1
665 532 1
665 538 1
665 539 1
665 544 1
665 551 1
665 552 1
665 562 1
665 568 1
665 575 1
665 577 1
665 578 1
665 583 1
665 593 1
665 605 1
665 608 1
665 610 1
665 612 1
665 615 1
665 617 1
665 618 1
665 619 1
665 625 1
665 633 1
665 641 1
665 649 1
665 651 1
665 654 1
665 668 1
665 677 1
665 679 1
665 687 1
665 690 1
665 691 1
665 694 1
665 695 1
665 698 1
665 699 1
665 700 1
666 3 1
666 4 1
666 9 1
666 13 1
666 14 1
666 15 1
666 17 1
666 18 1
666 19 1
666 23 1
666 26 1
666 28 1
666 29 1
666 34 1
666 45 1
666 51 1
666 55 1
666 63 1
666 65 1
666 66 1
666 71 1
666 74 1
666 85 1
666 86 1
666 92 1
666 95 1
666 97 1
666 102 1
666 108 1
666 109 1
666 110 1
666 122 1
666 123 1
666 126 1
666 130 1
666 132 1
666 135 1
666 144 1
666 149 1
666 151 1
666 163 1
666 164 1
666 170 1
666 177 1
666 179 1
666 183 1
666 184 1
666 192 1
666 203 1
666 210 1
666 218 1
666 219 1
666 231 1
666 237 1
666 245 1
666 249 1
666 276 1
666 282 1
666 283 1
666 286 1
666 288 1
666 289 1
666 300 1
666 304 1
666 307 1
666 312 1
666 314 1
666 319 1
666 320 1
666 321 1
666 322 1
666 332 1
666 334 1
666 336 1
666 346 1
666 347 1
666 351 1
666 360 1
666 361 1
666 366 1
666 376 1
666 378 1
666 386 1
666 387 1
666 388 1
666 397 1
666 403 1
666 405 1
666 410 1
666 412 1
666 417 1
666 421 1
666 433 1
666 451 1
666 453 1
666 457 1
666 461 1
666 464 1
666 472 1
666 474 1
666 476 1
666 481 1
666 483 1
666 488 1
666 489 1
666 495 1
666 504 1
666 505 1
666 508 1
666 516 1
666 522 1
666 534 1
666 535 1
666 536 1
666 538 1
666 541 1
666 570 1
666 572 1
666 573 1
666 583 1
666 584 1
666 587 1
666 588 1
666 591 1
666 599 1
666 601 1
666 602 1
666 610 1
666 612 1
666 615 1
666 618 1
666 619 1
666 620 1
666 622 1
666 623 1
666 625 1
666 633 1
666 635 1
666 643 1
666 645 1
666 646 1
666 654 1
666 658 1
666 659 1
666 660 1
666 661 1
666 671 1
666 672 1
666 680 1
666 684 1
666 693 1
666 695 1
666 697 1
666 698 1
667 5 1
667 12 1
667 18 1
667 23 1
667 26 1
667 31 1
667 38 1
667 41 1
667 42 1
667 50 1
667 57 1
667 61 1
667 76 1
667 85 1
667 87 1
667 96 1
667 108 1
667 109 1
667 111 1
667 112 1
667 117 1
667 129 1
667 131 1
667 133 1
667 140 1
667 143 1
667 145 1
667 147 1
667 161 1
667 167 1
667 172 1
667 194 1
667 199 1
667 200 1
667 201 1
667 204 1
667 213 1
667 214 1
667 220 1
667 224 1
667 231 1
667 239 1
667 247 1
667 252 1
667 255 1
667 261 1
667 267 1
667 268 1
667 269 1
667 270 1
667 289 1
667 298 1
667 299 1
667 308 1
667 309 1
667 310 1
667 315 1
667 335 1
667 341 1
667 343 1
667 346 1
667 348 1
667 350 1
667 355 1
667 362 1
667 367 1
667 370 1
667 374 1
667 383 1
667 389 1
667 396 1
667 402 1
667 419 1
667 421 1
667 428 1
667 430 1
667 432 1
667 433 1
667 434 1
667 441 1
667 444 1
667 451 1
667 456 1
667 458 1
667 478 1
667 479 1
667 486 1
667 491 1
667 494 1
667 497 1
667 507 1
667 510 1
667 515 1
667 517 1
667 518 1
667 521 1
667 528 1
667 531 1
667 533 1
667 535 1
667 539 1
667 540 1
667 542 1
667 545 1
667 556 1
667 557 1
667 559 1
667 560 1
667 566 1
667 569 1
667 570 1
667 575 1
667 584 1
667 587 1
667 595 1
667 596 1
667 597 1
667 618 1
667 621 1
667 622 1
667 624 1
667 625 1
667 627 1
667 629 1
667 634 1
667 639 1
667 645 1
667 648 1
667 650 1
667 659 1
667 675 1
667 676 1
667 678 1
667 679 1
667 682 1
667 685 1
667 697 1
667 698 1
667 699 1
668 18 1
668 22 1
668 35 1
668 38 1
668 39 1
668 40 1
668 48 1
668 53 1
668 71 1
668 80 1
668 81 1
668 83 1
668 85 1
668 95 1
668 104 1
668 111 1
668 125 1
668 129 1
668 134 1
668 139 1
668 144 1
668 149 1
668 156 1
668 159 1
668 160 1
668 184 1
668 188 1
668 192 1
668 195 1
668 201 1
668 206 1
668 212 1
668 217 1
668 219 1
668 222 1
668 223 1
668 225 1
668 251 1
668 258 1
668 263 1
668 267 1
668 271 1
668 274 1
668 276 1
668 280 1
668 282 1
668 284 1
668 285 1
668 289 1
668 293 1
668 309 1
668 313 1
668 325 1
668 329 1
668 332 1
668 336 1
668 347 1
668 352 1
668 356 1
668 359 1
668 375 1
668 378 1
668 399 1
668 400 1
668 402 1
668 410 1
668 411 1
668 412 1
668 415 1
668 426 1
668 427 1
668 439 1
668 445 1
668 448 1
668 451 1
668 454 1
668 465 1
668 483 1
668 485 1
668 486 1
668 488 1
668 494 1
668 496 1
668 499 1
668 500 1
668 507 1
668 508 1
668 520 1
668 521 1
668 522 1
668 523 1
668 525 1
668 530 1
668 554 1
668 556 1
668 557 1
668 558 1
668 559 1
668 560 1
668 563 1
668 569 1
668 572 1
668 582 1
668 590 1
668 592 1
668 598 1
668 601 1
668 609 1
668 614 1
668 618 1
668 619 1
668 620 1
668 626 1
668 627 1
668 629 1
668 635 1
668 642 1
668 647 1
668 649 1
668 654 1
668 658 1
668 659 1
668 663 1
668 664 1
668 665 1
668 678 1
668 683 1
668 691 1
668 693 1
668 694 1
668 696 1
668 697 1
669 1 1
669 9 1
669 11 1
669 16 1
669 17 1
669 25 1
669 26 1
669 33 1
669 36 1
669 38 1
669 39 1
669 44 1
669 49 1
669 59 1
669 63 1
669 73 1
669 75 1
669 79 1
669 84 1
669 86 1
669 113 1
669 115 1
669 128 1
669 134 1
669 146 1
669 150 1
669 178 1
669 179 1
669 181 1
669 187 1
669 191 1
669 192 1
669 196 1
669 197 1
669 202 1
669 209 1
669 220 1
669 231 1
669 235 1
669 240 1
669 241 1
669 244 1
669 250 1
669 255 1
669 257 1
669 260 1
669 263 1
669 264 1
669 268 1
669 272 1
669 280 1
669 281 1
669 291 1
669 293 1
669 296 1
669 297 1
669 300 1
669 304 1
669 306 1
669 307 1
669 311 1
669 321 1
669 325 1
669 334 1
669 345 1
669 349 1
669 353 1
669 354 1
669 359 1
669 362 1
669 367 1
669 368 1
669 374 1
669 375 1
669 376 1
669 380 1
669 382 1
669 388 1
669 391 1
669 393 1
669 396 1
669 397 1
669 406 1
669 412 1
669 414 1
669 415 1
669 424 1
669 432 1
669 435 1
669 439 1
669 440 1
669 445 1
669 447 1
669 452 1
669 454 1
669 455 1
669 459 1
669 460 1
669 479 1
669 481 1
669 482 1
669 483 1
669 484 1
669 492 1
669 494 1
669 495 1
669 500 1
669 501 1
669 503 1
669 505 1
669 511 1
669 512 1
669 518 1
669 540 1
669 542 1
669 548 1
669 549 1
669 553 1
669 557 1
669 564 1
669 571 1
669 577 1
669 578 1
669 581 1
669 586 1
669 588 1
669 590 1
669 593 1
669 596 1
669 598 1
669 606 1
669 612 1
669 613 1
669 620 1
669 628 1
669 632 1
669 634 1
669 638 1
669 640 1
669 642 1
669 659 1
669 664 1
669 675 1
669 684 1
669 685 1
669 686 1
669 689 1
669 696 1
670 1 1
670 4 1
670 6 1
670 7 1
670 9 1
670 14 1
670 29 1
670 30 1
670 41 1
670 43 1
670 56 1
670 57 1
670 60 1
670 67 1
670 72 1
670 73 1
670 74 1
670 79 1
670 82 1
670 90 1
670 93 1
670 95 1
670 99 1
670 102 1
670 103 1
670 105 1
670 112 1
670 121 1
670 136 1
670 139 1
670 151 1
670 166 1
670 174 1
670 176 1
670 179 1
670 185 1
670 218 1
670 226 1
670 231 1
670 233 1
670 235 1
670 253 1
670 254 1
670 260 1
670 262 1
670 263 1
670 264 1
670 266 1
670 268 1
670 272 1
670 274 1
670 287 1
670 288 1
670 292 1
670 295 1
670 298 1
670 304 1
670 307 1
670 310 1
670 314 1
670 318 1
670 325 1
670 326 1
670 328 1
670 338 1
670 341 1
670 344 1
670 347 1
670 351 1
670 365 1
670 387 1
670 398 1
670 399 1
670 400 1
670 405 1
670 412 1
670 424 1
670 435 1
670 436 1
670 439 1
670 441 1
670 443 1
670 448 1
670 451 1
670 452 1
670 456 1
670 462 1
670 464 1
670 465 1
670 466 1
670 468 1
670 472 1
670 476 1
670 477 1
670 484 1
670 489 1
670 490 1
670 491 1
670 527 1
670 531 1
670 539 1
670 548 1
670 549 1
670 551 1
670 569 1
670 580 1
670 581 1
670 587 1
670 588 1
670 590 1
670 595 1
670 597 1
670 601 1
670 603 1
670 608 1
670 614 1
670 623 1
670 624 1
670 625 1
670 626 1
670 635 1
670 638 1
670 641 1
670 643 1
670 647 1
670 658 1
670 673 1
670 675 1
670 677 1
670 678 1
670 679 1
670 687 1
670 690 1
670 695 1
670 697 1
670 698 1
671 7 1
671 15 1
671 23 1
671 24 1
671 28 1
671 42 1
671 48 1
671 50 1
671 56 1
671 61 1
671 63 1
671 64 1
671 65 1
671 75 1
671 77 1
671 82 1
671 83 1
671 90 1
671 103 1
671 108 1
671 112 1
671 113 1
671 125 1
671 133 1
671 134 1
671 138 1
671 148 1
671 153 1
671 158 1
671 161 1
671 165 1
671 169 1
671 177 1
671 179 1
671 183 1
671 195 1
671 206 1
671 209 1
671 210 1
671 219 1
671 230 1
671 259 1
671 268 1
671 273 1
671 276 1
671 277 1
671 279 1
671 287 1
671 291 1
671 303 1
671 309 1
671 311 1
671 312 1
671 316 1
671 320 1
671 322 1
671 334 1
671 341 1
671 349 1
671 357 1
671 359 1
671 360 1
671 365 1
671 374 1
671 377 1
671 383 1
671 387 1
671 388 1
671 404 1
671 427 1
671 433 1
671 435 1
671 436 1
671 438 1
671 440 1
671 441 1
671 444 1
671 445 1
671 459 1
671 460 1
671 468 1
671 469 1
671 472 1
671 473 1
671 478 1
671 486 1
671 491 1
671 500 1
671 501 1
671 505 1
671 507 1
671 509 1
671 511 1
671 514 1
671 538 1
671 540 1
671 542 1
671 548 1
671 551 1
671 553 1
671 562 1
671 568 1
671 572 1
671 574 1
671 576 1
671 585 1
671 596 1
671 597 1
671 600 1
671 603 1
671 612 1
671 614 1
671 617 1
671 624 1
671 626 1
671 627 1
671 629 1
671 630 1
671 631 1
671 638 1
671 640 1
671 643 1
671 644 1
671 647 1
671 649 1
671 650 1
671 651 1
671 660 1
671 666 1
671 675 1
671 677 1
671 688 1
671 693 1
671 694 1
671 695 1
671 696 1
671 699 1
672 4 1
672 7 1
672 15 1
672 22 1
672 27 1
672 35 1
672 40 1
672 50 1
672 56 1
672 58 1
672 62 1
672 67 1
672 69 1
672 70 1
672 72 1
672 82 1
672 85 1
672 87 1
672 93 1
672 94 1
672 97 1
672 98 1
672 100 1
672 103 1
672 105 1
672 113 1
672 114 1
672 115 1
672 119 1
672 120 1
672 121 1
672 124 1
672 125 1
672 126 1
672 127 1
672 133 1
672 137 1
672 140 1
672 143 1
672 150 1
672 158 1
672 160 1
672 162 1
672 164 1
672 165 1
672 166 1
672 169 1
672 170 1
672 173 1
672 177 1
672 183 1
672 189 1
672 195 1
672 201 1
672 204 1
672 207 1
672 209 1
672 212 1
672 213 1
672 216 1
672 222 1
672 223 1
672 225 1
672 229 1
672 239 1
672 240 1
672 249 1
672 250 1
672 258 1
672 259 1
672 273 1
672 276 1
672 279 1
672 280 1
672 284 1
672 292 1
672 297 1
672 300 1
672 311 1
672 322 1
672 326 1
672 328 1
672 334 1
672 339 1
672 343 1
672 347 1
672 361 1
672 368 1
672 370 1
672 372 1
672 387 1
672 397 1
672 401 1
672 405 1
672 406 1
672 414 1
672 439 1
672 443 1
672 448 1
672 461 1
672 466 1
672 467 1
672 468 1
672 470 1
672 473 1
672 477 1
672 479 1
672 490 1
672 491 1
672 493 1
672 494 1
672 513 1
672 515 1
672 517 1
672 519 1
672 520 1
672 524 1
672 536 1
672 544 1
672 549 1
672 564 1
672 571 1
672 576 1
672 581 1
672 583 1
672 586 1
672 587 1
672 589 1
672 598 1
672 602 1
672 609 1
672 613 1
672 615 1
672 622 1
672 628 1
672 632 1
672 633 1
672 634 1
672 635 1
672 640 1
672 641 1
672 646 1
672 655 1
672 666 1
672 684 1
672 686 1
672 687 1
672 694 1
672 700 1
673 5 1
673 6 1
673 8 1
673 13 1
673 15 1
673 16 1
673 26 1
673 27 1
673 29 1
673 34 1
673 37 1
673 44 1
673 49 1
673 56 1
673 63 1
673 65 1
673 67 1
673 73 1
673 77 1
673 84 1
673 89 1
673 106 1
673 113 1
673 116 1
673 119 1
673 123 1
673 125 1
673 126 1
673 130 1
673 132 1
673 141 1
673 142 1
673 148 1
673 152 1
673 155 1
673 158 1
673 160 1
673 163 1
673 169 1
673 174 1
673 183 1
673 187 1
673 192 1
673 207 1
673 217 1
673 220 1
673 223 1
673 232 1
673 245 1
673 248 1
673 253 1
673 263 1
673 268 1
673 270 1
673 272 1
673 273 1
673 276 1
673 285 1
673 286 1
673 289 1
673 293 1
673 294 1
673 295 1
673 300 1
673 301 1
673 305 1
673 313 1
673 315 1
673 322 1
673 327 1
673 330 1
673 334 1
673 335 1
673 338 1
673 341 1
673 356 1
673 361 1
673 377 1
673 384 1
673 404 1
673 420 1
673 433 1
673 439 1
673 440 1
673 442 1
673 444 1
673 453 1
673 457 1
673 463 1
673 469 1
673 475 1
673 494 1
673 496 1
673 499 1
673 508 1
673 514 1
673 517 1
673 519 1
673 521 1
673 530 1
673 532 1
673 536 1
673 539 1
673 541 1
673 548 1
673 550 1
673 553 1
673 567 1
673 571 1
673 573 1
673 591 1
673 594 1
673 602 1
673 605 1
673 608 1
673 609 1
673 610 1
673 611 1
673 623 1
673 625 1
673 633 1
673 643 1
673 646 1
673 654 1
673 660 1
673 670 1
673 674 1
673 678 1
673 685 1
673 696 1
673 698 1
674 1 1
674 8 1
674 9 1
674 14 1
674 19 1
674 22 1
674 29 1
674 32 1
674 36 1
674 41 1
674 45 1
674 51 1
674 65 1
674 67 1
674 88 1
674 90 1
674 111 1
674 114 1
674 126 1
674 141 1
674 142 1
674 146 1
674 147 1
674 148 1
674 149 1
674 160 1
674 162 1
674 169 1
674 171 1
674 172 1
674 174 1
674 178 1
674 179 1
674 180 1
674 182 1
674 186 1
674 190 1
674 193 1
674 196 1
674 197 1
674 210 1
674 211 1
674 212 1
674 213 1
674 214 1
674 216 1
674 223 1
674 236 1
674 237 1
674 242 1
674 250 1
674 256 1
674 257 1
674 259 1
674 260 1
674 261 1
674 264 1
674 284 1
674 291 1
674 292 1
674 295 1
674 297 1
674 304 1
674 305 1
674 310 1
674 314 1
674 318 1
674 323 1
674 324 1
674 325 1
674 332 1
674 340 1
674 343 1
674 352 1
674 353 1
674 355 1
674 358 1
674 361 1
674 368 1
674 379 1
674 387 1
674 392 1
674 397 1
674 402 1
674 403 1
674 404 1
674 406 1
674 407 1
674 410 1
674 415 1
674 420 1
674 421 1
674 422 1
674 432 1
674 435 1
674 447 1
674 451 1
674 452 1
674 453 1
674 467 1
674 478 1
674 486 1
674 487 1
674 499 1
674 501 1
674 508 1
674 509 1
674 518 1
674 519 1
674 526 1
674 529 1
674 531 1
674 540 1
674 552 1
674 559 1
674 566 1
674 569 1
674 573 1
674 575 1
674 577 1
674 580 1
674 591 1
674 592 1
674 603 1
674 615 1
674 631 1
674 638 1
674 658 1
674 659 1
674 673 1
674 677 1
674 690 1
674 694 1
674 695 1
675 1 1
675 5 1
675 8 1
675 9 1
675 12 1
675 14 1
675 18 1
675 23 1
675 28 1
675 31 1
675 32 1
675 33 1
675 35 1
675 39 1
675 44 1
675 48 1
675 49 1
675 56 1
675 57 1
675 60 1
675 64 1
675 65 1
675 78 1
675 83 1
675 90 1
675 95 1
675 99 1
675 100 1
675 107 1
675 108 1
675 124 1
675 130 1
675 132 1
675 135 1
675 137 1
675 141 1
675 142 1
675 143 1
675 148 1
675 151 1
675 155 1
675 161 1
675 163 1
675 164 1
675 167 1
675 170 1
675 171 1
675 180 1
675 187 1
675 188 1
675 192 1
675 195 1
675 198 1
675 199 1
675 208 1
675 210 1
675 212 1
675 213 1
675 215 1
675 218 1
675 220 1
675 225 1
675 227 1
675 238 1
675 242 1
675 255 1
675 262 1
675 264 1
675 265 1
675 266 1
675 268 1
675 269 1
675 271 1
675 274 1
675 277 1
675 281 1
675 284 1
675 288 1
675 290 1
675 292 1
675 304 1
675 306 1
675 312 1
675 315 1
675 319 1
675 336 1
675 346 1
675 352 1
675 355 1
675 361 1
675 363 1
675 370 1
675 378 1
675 381 1
675 391 1
675 395 1
675 396 1
675 399 1
675 408 1
675 412 1
675 413 1
675 418 1
675 420 1
675 427 1
675 434 1
675 441 1
675 444 1
675 445 1
675 447 1
675 454 1
675 463 1
675 465 1
675 469 1
675 473 1
675 484 1
675 485 1
675 490 1
675 504 1
675 506 1
675 516 1
675 523 1
675 533 1
675 540 1
675 543 1
675 544 1
675 550 1
675 553 1
675 561 1
675 570 1
675 588 1
675 590 1
675 593 1
675 594 1
675 595 1
675 596 1
675 604 1
675 620 1
675 625 1
675 626 1
675 633 1
675 638 1
675 641 1
675 643 1
675 648 1
675 654 1
675 660 1
675 662 1
675 664 1
675 667 1
675 669 1
675 670 1
675 671 1
675 682 1
675 686 1
675 691 1
675 700 1
676 14 1
676 19 1
676 29 1
676 32 1
676 48 1
676 70 1
676 76 1
676 81 1
676 82 1
676 94 1
676 109 1
676 110 1
676 114 1
676 117 1
676 119 1
676 124 1
676 128 1
676 129 1
676 132 1
676 140 1
676 144 1
676 148 1
676 150 1
676 151 1
676 154 1
676 160 1
676 165 1
676 173 1
676 175 1
676 176 1
676 182 1
676 196 1
676 200 1
676 201 1
676 204 1
676 206 1
676 213 1
676 217 1
676 223 1
676 230 1
676 232 1
676 233 1
676 240 1
676 246 1
676 247 1
676 256 1
676 260 1
676 278 1
676 280 1
676 286 1
676 288 1
676 302 1
676 303 1
676 305 1
676 307 1
676 319 1
676 328 1
676 331 1
676 335 1
676 338 1
676 343 1
676 345 1
676 352 1
676 354 1
676 357 1
676 361 1
676 365 1
676 368 1
676 377 1
676 380 1
676 383 1
676 384 1
676 386 1
676 400 1
676 404 1
676 407 1
676 408 1
676 416 1
676 420 1
676 434 1
676 437 1
676 441 1
676 450 1
676 452 1
676 453 1
676 454 1
676 473 1
676 485 1
676 489 1
676 491 1
676 492 1
676 493 1
676 494 1
676 495 1
676 501 1
676 509 1
676 511 1
676 513 1
676 516 1
676 520 1
676 531 1
676 532 1
676 533 1
676 534 1
676 542 1
676 560 1
676 561 1
676 565 1
676 566 1
676 574 1
676 579 1
676 582 1
676 583 1
676 585 1
676 591 1
676 608 1
676 616 1
676 619 1
676 625 1
676 646 1
676 653 1
676 656 1
676 658 1
676 662 1
676 664 1
676 667 1
676 679 1
676 687 1
676 696 1
677 8 1
677 9 1
677 14 1
677 17 1
677 21 1
677 25 1
677 26 1
677 34 1
677 37 1
677 43 1
677 44 1
677 64 1
677 66 1
677 79 1
677 86 1
677 91 1
677 93 1
677 97 1
677 99 1
677 111 1
677 119 1
677 121 1
677 124 1
677 127 1
677 129 1
677 144 1
677 149 1
677 158 1
677 159 1
677 161 1
677 163 1
677 174 1
677 175 1
677 180 1
677 186 1
677 198 1
677 205 1
677 206 1
677 207 1
677 209 1
677 212 1
677 213 1
677 215 1
677 217 1
677 219 1
677 224 1
677 234 1
677 241 1
677 244 1
677 250 1
677 266 1
677 270 1
677 276 1
677 277 1
677 292 1
677 293 1
677 294 1
677 299 1
677 302 1
677 306 1
677 308 1
677 309 1
677 310 1
677 315 1
677 317 1
677 327 1
677 333 1
677 335 1
677 336 1
677 338 1
677 348 1
677 357 1
677 359 1
677 362 1
677 363 1
677 364 1
677 365 1
677 369 1
677 370 1
677 372 1
677 376 1
677 382 1
677 386 1
677 391 1
677 397 1
677 401 1
677 407 1
677 410 1
677 421 1
677 422 1
677 423 1
677 424 1
677 425 1
677 427 1
677 430 1
677 450 1
677 457 1
677 470 1
677 471 1
677 473 1
677 478 1
677 482 1
677 485 1
677 487 1
677 496 1
677 498 1
677 517 1
677 522 1
677 524 1
677 531 1
677 534 1
677 546 1
677 547 1
677 548 1
677 549 1
677 554 1
677 557 1
677 560 1
677 563 1
677 569 1
677 572 1
677 577 1
677 581 1
677 582 1
677 584 1
677 590 1
677 601 1
677 602 1
677 604 1
677 606 1
677 617 1
677 620 1
677 624 1
677 628 1
677 629 1
677 633 1
677 642 1
677 646 1
677 653 1
677 655 1
677 661 1
677 665 1
677 670 1
677 671 1
677 674 1
677 678 1
677 685 1
677 688 1
677 689 1
677 690 1
677 693 1
677 695 1
678 4 1
678 8 1
678 23 1
678 25 1
678 29 1
678 34 1
678 37 1
678 40 1
678 45 1
678 50 1
678 52 1
678 61 1
678 67 1
678 70 1
678 72 1
678 76 1
678 79 1
678 81 1
678 83 1
678 98 1
678 101 1
678 122 1
678 129 1
678 130 1
678 134 1
678 140 1
678 145 1
678 151 1
678 156 1
678 163 1
678 171 1
678 185 1
678 195 1
678 199 1
678 201 1
678 204 1
678 205 1
678 210 1
678 218 1
678 221 1
678 223 1
678 230 1
678 231 1
678 236 1
678 238 1
678 250 1
678 252 1
678 254 1
678 260 1
678 271 1
678 274 1
678 277 1
678 285 1
678 287 1
678 292 1
678 297 1
678 316 1
678 330 1
678 336 1
678 340 1
678 341 1
678 344 1
678 354 1
678 355 1
678 359 1
678 367 1
678 372 1
678 379 1
678 380 1
678 386 1
678 391 1
678 396 1
678 399 1
678 401 1
678 412 1
678 413 1
678 418 1
678 427 1
678 428 1
678 443 1
678 449 1
678 468 1
678 469 1
678 476 1
678 479 1
678 481 1
678 483 1
678 496 1
678 497 1
678 498 1
678 500 1
678 512 1
678 513 1
678 518 1
678 523 1
678 527 1
678 532 1
678 534 1
678 538 1
678 550 1
678 551 1
678 555 1
678 558 1
678 561 1
678 571 1
678 573 1
678 576 1
678 581 1
678 594 1
678 595 1
678 601 1
678 608 1
678 614 1
678 616 1
678 618 1
678 622 1
678 623 1
678 627 1
678 628 1
678 638 1
678 639 1
678 648 1
678 658 1
678 667 1
678 668 1
678 670 1
678 673 1
678 677 1
678 687 1
678 689 1
678 699 1
678 700 1
679 8 1
679 15 1
679 25 1
679 28 1
679 31 1
679 34 1
679 38 1
679 41 1
679 43 1
679 52 1
679 67 1
679 69 1
679 70 1
679 73 1
679 75 1
679 78 1
679 87 1
679 88 1
679 90 1
679 91 1
679 98 1
679 101 1
679 103 1
679 122 1
679 124 1
679 133 1
679 137 1
679 141 1
679 142 1
679 145 1
679 150 1
679 154 1
679 159 1
679 170 1
679 177 1
679 180 1
679 184 1
679 197 1
679 198 1
679 199 1
679 203 1
679 205 1
679 212 1
679 218 1
679 221 1
679 227 1
679 235 1
679 239 1
679 240 1
679 246 1
679 248 1
679 254 1
679 256 1
679 260 1
679 272 1
679 273 1
679 275 1
679 280 1
679 283 1
679 286 1
679 287 1
679 292 1
679 296 1
679 297 1
679 310 1
679 317 1
679 318 1
679 332 1
679 335 1
679 336 1
679 337 1
679 347 1
679 352 1
679 355 1
679 360 1
679 364 1
679 365 1
679 371 1
679 376 1
679 382 1
679 384 1
679 387 1
679 389 1
679 399 1
679 400 1
679 403 1
679 407 1
679 410 1
679 412 1
679 413 1
679 420 1
679 427 1
679 428 1
679 434 1
679 435 1
679 441 1
679 449 1
679 454 1
679 456 1
679 462 1
679 464 1
679 472 1
679 477 1
679 486 1
679 488 1
679 492 1
679 494 1
679 498 1
679 506 1
679 518 1
679 521 1
679 523 1
679 527 1
679 530 1
679 541 1
679 547 1
679 557 1
679 558 1
679 562 1
679 568 1
679 570 1
679 573 1
679 575 1
679 579 1
679 587 1
679 598 1
679 601 1
679 603 1
679 606 1
679 607 1
679 608 1
679 609 1
679 616 1
679 620 1
679 628 1
679 632 1
679 634 1
679 642 1
679 657 1
679 665 1
679 667 1
679 670 1
679 676 1
680 4 1
680 16 1
680 19 1
680 22 1
680 29 1
680 39 1
680 42 1
680 43 1
680 44 1
680 45 1
680 46 1
680 53 1
680 58 1
680 59 1
680 61 1
680 62 1
680 68 1
680 70 1
680 88 1
680 90 1
680 92 1
680 109 1
680 112 1
680 122 1
680 125 1
680 130 1
680 138 1
680 140 1
680 155 1
680 156 1
680 157 1
680 158 1
680 165 1
680 178 1
680 180 1
680 184 1
680 186 1
680 194 1
680 197 1
680 202 1
680 208 1
680 209 1
680 214 1
680 223 1
680 232 1
680 234 1
680 236 1
680 240 1
680 249 1
680 266 1
680 269 1
680 271 1
680 278 1
680 281 1
680 284 1
680 289 1
680 291 1
680 294 1
680 297 1
680 305 1
680 308 1
680 310 1
680 323 1
680 328 1
680 329 1
680 331 1
680 335 1
680 337 1
680 338 1
680 339 1
680 341 1
680 349 1
680 350 1
680 360 1
680 368 1
680 375 1
680 376 1
680 377 1
680 378 1
680 383 1
680 392 1
680 394 1
680 400 1
680 405 1
680 420 1
680 421 1
680 424 1
680 427 1
680 432 1
680 436 1
680 439 1
680 440 1
680 444 1
680 451 1
680 454 1
680 455 1
680 458 1
680 477 1
680 480 1
680 482 1
680 483 1
680 484 1
680 494 1
680 497 1
680 502 1
680 507 1
680 508 1
680 510 1
680 534 1
680 535 1
680 540 1
680 541 1
680 544 1
680 554 1
680 555 1
680 565 1
680 566 1
680 573 1
680 587 1
680 588 1
680 590 1
680 593 1
680 597 1
680 598 1
680 599 1
680 600 1
680 602 1
680 608 1
680 609 1
680 614 1
680 618 1
680 619 1
680 622 1
680 635 1
680 639 1
680 646 1
680 647 1
680 648 1
680 649 1
680 651 1
680 656 1
680 659 1
680 666 1
680 683 1
680 684 1
680 688 1
680 690 1
681 2 1
681 6 1
681 8 1
681 9 1
681 10 1
681 16 1
681 22 1
681 23 1
681 25 1
681 31 1
681 35 1
681 36 1
681 37 1
681 38 1
681 51 1
681 55 1
681 58 1
681 60 1
681 69 1
681 72 1
681 75 1
681 77 1
681 87 1
681 88 1
681 92 1
681 98 1
681 101 1
681 107 1
681 116 1
681 123 1
681 129 1
681 131 1
681 134 1
681 136 1
681 139 1
681 141 1
681 148 1
681 151 1
681 163 1
681 164 1
681 173 1
681 183 1
681 184 1
681 190 1
681 193 1
681 195 1
681 201 1
681 208 1
681 210 1
681 212 1
681 215 1
681 219 1
681 224 1
681 228 1
681 232 1
681 239 1
681 240 1
681 241 1
681 244 1
681 245 1
681 246 1
681 254 1
681 260 1
681 265 1
681 266 1
681 269 1
681 273 1
681 274 1
681 292 1
681 297 1
681 298 1
681 300 1
681 301 1
681 309 1
681 311 1
681 312 1
681 314 1
681 318 1
681 319 1
681 321 1
681 324 1
681 325 1
681 329 1
681 335 1
681 337 1
681 340 1
681 341 1
681 349 1
681 350 1
681 352 1
681 355 1
681 357 1
681 358 1
681 362 1
681 365 1
681 372 1
681 373 1
681 378 1
681 388 1
681 395 1
681 397 1
681 420 1
681 424 1
681 430 1
681 439 1
681 444 1
681 451 1
681 453 1
681 455 1
681 459 1
681 463 1
681 472 1
681 477 1
681 478 1
681 494 1
681 502 1
681 503 1
681 514 1
681 516 1
681 525 1
681 553 1
681 555 1
681 558 1
681 570 1
681 571 1
681 579 1
681 582 1
681 590 1
681 591 1
681 592 1
681 594 1
681 602 1
681 604 1
681 610 1
681 618 1
681 620 1
681 622 1
681 626 1
681 629 1
681 636 1
681 648 1
681 651 1
681 654 1
681 686 1
681 691 1
681 699 1
682 7 1
682 9 1
682 15 1
682 19 1
682 20 1
682 30 1
682 36 1
682 44 1
682 45 1
682 57 1
682 58 1
682 61 1
682 63 1
682 70 1
682 73 1
682 79 1
682 82 1
682 83 1
682 89 1
682 92 1
682 93 1
682 95 1
682 98 1
682 107 1
682 108 1
682 112 1
682 114 1
682 116 1
682 117 1
682 119 1
682 129 1
682 130 1
682 133 1
682 137 1
682 142 1
682 146 1
682 149 1
682 156 1
682 158 1
682 160 1
682 167 1
682 175 1
682 178 1
682 180 1
682 187 1
682 188 1
682 190 1
682 215 1
682 216 1
682 218 1
682 224 1
682 227 1
682 228 1
682 235 1
682 244 1
682 247 1
682 259 1
682 279 1
682 280 1
682 288 1
682 293 1
682 301 1
682 302 1
682 317 1
682 329 1
682 351 1
682 355 1
682 356 1
682 362 1
682 363 1
682 377 1
682 379 1
682 384 1
682 385 1
682 394 1
682 408 1
682 409 1
682 422 1
682 425 1
682 431 1
682 437 1
682 438 1
682 446 1
682 455 1
682 456 1
682 462 1
682 464 1
682 465 1
682 479 1
682 481 1
682 484 1
682 485 1
682 489 1
682 490 1
682 492 1
682 502 1
682 504 1
682 511 1
682 512 1
682 513 1
682 516 1
682 518 1
682 526 1
682 532 1
682 535 1
682 540 1
682 541 1
682 542 1
682 544 1
682 550 1
682 566 1
682 595 1
682 596 1
682 600 1
682 607 1
682 632 1
682 642 1
682 648 1
682 650 1
682 652 1
682 653 1
682 658 1
682 660 1
682 662 1
682 664 1
682 667 1
682 675 1
682 686 1
682 691 1
682 697 1
683 5 1
683 10 1
683 12 1
683 16 1
683 30 1
683 43 1
683 49 1
683 67 1
683 69 1
683 74 1
683 75 1
683 84 1
683 86 1
683 89 1
683 93 1
683 98 1
683 115 1
683 117 1
683 119 1
683 121 1
683 125 1
683 128 1
683 133 1
683 143 1
683 145 1
683 149 1
683 161 1
683 162 1
683 170 1
683 172 1
683 178 1
683 179 1
683 188 1
683 189 1
683 197 1
683 207 1
683 219 1
683 221 1
683 224 1
683 226 1
683 240 1
683 245 1
683 249 1
683 258 1
683 260 1
683 262 1
683 263 1
683 268 1
683 270 1
683 271 1
683 272 1
683 277 1
683 283 1
683 286 1
683 292 1
683 301 1
683 302 1
683 303 1
683 306 1
683 309 1
683 315 1
683 330 1
683 333 1
683 335 1
683 337 1
683 338 1
683 347 1
683 350 1
683 352 1
683 355 1
683 358 1
683 360 1
683 361 1
683 365 1
683 369 1
683 370 1
683 371 1
683 372 1
683 376 1
683 380 1
683 381 1
683 383 1
683 385 1
683 387 1
683 390 1
683 397 1
683 398 1
683 399 1
683 404 1
683 406 1
683 407 1
683 416 1
683 417 1
683 420 1
683 429 1
683 431 1
683 434 1
683 435 1
683 441 1
683 443 1
683 447 1
683 462 1
683 476 1
683 477 1
683 482 1
683 484 1
683 486 1
683 491 1
683 495 1
683 498 1
683 507 1
683 508 1
683 519 1
683 532 1
683 541 1
683 553 1
683 557 1
683 558 1
683 565 1
683 566 1
683 573 1
683 583 1
683 584 1
683 588 1
683 591 1
683 592 1
683 593 1
683 594 1
683 599 1
683 607 1
683 608 1
683 616 1
683 619 1
683 626 1
683 628 1
683 630 1
683 635 1
683 643 1
683 644 1
683 648 1
683 658 1
683 659 1
683 660 1
683 661 1
683 662 1
683 668 1
683 680 1
683 684 1
683 695 1
683 698 1
683 700 1
684 5 1
684 15 1
684 24 1
684 26 1
684 34 1
684 40 1
684 44 1
684 66 1
684 67 1
684 79 1
684 90 1
684 93 1
684 97 1
684 105 1
684 107 1
684 111 1
684 112 1
684 113 1
684 122 1
684 128 1
684 138 1
684 140 1
684 143 1
684 154 1
684 155 1
684 169 1
684 171 1
684 173 1
684 177 1
684 181 1
684 206 1
684 210 1
684 216 1
684 230 1
684 247 1
684 249 1
684 250 1
684 252 1
684 255 1
684 256 1
684 257 1
684 261 1
684 262 1
684 273 1
684 279 1
684 283 1
684 306 1
684 309 1
684 310 1
684 317 1
684 335 1
684 336 1
684 343 1
684 362 1
684 367 1
684 369 1
684 371 1
684 374 1
684 379 1
684 402 1
684 403 1
684 405 1
684 409 1
684 412 1
684 413 1
684 419 1
684 420 1
684 427 1
684 438 1
684 449 1
684 454 1
684 457 1
684 460 1
684 463 1
684 465 1
684 466 1
684 467 1
684 472 1
684 473 1
684 481 1
684 483 1
684 484 1
684 488 1
684 489 1
684 490 1
684 491 1
684 492 1
684 493 1
684 500 1
684 516 1
684 524 1
684 525 1
684 528 1
684 536 1
684 542 1
684 546 1
684 548 1
684 550 1
684 556 1
684 558 1
684 563 1
684 569 1
684 570 1
684 575 1
684 591 1
684 594 1
684 597 1
684 598 1
684 599 1
684 606 1
684 616 1
684 623 1
684 633 1
684 641 1
684 643 1
684 648 1
684 656 1
684 664 1
684 666 1
684 669 1
684 672 1
684 680 1
684 683 1
684 685 1
685 1 1
685 2 1
685 4 1
685 6 1
685 13 1
685 15 1
685 21 1
685 25 1
685 35 1
685 36 1
685 37 1
685 38 1
685 39 1
685 41 1
685 44 1
685 50 1
685 52 1
685 62 1
685 68 1
685 82 1
685 86 1
685 88 1
685 92 1
685 94 1
685 96 1
685 107 1
685 139 1
685 142 1
685 145 1
685 151 1
685 155 1
685 161 1
685 169 1
685 170 1
685 178 1
685 182 1
685 187 1
685 194 1
685 198 1
685 201 1
685 214 1
685 219 1
685 230 1
685 244 1
685 246 1
685 248 1
685 249 1
685 256 1
685 264 1
685 265 1
685 272 1
685 276 1
685 286 1
685 293 1
685 296 1
685 300 1
685 309 1
685 312 1
685 315 1
685 318 1
685 319 1
685 321 1
685 323 1
685 326 1
685 328 1
685 330 1
685 336 1
685 341 1
685 344 1
685 345 1
685 346 1
685 348 1
685 355 1
685 363 1
685 364 1
685 365 1
685 373 1
685 379 1
685 381 1
685 387 1
685 393 1
685 412 1
685 427 1
685 430 1
685 432 1
685 436 1
685 444 1
685 448 1
685 453 1
685 454 1
685 457 1
685 467 1
685 472 1
685 474 1
685 480 1
685 495 1
685 502 1
685 507 1
685 510 1
685 511 1
685 519 1
685 532 1
685 535 1
685 536 1
685 539 1
685 541 1
685 555 1
685 556 1
685 557 1
685 568 1
685 570 1
685 572 1
685 579 1
685 584 1
685 589 1
685 598 1
685 600 1
685 601 1
685 607 1
685 608 1
685 617 1
685 619 1
685 620 1
685 621 1
685 624 1
685 643 1
685 648 1
685 650 1
685 659 1
685 664 1
685 667 1
685 669 1
685 673 1
685 677 1
685 684 1
685 695 1
685 697 1
685 698 1
686 1 1
686 5 1
686 9 1
686 16 1
686 17 1
686 22 1
686 25 1
686 26 1
686 29 1
686 30 1
686 41 1
686 42 1
686 46 1
686 49 1
686 51 1
686 52 1
686 61 1
686 71 1
686 83 1
686 102 1
686 107 1
686 109 1
686 112 1
686 117 1
686 122 1
686 135 1
686 141 1
686 144 1
686 145 1
686 148 1
686 153 1
686 156 1
686 157 1
686 162 1
686 175 1
686 176 1
686 180 1
686 185 1
686 186 1
686 187 1
686 191 1
686 197 1
686 202 1
686 215 1
686 218 1
686 219 1
686 223 1
686 226 1
686 229 1
686 238 1
686 244 1
686 245 1
686 250 1
686 257 1
686 270 1
686 274 1
686 276 1
686 280 1
686 283 1
686 287 1
686 301 1
686 304 1
686 317 1
686 318 1
686 322 1
686 326 1
686 328 1
686 338 1
686 339 1
686 347 1
686 349 1
686 354 1
686 362 1
686 366 1
686 372 1
686 373 1
686 381 1
686 382 1
686 390 1
686 392 1
686 400 1
686 403 1
686 409 1
686 416 1
686 421 1
686 424 1
686 425 1
686 428 1
686 432 1
686 436 1
686 444 1
686 447 1
686 449 1
686 466 1
686 478 1
686 479 1
686 491 1
686 493 1
686 496 1
686 499 1
686 501 1
686 513 1
686 523 1
686 535 1
686 536 1
686 543 1
686 553 1
686 554 1
686 555 1
686 559 1
686 564 1
686 573 1
686 580 1
686 581 1
686 592 1
686 594 1
686 595 1
686 600 1
686 601 1
686 610 1
686 620 1
686 625 1
686 627 1
686 636 1
686 640 1
686 641 1
686 642 1
686 645 1
686 646 1
686 650 1
686 653 1
686 663 1
686 669 1
686 672 1
686 675 1
686 681 1
686 682 1
686 687 1
686 697 1
687 4 1
687 5 1
687 8 1
687 9 1
687 16 1
687 23 1
687 25 1
687 29 1
687 31 1
687 32 1
687 37 1
687 41 1
687 45 1
687 53 1
687 57 1
687 61 1
687 62 1
687 68 1
687 69 1
687 70 1
687 71 1
687 80 1
687 81 1
687 84 1
687 85 1
687 89 1
687 94 1
687 110 1
687 111 1
687 115 1
687 116 1
687 123 1
687 127 1
687 128 1
687 131 1
687 132 1
687 133 1
687 136 1
687 155 1
687 159 1
687 165 1
687 168 1
687 169 1
687 171 1
687 176 1
687 180 1
687 181 1
687 193 1
687 207 1
687 208 1
687 216 1
687 218 1
687 223 1
687 224 1
687 232 1
687 234 1
687 235 1
687 236 1
687 244 1
687 248 1
687 252 1
687 256 1
687 257 1
687 265 1
687 268 1
687 271 1
687 272 1
687 283 1
687 284 1
687 289 1
687 293 1
687 297 1
687 304 1
687 310 1
687 316 1
687 318 1
687 319 1
687 328 1
687 332 1
687 336 1
687 337 1
687 341 1
687 345 1
687 348 1
687 356 1
687 357 1
687 359 1
687 361 1
687 362 1
687 366 1
687 370 1
687 374 1
687 375 1
687 376 1
687 379 1
687 380 1
687 381 1
687 388 1
687 389 1
687 398 1
687 407 1
687 416 1
687 417 1
687 419 1
687 421 1
687 423 1
687 438 1
687 439 1
687 448 1
687 452 1
687 456 1
687 457 1
687 459 1
687 467 1
687 471 1
687 476 1
687 477 1
687 487 1
687 488 1
687 492 1
687 498 1
687 505 1
687 512 1
687 514 1
687 523 1
687 525 1
687 533 1
687 535 1
687 538 1
687 541 1
687 545 1
687 553 1
687 554 1
687 555 1
687 562 1
687 564 1
687 566 1
687 570 1
687 571 1
687 576 1
687 584 1
687 590 1
687 610 1
687 611 1
687 630 1
687 634 1
687 638 1
687 639 1
687 640 1
687 642 1
687 649 1
687 651 1
687 656 1
687 662 1
687 665 1
687 670 1
687 672 1
687 676 1
687 678 1
687 686 1
687 690 1
687 694 1
688 7 1
688 8 1
688 17 1
688 21 1
688 26 1
688 27 1
688 31 1
688 34 1
688 37 1
688 39 1
688 41 1
688 44 1
688 45 1
688 51 1
688 52 1
688 53 1
688 55 1
688 59 1
688 62 1
688 64 1
688 70 1
688 74 1
688 77 1
688 93 1
688 104 1
688 106 1
688 114 1
688 122 1
688 128 1
688 131 1
688 134 1
688 136 1
688 140 1
688 141 1
688 144 1
688 148 1
688 155 1
688 158 1
688 159 1
688 161 1
688 163 1
688 176 1
688 178 1
688 180 1
688 181 1
688 185 1
688 187 1
688 190 1
688 191 1
688 194 1
688 196 1
688 199 1
688 206 1
688 208 1
688 212 1
688 214 1
688 216 1
688 230 1
688 240 1
688 242 1
688 243 1
688 245 1
688 246 1
688 258 1
688 263 1
688 265 1
688 274 1
688 275 1
688 278 1
688 292 1
688 296 1
688 303 1
688 304 1
688 311 1
688 319 1
688 322 1
688 329 1
688 330 1
688 343 1
688 349 1
688 354 1
688 357 1
688 358 1
688 362 1
688 367 1
688 368 1
688 376 1
688 378 1
688 388 1
688 414 1
688 417 1
688 422 1
688 423 1
688 424 1
688 438 1
688 445 1
688 449 1
688 455 1
688 463 1
688 468 1
688 469 1
688 470 1
688 483 1
688 486 1
688 497 1
688 500 1
688 508 1
688 509 1
688 514 1
688 517 1
688 518 1
688 526 1
688 529 1
688 532 1
688 534 1
688 539 1
688 541 1
688 545 1
688 550 1
688 552 1
688 555 1
688 558 1
688 559 1
688 562 1
688 566 1
688 576 1
688 581 1
688 582 1
688 585 1
688 590 1
688 595 1
688 598 1
688 601 1
688 612 1
688 615 1
688 624 1
688 625 1
688 647 1
688 649 1
688 657 1
688 658 1
688 671 1
688 677 1
688 680 1
688 700 1
689 1 1
689 14 1
689 33 1
689 47 1
689 52 1
689 53 1
689 57 1
689 70 1
689 73 1
689 75 1
689 76 1
689 85 1
689 87 1
689 89 1
689 90 1
689 100 1
689 107 1
689 111 1
689 112 1
689 118 1
689 120 1
689 122 1
689 124 1
689 127 1
689 128 1
689 136 1
689 141 1
689 146 1
689 149 1
689 153 1
689 159 1
689 171 1
689 173 1
689 175 1
689 180 1
689 182 1
689 184 1
689 189 1
689 193 1
689 196 1
689 203 1
689 205 1
689 211 1
689 224 1
689 227 1
689 231 1
689 237 1
689 245 1
689 258 1
689 262 1
689 271 1
689 278 1
689 279 1
689 281 1
689 283 1
689 284 1
689 299 1
689 301 1
689 303 1
689 317 1
689 318 1
689 323 1
689 327 1
689 328 1
689 330 1
689 342 1
689 347 1
689 351 1
689 354 1
689 357 1
689 358 1
689 361 1
689 364 1
689 366 1
689 371 1
689 376 1
689 392 1
689 402 1
689 408 1
689 411 1
689 417 1
689 420 1
689 421 1
689 422 1
689 428 1
689 431 1
689 441 1
689 442 1
689 443 1
689 444 1
689 445 1
689 451 1
689 457 1
689 461 1
689 464 1
689 467 1
689 474 1
689 476 1
689 482 1
689 483 1
689 485 1
689 494 1
689 502 1
689 504 1
689 506 1
689 507 1
689 513 1
689 514 1
689 517 1
689 518 1
689 519 1
689 524 1
689 526 1
689 544 1
689 556 1
689 562 1
689 563 1
689 566 1
689 568 1
689 570 1
689 574 1
689 578 1
689 581 1
689 587 1
689 592 1
689 595 1
689 596 1
689 610 1
689 611 1
689 612 1
689 613 1
689 614 1
689 619 1
689 622 1
689 628 1
689 639 1
689 642 1
689 646 1
689 648 1
689 649 1
689 650 1
689 655 1
689 661 1
689 669 1
689 677 1
689 678 1
689 692 1
689 693 1
689 694 1
689 696 1
690 4 1
690 5 1
690 11 1
690 12 1
690 15 1
690 17 1
690 23 1
690 28 1
690 31 1
690 33 1
690 35 1
690 52 1
690 74 1
690 78 1
690 84 1
690 88 1
690 96 1
690 99 1
690 104 1
690 107 1
690 109 1
690 113 1
690 117 1
690 124 1
690 133 1
690 135 1
690 139 1
690 141 1
690 163 1
690 169 1
690 174 1
690 184 1
690 192 1
690 208 1
690 211 1
690 214 1
690 229 1
690 230 1
690 232 1
690 234 1
690 235 1
690 236 1
690 237 1
690 239 1
690 243 1
690 245 1
690 253 1
690 255 1
690 256 1
690 257 1
690 263 1
690 267 1
690 270 1
690 287 1
690 291 1
690 296 1
690 299 1
690 300 1
690 303 1
690 307 1
690 308 1
690 324 1
690 327 1
690 334 1
690 335 1
690 340 1
690 350 1
690 352 1
690 358 1
690 364 1
690 372 1
690 376 1
690 379 1
690 390 1
690 394 1
690 395 1
690 404 1
690 409 1
690 410 1
690 412 1
690 413 1
690 417 1
690 420 1
690 434 1
690 436 1
690 447 1
690 452 1
690 454 1
690 459 1
690 464 1
690 469 1
690 472 1
690 475 1
690 479 1
690 484 1
690 487 1
690 490 1
690 495 1
690 497 1
690 504 1
690 513 1
690 516 1
690 519 1
690 523 1
690 525 1
690 528 1
690 531 1
690 534 1
690 539 1
690 544 1
690 553 1
690 557 1
690 559 1
690 561 1
690 562 1
690 571 1
690 584 1
690 585 1
690 593 1
690 598 1
690 599 1
690 603 1
690 610 1
690 611 1
690 616 1
690 618 1
690 625 1
690 639 1
690 651 1
690 653 1
690 662 1
690 665 1
690 670 1
690 674 1
690 677 1
690 680 1
690 687 1
690 700 1
691 3 1
691 7 1
691 15 1
691 16 1
691 18 1
691 20 1
691 26 1
691 30 1
691 31 1
691 36 1
691 40 1
691 41 1
691 43 1
691 48 1
691 57 1
691 61 1
691 78 1
691 83 1
691 87 1
691 93 1
691 95 1
691 113 1
691 119 1
691 120 1
691 122 1
691 124 1
691 128 1
691 129 1
691 132 1
691 134 1
691 135 1
691 141 1
691 147 1
691 150 1
691 156 1
691 159 1
691 160 1
691 162 1
691 163 1
691 165 1
691 168 1
691 175 1
691 181 1
691 182 1
691 183 1
691 200 1
691 203 1
691 206 1
691 213 1
691 215 1
691 224 1
691 232 1
691 234 1
691 243 1
691 247 1
691 250 1
691 252 1
691 256 1
691 258 1
691 262 1
691 265 1
691 267 1
691 268 1
691 274 1
691 276 1
691 277 1
691 282 1
691 283 1
691 286 1
691 287 1
691 291 1
691 295 1
691 297 1
691 312 1
691 321 1
691 326 1
691 330 1
691 331 1
691 335 1
691 336 1
691 338 1
691 343 1
691 344 1
691 350 1
691 351 1
691 358 1
691 362 1
691 372 1
691 380 1
691 389 1
691 391 1
691 396 1
691 408 1
691 420 1
691 426 1
691 428 1
691 444 1
691 448 1
691 451 1
691 457 1
691 465 1
691 467 1
691 472 1
691 476 1
691 477 1
691 494 1
691 497 1
691 505 1
691 507 1
691 513 1
691 514 1
691 520 1
691 524 1
691 537 1
691 539 1
691 553 1
691 557 1
691 558 1
691 561 1
691 564 1
691 566 1
691 569 1
691 573 1
691 576 1
691 578 1
691 581 1
691 590 1
691 591 1
691 592 1
691 593 1
691 609 1
691 611 1
691 613 1
691 618 1
691 625 1
691 627 1
691 628 1
691 634 1
691 635 1
691 637 1
691 640 1
691 643 1
691 644 1
691 646 1
691 648 1
691 649 1
691 659 1
691 663 1
691 665 1
691 668 1
691 675 1
691 681 1
691 682 1
691 696 1
691 698 1
691 699 1
692 3 1
692 4 1
692 14 1
692 21 1
692 23 1
692 24 1
692 42 1
692 43 1
692 47 1
692 49 1
692 54 1
692 57 1
692 60 1
692 68 1
692 70 1
692 71 1
692 72 1
692 73 1
692 75 1
692 79 1
692 89 1
692 92 1
692 96 1
692 98 1
692 111 1
692 114 1
692 115 1
692 120 1
692 122 1
692 128 1
692 136 1
692 142 1
692 147 1
692 151 1
692 152 1
692 159 1
692 168 1
692 172 1
692 174 1
692 175 1
692 183 1
692 184 1
692 186 1
692 191 1
692 206 1
692 207 1
692 211 1
692 215 1
692 223 1
692 227 1
692 228 1
692 239 1
692 240 1
692 241 1
692 253 1
692 254 1
692 256 1
692 266 1
692 267 1
692 268 1
692 273 1
692 282 1
692 283 1
692 287 1
692 290 1
692 313 1
692 319 1
692 321 1
692 322 1
692 324 1
692 329 1
692 334 1
692 335 1
692 337 1
692 343 1
692 344 1
692 350 1
692 359 1
692 360 1
692 370 1
692 372 1
692 377 1
692 388 1
692 393 1
692 398 1
692 400 1
692 410 1
692 417 1
692 419 1
692 422 1
692 423 1
692 434 1
692 438 1
692 446 1
692 448 1
692 450 1
692 460 1
692 462 1
692 472 1
692 475 1
692 478 1
692 479 1
692 484 1
692 486 1
692 493 1
692 494 1
692 498 1
692 502 1
692 504 1
692 505 1
692 508 1
692 513 1
692 523 1
692 528 1
692 532 1
692 533 1
692 538 1
692 542 1
692 555 1
692 556 1
692 559 1
692 561 1
692 564 1
692 582 1
692 586 1
692 587 1
692 596 1
692 602 1
692 603 1
692 608 1
692 618 1
692 621 1
692 626 1
692 645 1
692 647 1
692 650 1
692 652 1
692 653 1
692 654 1
692 658 1
692 663 1
692 689 1
693 5 1
693 10 1
693 21 1
693 27 1
693 28 1
693 31 1
693 38 1
693 43 1
693 46 1
693 51 1
693 59 1
693 62 1
693 64 1
693 66 1
693 68 1
693 72 1
693 74 1
693 81 1
693 85 1
693 87 1
693 90 1
693 91 1
693 97 1
693 99 1
693 101 1
693 108 1
693 113 1
693 114 1
693 116 1
693 118 1
693 126 1
693 136 1
693 142 1
693 161 1
693 165 1
693 170 1
693 173 1
693 180 1
693 190 1
693 192 1
693 193 1
693 195 1
693 199 1
693 200 1
693 213 1
693 216 1
693 221 1
693 222 1
693 237 1
693 242 1
693 243 1
693 247 1
693 255 1
693 260 1
693 263 1
693 265 1
693 268 1
693 269 1
693 273 1
693 286 1
693 290 1
693 294 1
693 295 1
693 303 1
693 308 1
693 311 1
693 317 1
693 320 1
693 328 1
693 331 1
693 334 1
693 340 1
693 342 1
693 345 1
693 353 1
693 362 1
693 370 1
693 374 1
693 376 1
693 382 1
693 392 1
693 410 1
693 415 1
693 418 1
693 424 1
693 435 1
693 437 1
693 440 1
693 442 1
693 445 1
693 457 1
693 468 1
693 474 1
693 475 1
693 476 1
693 496 1
693 499 1
693 507 1
693 508 1
693 513 1
693 516 1
693 517 1
693 531 1
693 534 1
693 535 1
693 542 1
693 546 1
693 556 1
693 562 1
693 570 1
693 572 1
693 578 1
693 583 1
693 589 1
693 602 1
693 604 1
693 605 1
693 615 1
693 616 1
693 617 1
693 618 1
693 625 1
693 632 1
693 636 1
693 637 1
693 641 1
693 645 1
693 648 1
693 650 1
693 666 1
693 668 1
693 671 1
693 677 1
693 689 1
694 13 1
694 16 1
694 21 1
694 22 1
694 28 1
694 30 1
694 43 1
694 60 1
694 70 1
694 76 1
694 81 1
694 83 1
694 88 1
694 93 1
694 98 1
694 99 1
694 100 1
694 106 1
694 108 1
694 113 1
694 117 1
694 120 1
694 124 1
694 128 1
694 135 1
694 136 1
694 137 1
694 138 1
694 146 1
694 170 1
694 176 1
694 181 1
694 195 1
694 200 1
694 216 1
694 224 1
694 225 1
694 242 1
694 243 1
694 254 1
694 260 1
694 266 1
694 274 1
694 276 1
694 283 1
694 289 1
694 292 1
694 297 1
694 298 1
694 306 1
694 307 1
694 309 1
694 311 1
694 319 1
694 324 1
694 332 1
694 336 1
694 339 1
694 348 1
694 351 1
694 356 1
694 364 1
694 369 1
694 379 1
694 388 1
694 398 1
694 403 1
694 411 1
694 421 1
694 426 1
694 427 1
694 428 1
694 436 1
694 438 1
694 452 1
694 464 1
694 470 1
694 482 1
694 486 1
694 488 1
694 490 1
694 495 1
694 504 1
694 505 1
694 518 1
694 520 1
694 525 1
694 528 1
694 531 1
694 538 1
694 544 1
694 547 1
694 554 1
694 558 1
694 562 1
694 571 1
694 585 1
694 590 1
694 593 1
694 595 1
694 601 1
694 603 1
694 608 1
694 613 1
694 627 1
694 638 1
694 642 1
694 643 1
694 646 1
694 647 1
694 651 1
694 655 1
694 660 1
694 665 1
694 668 1
694 671 1
694 672 1
694 674 1
694 687 1
694 689 1
695 2 1
695 4 1
695 5 1
695 7 1
695 8 1
695 14 1
695 16 1
695 21 1
695 24 1
695 25 1
695 26 1
695 34 1
695 39 1
695 40 1
695 42 1
695 44 1
695 45 1
695 48 1
695 49 1
695 59 1
695 64 1
695 69 1
695 72 1
695 75 1
695 76 1
695 81 1
695 82 1
695 86 1
695 88 1
695 89 1
695 92 1
695 98 1
695 100 1
695 101 1
695 102 1
695 105 1
695 109 1
695 114 1
695 120 1
695 133 1
695 134 1
695 135 1
695 139 1
695 141 1
695 158 1
695 162 1
695 168 1
695 171 1
695 172 1
695 173 1
695 174 1
695 178 1
695 179 1
695 186 1
695 192 1
695 204 1
695 214 1
695 217 1
695 224 1
695 225 1
695 227 1
695 228 1
695 233 1
695 234 1
695 235 1
695 241 1
695 242 1
695 247 1
695 254 1
695 255 1
695 259 1
695 262 1
695 265 1
695 268 1
695 275 1
695 277 1
695 279 1
695 286 1
695 289 1
695 291 1
695 295 1
695 301 1
695 304 1
695 305 1
695 308 1
695 315 1
695 322 1
695 325 1
695 339 1
695 341 1
695 342 1
695 343 1
695 344 1
695 352 1
695 354 1
695 359 1
695 363 1
695 365 1
695 368 1
695 369 1
695 371 1
695 372 1
695 380 1
695 390 1
695 392 1
695 399 1
695 402 1
695 403 1
695 407 1
695 408 1
695 410 1
695 418 1
695 426 1
695 428 1
695 435 1
695 437 1
695 439 1
695 441 1
695 448 1
695 461 1
695 464 1
695 469 1
695 474 1
695 483 1
695 486 1
695 491 1
695 501 1
695 502 1
695 503 1
695 512 1
695 516 1
695 534 1
695 537 1
695 546 1
695 548 1
695 557 1
695 558 1
695 569 1
695 573 1
695 579 1
695 581 1
695 583 1
695 593 1
695 596 1
695 601 1
695 603 1
695 605 1
695 607 1
695 608 1
695 612 1
695 613 1
695 614 1
695 619 1
695 620 1
695 630 1
695 650 1
695 651 1
695 656 1
695 665 1
695 666 1
695 670 1
695 671 1
695 674 1
695 677 1
695 683 1
695 685 1
696 7 1
696 8 1
696 17 1
696 25 1
696 28 1
696 31 1
696 32 1
696 35 1
696 41 1
696 44 1
696 51 1
696 54 1
696 88 1
696 91 1
696 101 1
696 104 1
696 114 1
696 122 1
696 147 1
696 151 1
696 155 1
696 158 1
696 160 1
696 163 1
696 165 1
696 171 1
696 173 1
696 175 1
696 176 1
696 181 1
696 185 1
696 193 1
696 204 1
696 208 1
696 211 1
696 213 1
696 215 1
696 216 1
696 220 1
696 222 1
696 223 1
696 231 1
696 238 1
696 240 1
696 241 1
696 243 1
696 246 1
696 248 1
696 249 1
696 256 1
696 259 1
696 277 1
696 281 1
696 291 1
696 301 1
696 303 1
696 306 1
696 315 1
696 318 1
696 319 1
696 320 1
696 324 1
696 340 1
696 341 1
696 344 1
696 351 1
696 359 1
696 361 1
696 364 1
696 365 1
696 369 1
696 372 1
696 375 1
696 380 1
696 383 1
696 394 1
696 401 1
696 402 1
696 404 1
696 411 1
696 421 1
696 422 1
696 427 1
696 429 1
696 430 1
696 434 1
696 435 1
696 438 1
696 444 1
696 448 1
696 453 1
696 455 1
696 457 1
696 459 1
696 462 1
696 470 1
696 480 1
696 483 1
696 485 1
696 492 1
696 497 1
696 498 1
696 501 1
696 503 1
696 511 1
696 513 1
696 519 1
696 525 1
696 527 1
696 529 1
696 531 1
696 532 1
696 535 1
696 536 1
696 540 1
696 546 1
696 547 1
696 552 1
696 554 1
696 555 1
696 556 1
696 562 1
696 572 1
696 577 1
696 578 1
696 579 1
696 593 1
696 597 1
696 599 1
696 600 1
696 602 1
696 627 1
696 628 1
696 630 1
696 632 1
696 634 1
696 639 1
696 647 1
696 649 1
696 651 1
696 652 1
696 654 1
696 657 1
696 668 1
696 669 1
696 671 1
696 673 1
696 676 1
696 689 1
696 691 1
696 700 1
697 2 1
697 3 1
697 9 1
697 15 1
697 19 1
697 22 1
697 24 1
697 25 1
697 28 1
697 30 1
697 39 1
697 43 1
697 46 1
697 47 1
697 48 1
697 51 1
697 52 1
697 53 1
697 64 1
697 65 1
697 66 1
697 72 1
697 81 1
697 87 1
697 95 1
697 97 1
697 99 1
697 100 1
697 102 1
697 105 1
697 111 1
697 112 1
697 117 1
697 122 1
697 129 1
697 131 1
697 142 1
697 146 1
697 148 1
697 161 1
697 167 1
697 171 1
697 172 1
697 177 1
697 187 1
697 192 1
697 199 1
697 201 1
697 204 1
697 216 1
697 222 1
697 224 1
697 226 1
697 236 1
697 239 1
697 257 1
697 268 1
697 270 1
697 273 1
697 280 1
697 282 1
697 285 1
697 286 1
697 288 1
697 293 1
697 294 1
697 300 1
697 301 1
697 302 1
697 303 1
697 304 1
697 308 1
697 310 1
697 311 1
697 312 1
697 320 1
697 322 1
697 325 1
697 326 1
697 328 1
697 330 1
697 334 1
697 336 1
697 348 1
697 352 1
697 357 1
697 361 1
697 367 1
697 381 1
697 382 1
697 384 1
697 389 1
697 393 1
697 395 1
697 410 1
697 420 1
697 421 1
697 427 1
697 431 1
697 434 1
697 435 1
697 438 1
697 439 1
697 441 1
697 448 1
697 449 1
697 451 1
697 452 1
697 453 1
697 455 1
697 457 1
697 460 1
697 468 1
697 469 1
697 470 1
697 493 1
697 494 1
697 497 1
697 500 1
697 501 1
697 504 1
697 506 1
697 508 1
697 516 1
697 518 1
697 521 1
697 523 1
697 524 1
697 525 1
697 526 1
697 530 1
697 531 1
697 533 1
697 535 1
697 538 1
697 541 1
697 551 1
697 552 1
697 554 1
697 555 1
697 556 1
697 559 1
697 562 1
697 569 1
697 573 1
697 576 1
697 577 1
697 589 1
697 593 1
697 594 1
697 595 1
697 596 1
697 598 1
697 602 1
697 606 1
697 614 1
697 616 1
697 617 1
697 619 1
697 624 1
697 626 1
697 640 1
697 644 1
697 646 1
697 659 1
697 662 1
697 666 1
697 667 1
697 668 1
697 670 1
697 682 1
697 685 1
697 686 1
697 698 1
698 5 1
698 8 1
698 9 1
698 13 1
698 14 1
698 18 1
698 20 1
698 22 1
698 24 1
698 26 1
698 30 1
698 40 1
698 46 1
698 49 1
698 53 1
698 65 1
698 66 1
698 67 1
698 74 1
698 82 1
698 85 1
698 87 1
698 96 1
698 98 1
698 111 1
698 118 1
698 119 1
698 120 1
698 123 1
698 127 1
698 128 1
698 131 1
698 133 1
698 136 1
698 137 1
698 160 1
698 164 1
698 170 1
698 172 1
698 174 1
698 177 1
698 178 1
698 180 1
698 187 1
698 189 1
698 190 1
698 192 1
698 196 1
698 208 1
698 213 1
698 214 1
698 227 1
698 231 1
698 240 1
698 245 1
698 259 1
698 260 1
698 262 1
698 265 1
698 266 1
698 268 1
698 275 1
698 276 1
698 279 1
698 281 1
698 282 1
698 283 1
698 286 1
698 289 1
698 291 1
698 295 1
698 297 1
698 300 1
698 306 1
698 326 1
698 331 1
698 343 1
698 349 1
698 351 1
698 361 1
698 362 1
698 374 1
698 388 1
698 402 1
698 406 1
698 408 1
698 410 1
698 411 1
698 412 1
698 414 1
698 417 1
698 421 1
698 425 1
698 428 1
698 432 1
698 439 1
698 443 1
698 448 1
698 449 1
698 458 1
698 461 1
698 469 1
698 471 1
698 475 1
698 476 1
698 490 1
698 493 1
698 507 1
698 513 1
698 520 1
698 530 1
698 538 1
698 539 1
698 544 1
698 551 1
698 554 1
698 558 1
698 559 1
698 563 1
698 570 1
698 572 1
698 575 1
698 576 1
698 578 1
698 584 1
698 589 1
698 591 1
698 594 1
698 608 1
698 609 1
698 614 1
698 625 1
698 628 1
698 634 1
698 644 1
698 659 1
698 660 1
698 661 1
698 665 1
698 666 1
698 667 1
698 670 1
698 673 1
698 683 1
698 685 1
698 691 1
698 697 1
699 1 1
699 4 1
699 5 1
699 18 1
699 22 1
699 25 1
699 33 1
699 36 1
699 38 1
699 40 1
699 43 1
699 44 1
699 50 1
699 51 1
699 53 1
699 56 1
699 57 1
699 62 1
699 64 1
699 68 1
699 73 1
699 82 1
699 89 1
699 91 1
699 92 1
699 97 1
699 119 1
699 122 1
699 126 1
699 132 1
699 140 1
699 145 1
699 165 1
699 166 1
699 167 1
699 168 1
699 172 1
699 179 1
699 188 1
699 189 1
699 190 1
699 196 1
699 201 1
699 202 1
699 204 1
699 206 1
699 209 1
699 210 1
699 217 1
699 223 1
699 231 1
699 242 1
699 254 1
699 260 1
699 266 1
699 270 1
699 275 1
699 288 1
699 289 1
699 290 1
699 292 1
699 306 1
699 309 1
699 314 1
699 320 1
699 322 1
699 361 1
699 366 1
699 370 1
699 378 1
699 391 1
699 399 1
699 402 1
699 413 1
699 414 1
699 427 1
699 430 1
699 440 1
699 449 1
699 451 1
699 455 1
699 456 1
699 463 1
699 471 1
699 472 1
699 476 1
699 484 1
699 493 1
699 501 1
699 503 1
699 506 1
699 507 1
699 508 1
699 515 1
699 528 1
699 531 1
699 541 1
699 557 1
699 562 1
699 565 1
699 568 1
699 571 1
699 576 1
699 582 1
699 583 1
699 585 1
699 606 1
699 611 1
699 619 1
699 623 1
699 635 1
699 636 1
699 643 1
699 647 1
699 653 1
699 655 1
699 660 1
699 661 1
699 665 1
699 667 1
699 671 1
699 678 1
699 681 1
699 691 1
700 1 1
700 7 1
700 11 1
700 23 1
700 26 1
700 27 1
700 29 1
700 35 1
700 39 1
700 46 1
700 47 1
700 55 1
700 58 1
700 65 1
700 69 1
700 71 1
700 72 1
700 73 1
700 75 1
700 78 1
700 82 1
700 91 1
700 92 1
700 104 1
700 111 1
700 114 1
700 125 1
700 129 1
700 130 1
700 136 1
700 151 1
700 160 1
700 168 1
700 172 1
700 181 1
700 183 1
700 185 1
700 187 1
700 189 1
700 193 1
700 201 1
700 205 1
700 222 1
700 239 1
700 242 1
700 243 1
700 247 1
700 251 1
700 254 1
700 257 1
700 265 1
700 267 1
700 268 1
700 270 1
700 287 1
700 300 1
700 320 1
700 321 1
700 334 1
700 337 1
700 339 1
700 341 1
700 346 1
700 353 1
700 356 1
700 360 1
700 361 1
700 366 1
700 372 1
700 380 1
700 383 1
700 398 1
700 405 1
700 409 1
700 414 1
700 418 1
700 421 1
700 426 1
700 430 1
700 435 1
700 443 1
700 453 1
700 458 1
700 472 1
700 474 1
700 475 1
700 477 1
700 483 1
700 486 1
700 495 1
700 496 1
700 500 1
700 503 1
700 508 1
700 514 1
700 520 1
700 523 1
700 525 1
700 528 1
700 536 1
700 545 1
700 552 1
700 555 1
700 562 1
700 567 1
700 568 1
700 575 1
700 579 1
700 580 1
700 585 1
700 588 1
700 596 1
700 598 1
700 599 1
700 606 1
700 617 1
700 621 1
700 623 1
700 626 1
700 635 1
700 640 1
700 641 1
700 642 1
700 643 1
700 645 1
700 646 1
700 647 1
700 648 1
700 660 1
700 662 1
700 663 1
700 664 1
700 665 1
700 672 1
700 675 1
700 678 1
700 683 1
700 688 1
700 690 1
700 696 1
