%%MatrixMarket matrix coordinate integer general
%
300 300 18082
1 2 1
1 3 1
1 8 1
1 9 1
1 12 1
1 19 1
1 24 1
1 26 1
1 27 1
1 28 1
1 30 1
1 31 1
1 41 1
1 43 1
1 50 1
1 67 1
1 79 1
1 84 1
1 85 1
1 92 1
1 101 1
1 105 1
1 106 1
1 107 1
1 108 1
1 110 1
1 112 1
1 114 1
1 118 1
1 126 1
1 129 1
1 130 1
1 133 1
1 135 1
1 139 1
1 140 1
1 141 1
1 148 1
1 157 1
1 164 1
1 165 1
1 168 1
1 169 1
1 170 1
1 177 1
1 178 1
1 191 1
1 194 1
1 195 1
1 200 1
1 212 1
1 233 1
1 241 1
1 242 1
1 246 1
1 249 1
1 253 1
1 257 1
1 258 1
1 263 1
1 276 1
1 278 1
1 289 1
1 291 1
1 292 1
2 1 1
2 8 1
2 9 1
2 14 1
2 18 1
2 19 1
2 27 1
2 32 1
2 33 1
2 41 1
2 49 1
2 61 1
2 63 1
2 67 1
2 71 1
2 73 1
2 76 1
2 78 1
2 82 1
2 83 1
2 84 1
2 99 1
2 102 1
2 110 1
2 111 1
2 115 1
2 134 1
2 142 1
2 152 1
2 153 1
2 154 1
2 167 1
2 174 1
2 183 1
2 184 1
2 190 1
2 191 1
2 192 1
2 196 1
2 199 1
2 209 1
2 218 1
2 224 1
2 226 1
2 228 1
2 237 1
2 240 1
2 243 1
2 245 1
2 249 1
2 254 1
2 258 1
2 266 1
2 268 1
2 271 1
2 285 1
2 290 1
2 291 1
2 299 1
3 1 1
3 6 1
3 8 1
3 14 1
3 18 1
3 20 1
3 25 1
3 27 1
3 33 1
3 34 1
3 41 1
3 45 1
3 46 1
3 50 1
3 57 1
3 62 1
3 63 1
3 74 1
3 83 1
3 86 1
3 87 1
3 94 1
3 95 1
3 97 1
3 105 1
3 113 1
3 114 1
3 116 1
3 124 1
3 131 1
3 136 1
3 145 1
3 146 1
3 149 1
3 150 1
3 151 1
3 158 1
3 163 1
3 175 1
3 183 1
3 184 1
3 191 1
3 193 1
3 199 1
3 200 1
3 202 1
3 204 1
3 207 1
3 210 1
3 218 1
3 223 1
3 228 1
3 232 1
3 233 1
3 245 1
3 273 1
3 274 1
3 279 1
3 280 1
3 288 1
4 10 1
4 20 1
4 22 1
4 30 1
4 32 1
4 35 1
4 39 1
4 40 1
4 46 1
4 54 1
4 56 1
4 60 1
4 66 1
4 70 1
4 78 1
4 84 1
4 86 1
4 90 1
4 95 1
4 100 1
4 103 1
4 104 1
4 109 1
4 111 1
4 117 1
4 121 1
4 127 1
4 133 1
4 138 1
4 139 1
4 141 1
4 146 1
4 153 1
4 154 1
4 155 1
4 156 1
4 157 1
4 168 1
4 170 1
4 173 1
4 180 1
4 184 1
4 187 1
4 213 1
4 220 1
4 221 1
4 222 1
4 242 1
4 253 1
4 254 1
4 259 1
4 275 1
4 283 1
4 291 1
4 292 1
4 294 1
4 295 1
5 9 1
5 16 1
5 20 1
5 29 1
5 34 1
5 39 1
5 47 1
5 53 1
5 58 1
5 70 1
5 73 1
5 75 1
5 78 1
5 80 1
5 81 1
5 89 1
5 90 1
5 93 1
5 97 1
5 106 1
5 108 1
5 115 1
5 118 1
5 126 1
5 134 1
5 137 1
5 139 1
5 144 1
5 145 1
5 150 1
5 157 1
5 170 1
5 181 1
5 185 1
5 195 1
5 196 1
5 211 1
5 214 1
5 217 1
5 219 1
5 229 1
5 233 1
5 240 1
5 241 1
5 242 1
5 246 1
5 247 1
5 248 1
5 250 1
5 253 1
5 256 1
5 264 1
5 266 1
5 269 1
5 275 1
5 279 1
5 281 1
5 290 1
5 294 1
5 298 1
6 3 1
6 15 1
6 21 1
6 31 1
6 36 1
6 46 1
6 57 1
6 62 1
6 69 1
6 73 1
6 74 1
6 76 1
6 77 1
6 80 1
6 81 1
6 86 1
6 90 1
6 94 1
6 95 1
6 101 1
6 105 1
6 108 1
6 114 1
6 122 1
6 124 1
6 133 1
6 136 1
6 140 1
6 142 1
6 154 1
6 159 1
6 167 1
6 169 1
6 171 1
6 172 1
6 181 1
6 185 1
6 187 1
6 189 1
6 190 1
6 202 1
6 206 1
6 207 1
6 211 1
6 215 1
6 216 1
6 219 1
6 220 1
6 225 1
6 235 1
6 239 1
6 246 1
6 247 1
6 253 1
6 255 1
6 256 1
6 262 1
6 265 1
6 266 1
6 267 1
6 283 1
6 286 1
6 290 1
6 295 1
6 297 1
6 300 1
7 11 1
7 21 1
7 22 1
7 30 1
7 35 1
7 45 1
7 49 1
7 51 1
7 56 1
7 57 1
7 71 1
7 79 1
7 81 1
7 83 1
7 86 1
7 90 1
7 94 1
7 96 1
7 97 1
7 98 1
7 101 1
7 102 1
7 104 1
7 105 1
7 107 1
7 117 1
7 124 1
7 128 1
7 133 1
7 136 1
7 145 1
7 149 1
7 152 1
7 153 1
7 167 1
7 168 1
7 169 1
7 172 1
7 177 1
7 180 1
7 181 1
7 183 1
7 189 1
7 191 1
7 194 1
7 195 1
7 197 1
7 204 1
7 212 1
7 216 1
7 240 1
7 244 1
7 250 1
7 253 1
7 256 1
7 257 1
7 258 1
7 263 1
7 269 1
7 270 1
7 271 1
7 273 1
7 277 1
7 279 1
7 283 1
7 286 1
7 289 1
7 297 1
8 1 1
8 2 1
8 3 1
8 15 1
8 20 1
8 22 1
8 23 1
8 32 1
8 36 1
8 43 1
8 44 1
8 45 1
8 52 1
8 55 1
8 59 1
8 67 1
8 68 1
8 83 1
8 84 1
8 88 1
8 89 1
8 94 1
8 95 1
8 100 1
8 101 1
8 104 1
8 105 1
8 111 1
8 112 1
8 118 1
8 121 1
8 123 1
8 125 1
8 130 1
8 132 1
8 136 1
8 137 1
8 139 1
8 143 1
8 152 1
8 155 1
8 156 1
8 166 1
8 170 1
8 172 1
8 193 1
8 197 1
8 203 1
8 208 1
8 209 1
8 211 1
8 212 1
8 213 1
8 217 1
8 219 1
8 223 1
8 225 1
8 226 1
8 231 1
8 234 1
8 236 1
8 238 1
8 240 1
8 248 1
8 255 1
8 256 1
8 257 1
8 261 1
8 262 1
8 263 1
8 267 1
8 268 1
8 269 1
8 277 1
8 280 1
8 285 1
8 286 1
8 295 1
8 298 1
9 1 1
9 2 1
9 5 1
9 14 1
9 21 1
9 40 1
9 58 1
9 65 1
9 69 1
9 71 1
9 79 1
9 86 1
9 87 1
9 88 1
9 90 1
9 97 1
9 99 1
9 111 1
9 112 1
9 113 1
9 119 1
9 127 1
9 128 1
9 141 1
9 151 1
9 157 1
9 161 1
9 179 1
9 181 1
9 185 1
9 196 1
9 199 1
9 207 1
9 223 1
9 233 1
9 236 1
9 237 1
9 238 1
9 241 1
9 242 1
9 243 1
9 246 1
9 247 1
9 253 1
9 257 1
9 259 1
9 263 1
9 267 1
9 268 1
9 273 1
9 276 1
9 281 1
9 282 1
9 283 1
9 287 1
9 296 1
10 4 1
10 12 1
10 17 1
10 29 1
10 32 1
10 37 1
10 38 1
10 40 1
10 54 1
10 57 1
10 59 1
10 61 1
10 66 1
10 69 1
10 72 1
10 78 1
10 79 1
10 87 1
10 88 1
10 90 1
10 92 1
10 96 1
10 106 1
10 108 1
10 109 1
10 112 1
10 114 1
10 125 1
10 133 1
10 135 1
10 136 1
10 140 1
10 149 1
10 150 1
10 155 1
10 166 1
10 171 1
10 172 1
10 173 1
10 174 1
10 176 1
10 178 1
10 185 1
10 198 1
10 200 1
10 201 1
10 208 1
10 213 1
10 215 1
10 217 1
10 220 1
10 225 1
10 232 1
10 239 1
10 240 1
10 247 1
10 251 1
10 252 1
10 259 1
10 263 1
10 265 1
10 267 1
10 268 1
10 271 1
10 272 1
10 273 1
10 277 1
10 284 1
10 292 1
10 293 1
10 295 1
11 7 1
11 12 1
11 16 1
11 23 1
11 38 1
11 44 1
11 48 1
11 55 1
11 57 1
11 58 1
11 59 1
11 75 1
11 81 1
11 88 1
11 90 1
11 100 1
11 104 1
11 122 1
11 125 1
11 130 1
11 131 1
11 132 1
11 134 1
11 136 1
11 142 1
11 144 1
11 150 1
11 158 1
11 167 1
11 171 1
11 173 1
11 176 1
11 178 1
11 180 1
11 181 1
11 182 1
11 187 1
11 191 1
11 195 1
11 197 1
11 199 1
11 201 1
11 202 1
11 205 1
11 217 1
11 220 1
11 225 1
11 227 1
11 232 1
11 233 1
11 238 1
11 240 1
11 244 1
11 246 1
11 257 1
11 258 1
11 262 1
11 269 1
11 278 1
11 286 1
11 288 1
11 294 1
11 295 1
11 296 1
12 1 1
12 10 1
12 11 1
12 17 1
12 19 1
12 20 1
12 23 1
12 38 1
12 40 1
12 42 1
12 67 1
12 69 1
12 70 1
12 72 1
12 74 1
12 80 1
12 84 1
12 94 1
12 97 1
12 100 1
12 102 1
12 105 1
12 117 1
12 119 1
12 120 1
12 128 1
12 135 1
12 136 1
12 137 1
12 144 1
12 155 1
12 162 1
12 164 1
12 165 1
12 178 1
12 179 1
12 181 1
12 188 1
12 189 1
12 190 1
12 191 1
12 195 1
12 210 1
12 212 1
12 213 1
12 219 1
12 220 1
12 222 1
12 227 1
12 228 1
12 232 1
12 233 1
12 234 1
12 235 1
12 236 1
12 237 1
12 239 1
12 240 1
12 254 1
12 262 1
12 263 1
12 266 1
12 271 1
12 278 1
13 20 1
13 28 1
13 30 1
13 32 1
13 45 1
13 47 1
13 51 1
13 55 1
13 58 1
13 63 1
13 76 1
13 81 1
13 82 1
13 85 1
13 91 1
13 94 1
13 105 1
13 107 1
13 110 1
13 112 1
13 113 1
13 115 1
13 118 1
13 120 1
13 121 1
13 129 1
13 130 1
13 134 1
13 135 1
13 138 1
13 142 1
13 150 1
13 152 1
13 156 1
13 157 1
13 172 1
13 174 1
13 177 1
13 186 1
13 190 1
13 192 1
13 197 1
13 201 1
13 202 1
13 205 1
13 233 1
13 242 1
13 244 1
13 253 1
13 265 1
13 267 1
13 279 1
13 285 1
13 287 1
13 288 1
13 295 1
13 296 1
13 297 1
13 298 1
14 2 1
14 3 1
14 9 1
14 18 1
14 28 1
14 31 1
14 35 1
14 40 1
14 43 1
14 48 1
14 51 1
14 53 1
14 54 1
14 55 1
14 60 1
14 66 1
14 72 1
14 77 1
14 85 1
14 87 1
14 89 1
14 90 1
14 98 1
14 101 1
14 116 1
14 124 1
14 134 1
14 139 1
14 148 1
14 156 1
14 162 1
14 163 1
14 171 1
14 172 1
14 194 1
14 196 1
14 198 1
14 201 1
14 206 1
14 211 1
14 250 1
14 263 1
14 274 1
14 277 1
14 278 1
14 281 1
14 286 1
14 287 1
14 288 1
14 289 1
14 295 1
15 6 1
15 8 1
15 30 1
15 41 1
15 48 1
15 54 1
15 58 1
15 59 1
15 60 1
15 63 1
15 72 1
15 73 1
15 81 1
15 89 1
15 111 1
15 115 1
15 122 1
15 146 1
15 147 1
15 154 1
15 165 1
15 171 1
15 172 1
15 183 1
15 185 1
15 194 1
15 197 1
15 200 1
15 204 1
15 205 1
15 210 1
15 211 1
15 216 1
15 219 1
15 230 1
15 237 1
15 245 1
15 246 1
15 249 1
15 255 1
15 257 1
15 265 1
15 268 1
15 269 1
15 271 1
15 280 1
15 284 1
15 288 1
15 294 1
16 5 1
16 11 1
16 20 1
16 21 1
16 25 1
16 27 1
16 36 1
16 44 1
16 47 1
16 49 1
16 57 1
16 62 1
16 64 1
16 65 1
16 67 1
16 68 1
16 77 1
16 94 1
16 106 1
16 113 1
16 114 1
16 119 1
16 124 1
16 128 1
16 132 1
16 139 1
16 143 1
16 146 1
16 149 1
16 157 1
16 162 1
16 163 1
16 173 1
16 176 1
16 178 1
16 182 1
16 186 1
16 209 1
16 210 1
16 214 1
16 226 1
16 235 1
16 237 1
16 238 1
16 241 1
16 245 1
16 248 1
16 250 1
16 252 1
16 266 1
16 268 1
16 270 1
16 282 1
17 10 1
17 12 1
17 18 1
17 20 1
17 21 1
17 23 1
17 25 1
17 26 1
17 30 1
17 34 1
17 35 1
17 37 1
17 39 1
17 40 1
17 42 1
17 43 1
17 47 1
17 50 1
17 67 1
17 80 1
17 84 1
17 89 1
17 92 1
17 95 1
17 101 1
17 105 1
17 108 1
17 109 1
17 116 1
17 122 1
17 131 1
17 136 1
17 138 1
17 139 1
17 161 1
17 163 1
17 164 1
17 169 1
17 182 1
17 188 1
17 195 1
17 198 1
17 201 1
17 203 1
17 206 1
17 224 1
17 236 1
17 250 1
17 252 1
17 256 1
17 258 1
17 259 1
17 273 1
17 278 1
17 279 1
17 280 1
17 286 1
17 289 1
17 291 1
18 2 1
18 3 1
18 14 1
18 17 1
18 20 1
18 22 1
18 25 1
18 31 1
18 32 1
18 35 1
18 39 1
18 42 1
18 43 1
18 46 1
18 57 1
18 61 1
18 62 1
18 66 1
18 67 1
18 69 1
18 76 1
18 77 1
18 83 1
18 103 1
18 105 1
18 108 1
18 110 1
18 114 1
18 117 1
18 125 1
18 128 1
18 137 1
18 138 1
18 140 1
18 141 1
18 143 1
18 146 1
18 147 1
18 151 1
18 167 1
18 172 1
18 173 1
18 177 1
18 178 1
18 193 1
18 213 1
18 221 1
18 244 1
18 249 1
18 253 1
18 269 1
18 275 1
18 276 1
18 277 1
18 278 1
18 283 1
18 293 1
18 294 1
18 299 1
19 1 1
19 2 1
19 12 1
19 23 1
19 32 1
19 34 1
19 40 1
19 43 1
19 51 1
19 64 1
19 72 1
19 73 1
19 75 1
19 82 1
19 83 1
19 91 1
19 93 1
19 95 1
19 96 1
19 97 1
19 105 1
19 107 1
19 109 1
19 110 1
19 116 1
19 117 1
19 118 1
19 133 1
19 136 1
19 138 1
19 140 1
19 141 1
19 142 1
19 152 1
19 153 1
19 154 1
19 161 1
19 174 1
19 185 1
19 187 1
19 188 1
19 191 1
19 192 1
19 198 1
19 204 1
19 208 1
19 209 1
19 211 1
19 213 1
19 214 1
19 215 1
19 219 1
19 221 1
19 231 1
19 233 1
19 242 1
19 245 1
19 251 1
19 257 1
19 258 1
19 269 1
19 271 1
19 277 1
19 286 1
19 292 1
20 3 1
20 4 1
20 5 1
20 8 1
20 12 1
20 13 1
20 16 1
20 17 1
20 18 1
20 23 1
20 24 1
20 32 1
20 36 1
20 37 1
20 40 1
20 49 1
20 71 1
20 75 1
20 91 1
20 102 1
20 107 1
20 108 1
20 118 1
20 119 1
20 122 1
20 125 1
20 128 1
20 129 1
20 132 1
20 134 1
20 136 1
20 141 1
20 162 1
20 171 1
20 174 1
20 178 1
20 183 1
20 199 1
20 202 1
20 203 1
20 205 1
20 206 1
20 220 1
20 222 1
20 224 1
20 229 1
20 239 1
20 243 1
20 246 1
20 247 1
20 249 1
20 252 1
20 258 1
20 260 1
20 261 1
20 262 1
20 265 1
20 270 1
20 273 1
20 276 1
20 278 1
20 285 1
20 286 1
20 291 1
20 298 1
20 300 1
21 6 1
21 7 1
21 9 1
21 16 1
21 17 1
21 32 1
21 35 1
21 39 1
21 67 1
21 69 1
21 70 1
21 78 1
21 81 1
21 82 1
21 88 1
21 89 1
21 93 1
21 95 1
21 97 1
21 98 1
21 101 1
21 102 1
21 110 1
21 116 1
21 118 1
21 121 1
21 124 1
21 132 1
21 136 1
21 139 1
21 140 1
21 143 1
21 147 1
21 148 1
21 159 1
21 162 1
21 165 1
21 170 1
21 178 1
21 182 1
21 185 1
21 186 1
21 191 1
21 192 1
21 193 1
21 195 1
21 204 1
21 205 1
21 222 1
21 229 1
21 232 1
21 239 1
21 240 1
21 241 1
21 255 1
21 260 1
21 263 1
21 268 1
21 269 1
21 270 1
21 273 1
21 283 1
21 292 1
21 294 1
21 297 1
21 300 1
22 4 1
22 7 1
22 8 1
22 18 1
22 35 1
22 38 1
22 39 1
22 43 1
22 48 1
22 55 1
22 58 1
22 64 1
22 65 1
22 68 1
22 75 1
22 76 1
22 78 1
22 98 1
22 102 1
22 106 1
22 107 1
22 113 1
22 124 1
22 125 1
22 126 1
22 128 1
22 129 1
22 130 1
22 145 1
22 151 1
22 152 1
22 159 1
22 165 1
22 168 1
22 170 1
22 177 1
22 181 1
22 183 1
22 185 1
22 193 1
22 198 1
22 219 1
22 222 1
22 225 1
22 227 1
22 228 1
22 238 1
22 240 1
22 250 1
22 252 1
22 256 1
22 273 1
22 277 1
22 278 1
22 279 1
22 289 1
23 8 1
23 11 1
23 12 1
23 17 1
23 19 1
23 20 1
23 26 1
23 32 1
23 35 1
23 42 1
23 44 1
23 47 1
23 55 1
23 60 1
23 61 1
23 72 1
23 79 1
23 85 1
23 88 1
23 92 1
23 97 1
23 102 1
23 114 1
23 124 1
23 126 1
23 138 1
23 141 1
23 142 1
23 146 1
23 158 1
23 166 1
23 170 1
23 179 1
23 180 1
23 183 1
23 186 1
23 188 1
23 189 1
23 190 1
23 194 1
23 205 1
23 208 1
23 217 1
23 221 1
23 226 1
23 228 1
23 229 1
23 234 1
23 241 1
23 254 1
23 255 1
23 268 1
23 276 1
23 279 1
23 293 1
23 297 1
23 300 1
24 1 1
24 20 1
24 27 1
24 28 1
24 32 1
24 33 1
24 37 1
24 39 1
24 42 1
24 43 1
24 44 1
24 48 1
24 51 1
24 54 1
24 65 1
24 77 1
24 78 1
24 79 1
24 80 1
24 86 1
24 88 1
24 89 1
24 90 1
24 93 1
24 111 1
24 117 1
24 121 1
24 122 1
24 123 1
24 129 1
24 132 1
24 139 1
24 141 1
24 151 1
24 162 1
24 163 1
24 166 1
24 173 1
24 177 1
24 192 1
24 193 1
24 194 1
24 221 1
24 231 1
24 238 1
24 241 1
24 250 1
24 261 1
24 262 1
24 283 1
24 285 1
24 289 1
24 295 1
24 296 1
24 297 1
24 298 1
25 3 1
25 16 1
25 17 1
25 18 1
25 26 1
25 32 1
25 35 1
25 42 1
25 43 1
25 46 1
25 47 1
25 67 1
25 73 1
25 83 1
25 86 1
25 102 1
25 104 1
25 107 1
25 124 1
25 128 1
25 132 1
25 133 1
25 143 1
25 151 1
25 177 1
25 178 1
25 186 1
25 192 1
25 196 1
25 197 1
25 200 1
25 205 1
25 216 1
25 223 1
25 228 1
25 229 1
25 233 1
25 239 1
25 242 1
25 248 1
25 250 1
25 252 1
25 255 1
25 257 1
25 262 1
25 263 1
25 286 1
25 294 1
25 295 1
25 296 1
25 300 1
26 1 1
26 17 1
26 23 1
26 25 1
26 27 1
26 31 1
26 39 1
26 46 1
26 52 1
26 63 1
26 70 1
26 71 1
26 75 1
26 76 1
26 82 1
26 89 1
26 90 1
26 93 1
26 97 1
26 99 1
26 100 1
26 103 1
26 122 1
26 126 1
26 131 1
26 137 1
26 141 1
26 144 1
26 145 1
26 148 1
26 149 1
26 166 1
26 168 1
26 170 1
26 172 1
26 173 1
26 179 1
26 183 1
26 196 1
26 202 1
26 206 1
26 212 1
26 218 1
26 219 1
26 224 1
26 225 1
26 231 1
26 232 1
26 235 1
26 239 1
26 244 1
26 249 1
26 252 1
26 253 1
26 260 1
26 265 1
26 275 1
26 278 1
26 280 1
26 285 1
26 291 1
26 292 1
26 295 1
26 298 1
26 299 1
26 300 1
27 1 1
27 2 1
27 3 1
27 16 1
27 24 1
27 26 1
27 38 1
27 51 1
27 65 1
27 68 1
27 78 1
27 81 1
27 82 1
27 92 1
27 95 1
27 103 1
27 109 1
27 131 1
27 145 1
27 156 1
27 158 1
27 172 1
27 177 1
27 183 1
27 184 1
27 190 1
27 200 1
27 209 1
27 213 1
27 215 1
27 222 1
27 223 1
27 232 1
27 236 1
27 242 1
27 245 1
27 247 1
27 248 1
27 250 1
27 253 1
27 266 1
27 269 1
27 272 1
27 283 1
27 288 1
27 289 1
27 291 1
27 299 1
28 1 1
28 13 1
28 14 1
28 24 1
28 33 1
28 34 1
28 38 1
28 40 1
28 42 1
28 47 1
28 60 1
28 61 1
28 62 1
28 69 1
28 70 1
28 73 1
28 75 1
28 85 1
28 86 1
28 87 1
28 94 1
28 101 1
28 103 1
28 104 1
28 117 1
28 121 1
28 123 1
28 124 1
28 131 1
28 132 1
28 140 1
28 144 1
28 150 1
28 152 1
28 154 1
28 170 1
28 173 1
28 176 1
28 178 1
28 181 1
28 182 1
28 190 1
28 192 1
28 193 1
28 199 1
28 202 1
28 214 1
28 235 1
28 238 1
28 244 1
28 254 1
28 258 1
28 262 1
28 275 1
28 278 1
28 290 1
28 297 1
28 300 1
29 5 1
29 10 1
29 34 1
29 35 1
29 39 1
29 55 1
29 58 1
29 59 1
29 60 1
29 62 1
29 66 1
29 72 1
29 74 1
29 76 1
29 77 1
29 78 1
29 84 1
29 89 1
29 93 1
29 95 1
29 104 1
29 105 1
29 110 1
29 111 1
29 113 1
29 114 1
29 115 1
29 128 1
29 130 1
29 131 1
29 135 1
29 137 1
29 145 1
29 148 1
29 150 1
29 152 1
29 156 1
29 168 1
29 187 1
29 189 1
29 202 1
29 204 1
29 212 1
29 233 1
29 243 1
29 244 1
29 246 1
29 253 1
29 259 1
29 262 1
29 275 1
29 282 1
29 283 1
29 293 1
29 299 1
30 1 1
30 4 1
30 7 1
30 13 1
30 15 1
30 17 1
30 35 1
30 38 1
30 49 1
30 50 1
30 54 1
30 60 1
30 61 1
30 64 1
30 68 1
30 70 1
30 83 1
30 84 1
30 86 1
30 89 1
30 90 1
30 98 1
30 107 1
30 108 1
30 120 1
30 121 1
30 131 1
30 133 1
30 144 1
30 151 1
30 157 1
30 159 1
30 165 1
30 173 1
30 174 1
30 182 1
30 188 1
30 191 1
30 197 1
30 198 1
30 207 1
30 214 1
30 218 1
30 226 1
30 236 1
30 239 1
30 242 1
30 243 1
30 247 1
30 257 1
30 261 1
30 273 1
30 275 1
30 282 1
30 283 1
30 289 1
30 292 1
30 297 1
31 1 1
31 6 1
31 14 1
31 18 1
31 26 1
31 34 1
31 37 1
31 43 1
31 65 1
31 74 1
31 75 1
31 76 1
31 94 1
31 95 1
31 112 1
31 114 1
31 117 1
31 119 1
31 121 1
31 123 1
31 124 1
31 127 1
31 132 1
31 134 1
31 145 1
31 146 1
31 147 1
31 148 1
31 149 1
31 150 1
31 156 1
31 162 1
31 164 1
31 167 1
31 172 1
31 174 1
31 177 1
31 178 1
31 180 1
31 183 1
31 196 1
31 207 1
31 215 1
31 221 1
31 223 1
31 230 1
31 235 1
31 236 1
31 243 1
31 245 1
31 246 1
31 248 1
31 250 1
31 267 1
31 270 1
31 282 1
31 284 1
31 287 1
31 289 1
31 292 1
32 2 1
32 4 1
32 8 1
32 10 1
32 13 1
32 18 1
32 19 1
32 20 1
32 21 1
32 23 1
32 24 1
32 25 1
32 38 1
32 50 1
32 65 1
32 71 1
32 77 1
32 80 1
32 88 1
32 89 1
32 92 1
32 96 1
32 98 1
32 100 1
32 101 1
32 104 1
32 105 1
32 115 1
32 120 1
32 125 1
32 127 1
32 130 1
32 132 1
32 136 1
32 141 1
32 148 1
32 149 1
32 156 1
32 157 1
32 162 1
32 169 1
32 172 1
32 189 1
32 191 1
32 194 1
32 196 1
32 198 1
32 204 1
32 220 1
32 223 1
32 228 1
32 244 1
32 247 1
32 248 1
32 255 1
32 273 1
32 275 1
32 278 1
32 286 1
32 291 1
32 293 1
32 294 1
32 298 1
32 299 1
33 2 1
33 3 1
33 24 1
33 28 1
33 36 1
33 38 1
33 44 1
33 61 1
33 67 1
33 72 1
33 75 1
33 78 1
33 81 1
33 85 1
33 90 1
33 97 1
33 100 1
33 106 1
33 117 1
33 125 1
33 138 1
33 142 1
33 143 1
33 146 1
33 160 1
33 173 1
33 174 1
33 188 1
33 197 1
33 198 1
33 201 1
33 219 1
33 222 1
33 225 1
33 227 1
33 241 1
33 242 1
33 246 1
33 251 1
33 260 1
33 266 1
33 268 1
33 275 1
33 279 1
33 280 1
33 282 1
33 296 1
33 299 1
34 3 1
34 5 1
34 17 1
34 19 1
34 28 1
34 29 1
34 31 1
34 46 1
34 50 1
34 53 1
34 57 1
34 64 1
34 72 1
34 77 1
34 80 1
34 82 1
34 83 1
34 96 1
34 97 1
34 103 1
34 125 1
34 128 1
34 139 1
34 140 1
34 147 1
34 148 1
34 152 1
34 158 1
34 168 1
34 169 1
34 180 1
34 191 1
34 197 1
34 199 1
34 208 1
34 209 1
34 211 1
34 217 1
34 223 1
34 224 1
34 235 1
34 236 1
34 242 1
34 251 1
34 252 1
34 255 1
34 259 1
34 261 1
34 272 1
34 282 1
34 285 1
34 289 1
34 290 1
34 293 1
34 296 1
34 297 1
35 4 1
35 7 1
35 14 1
35 17 1
35 18 1
35 21 1
35 22 1
35 23 1
35 25 1
35 29 1
35 30 1
35 37 1
35 40 1
35 42 1
35 49 1
35 58 1
35 61 1
35 66 1
35 86 1
35 91 1
35 94 1
35 97 1
35 100 1
35 104 1
35 110 1
35 117 1
35 124 1
35 126 1
35 127 1
35 143 1
35 144 1
35 146 1
35 147 1
35 148 1
35 154 1
35 159 1
35 160 1
35 163 1
35 164 1
35 166 1
35 167 1
35 170 1
35 171 1
35 176 1
35 178 1
35 180 1
35 185 1
35 187 1
35 195 1
35 206 1
35 211 1
35 213 1
35 223 1
35 234 1
35 242 1
35 247 1
35 251 1
35 254 1
35 274 1
35 277 1
35 281 1
35 290 1
36 6 1
36 8 1
36 16 1
36 20 1
36 33 1
36 43 1
36 49 1
36 50 1
36 63 1
36 65 1
36 78 1
36 82 1
36 85 1
36 90 1
36 92 1
36 99 1
36 100 1
36 101 1
36 102 1
36 111 1
36 117 1
36 125 1
36 129 1
36 131 1
36 132 1
36 135 1
36 138 1
36 141 1
36 147 1
36 159 1
36 169 1
36 173 1
36 180 1
36 183 1
36 192 1
36 209 1
36 216 1
36 220 1
36 226 1
36 238 1
36 243 1
36 255 1
36 257 1
36 268 1
36 272 1
36 273 1
36 277 1
36 285 1
36 288 1
36 289 1
36 294 1
37 10 1
37 17 1
37 20 1
37 24 1
37 31 1
37 35 1
37 40 1
37 55 1
37 60 1
37 61 1
37 65 1
37 69 1
37 76 1
37 77 1
37 78 1
37 81 1
37 93 1
37 97 1
37 101 1
37 103 1
37 104 1
37 105 1
37 106 1
37 111 1
37 115 1
37 126 1
37 129 1
37 131 1
37 134 1
37 135 1
37 139 1
37 141 1
37 142 1
37 159 1
37 169 1
37 178 1
37 180 1
37 186 1
37 187 1
37 188 1
37 194 1
37 201 1
37 202 1
37 205 1
37 211 1
37 212 1
37 218 1
37 220 1
37 225 1
37 228 1
37 234 1
37 238 1
37 245 1
37 246 1
37 256 1
37 258 1
37 260 1
37 266 1
37 273 1
37 276 1
37 282 1
37 284 1
37 299 1
38 10 1
38 11 1
38 12 1
38 22 1
38 27 1
38 28 1
38 30 1
38 32 1
38 33 1
38 44 1
38 47 1
38 51 1
38 63 1
38 65 1
38 70 1
38 76 1
38 77 1
38 86 1
38 96 1
38 102 1
38 103 1
38 105 1
38 110 1
38 113 1
38 115 1
38 117 1
38 118 1
38 120 1
38 127 1
38 129 1
38 136 1
38 148 1
38 150 1
38 152 1
38 154 1
38 157 1
38 159 1
38 160 1
38 161 1
38 170 1
38 176 1
38 179 1
38 187 1
38 190 1
38 193 1
38 196 1
38 198 1
38 209 1
38 215 1
38 222 1
38 223 1
38 224 1
38 225 1
38 227 1
38 242 1
38 249 1
38 250 1
38 252 1
38 257 1
38 258 1
38 262 1
38 263 1
38 266 1
38 270 1
38 272 1
38 276 1
38 277 1
38 279 1
38 281 1
38 287 1
38 298 1
39 4 1
39 5 1
39 17 1
39 18 1
39 21 1
39 22 1
39 24 1
39 26 1
39 29 1
39 52 1
39 54 1
39 55 1
39 58 1
39 68 1
39 84 1
39 97 1
39 99 1
39 109 1
39 114 1
39 119 1
39 127 1
39 128 1
39 134 1
39 144 1
39 146 1
39 149 1
39 153 1
39 154 1
39 162 1
39 173 1
39 175 1
39 177 1
39 181 1
39 202 1
39 203 1
39 205 1
39 210 1
39 220 1
39 232 1
39 247 1
39 255 1
39 261 1
39 265 1
39 267 1
39 276 1
39 283 1
39 292 1
39 299 1
40 4 1
40 9 1
40 10 1
40 12 1
40 14 1
40 17 1
40 19 1
40 20 1
40 28 1
40 35 1
40 37 1
40 43 1
40 44 1
40 45 1
40 46 1
40 52 1
40 53 1
40 56 1
40 64 1
40 67 1
40 68 1
40 73 1
40 87 1
40 90 1
40 96 1
40 102 1
40 106 1
40 108 1
40 111 1
40 113 1
40 114 1
40 122 1
40 132 1
40 134 1
40 136 1
40 149 1
40 158 1
40 169 1
40 172 1
40 173 1
40 174 1
40 176 1
40 181 1
40 182 1
40 185 1
40 187 1
40 197 1
40 198 1
40 203 1
40 204 1
40 206 1
40 211 1
40 213 1
40 218 1
40 229 1
40 230 1
40 238 1
40 241 1
40 243 1
40 244 1
40 251 1
40 260 1
40 262 1
40 279 1
40 286 1
40 288 1
40 294 1
40 295 1
40 299 1
40 300 1
41 1 1
41 2 1
41 3 1
41 15 1
41 52 1
41 55 1
41 61 1
41 75 1
41 78 1
41 79 1
41 80 1
41 81 1
41 83 1
41 93 1
41 94 1
41 95 1
41 102 1
41 104 1
41 111 1
41 117 1
41 122 1
41 131 1
41 137 1
41 142 1
41 145 1
41 148 1
41 179 1
41 180 1
41 185 1
41 186 1
41 188 1
41 190 1
41 198 1
41 203 1
41 204 1
41 210 1
41 212 1
41 216 1
41 243 1
41 253 1
41 254 1
41 257 1
41 262 1
41 270 1
41 271 1
41 272 1
41 278 1
41 282 1
41 292 1
41 299 1
42 12 1
42 17 1
42 18 1
42 23 1
42 24 1
42 25 1
42 28 1
42 35 1
42 47 1
42 53 1
42 54 1
42 61 1
42 70 1
42 71 1
42 72 1
42 74 1
42 80 1
42 88 1
42 93 1
42 94 1
42 95 1
42 100 1
42 101 1
42 107 1
42 110 1
42 112 1
42 118 1
42 122 1
42 125 1
42 127 1
42 130 1
42 136 1
42 139 1
42 151 1
42 155 1
42 156 1
42 157 1
42 160 1
42 165 1
42 170 1
42 172 1
42 180 1
42 182 1
42 188 1
42 197 1
42 206 1
42 216 1
42 220 1
42 224 1
42 230 1
42 233 1
42 236 1
42 237 1
42 238 1
42 239 1
42 241 1
42 243 1
42 247 1
42 255 1
42 261 1
42 266 1
42 270 1
42 282 1
42 284 1
42 286 1
42 290 1
42 293 1
42 294 1
42 295 1
43 1 1
43 8 1
43 14 1
43 17 1
43 18 1
43 19 1
43 22 1
43 24 1
43 25 1
43 31 1
43 36 1
43 40 1
43 45 1
43 53 1
43 57 1
43 59 1
43 60 1
43 62 1
43 63 1
43 68 1
43 69 1
43 77 1
43 78 1
43 85 1
43 86 1
43 97 1
43 99 1
43 101 1
43 105 1
43 110 1
43 114 1
43 119 1
43 120 1
43 123 1
43 125 1
43 126 1
43 137 1
43 142 1
43 148 1
43 159 1
43 168 1
43 170 1
43 172 1
43 173 1
43 174 1
43 180 1
43 182 1
43 183 1
43 186 1
43 188 1
43 195 1
43 198 1
43 208 1
43 211 1
43 214 1
43 231 1
43 234 1
43 253 1
43 269 1
43 276 1
43 283 1
43 284 1
43 290 1
43 291 1
43 296 1
44 8 1
44 11 1
44 16 1
44 23 1
44 24 1
44 33 1
44 38 1
44 40 1
44 45 1
44 48 1
44 53 1
44 57 1
44 67 1
44 81 1
44 83 1
44 85 1
44 95 1
44 99 1
44 100 1
44 101 1
44 108 1
44 111 1
44 117 1
44 123 1
44 124 1
44 132 1
44 134 1
44 138 1
44 140 1
44 143 1
44 150 1
44 151 1
44 160 1
44 163 1
44 168 1
44 170 1
44 177 1
44 178 1
44 180 1
44 186 1
44 195 1
44 197 1
44 200 1
44 218 1
44 219 1
44 224 1
44 226 1
44 231 1
44 234 1
44 236 1
44 239 1
44 246 1
44 258 1
44 267 1
44 269 1
44 280 1
44 283 1
44 291 1
44 293 1
44 295 1
44 297 1
44 299 1
45 3 1
45 7 1
45 8 1
45 13 1
45 40 1
45 43 1
45 44 1
45 66 1
45 70 1
45 71 1
45 72 1
45 75 1
45 76 1
45 79 1
45 81 1
45 89 1
45 94 1
45 101 1
45 102 1
45 108 1
45 109 1
45 110 1
45 112 1
45 116 1
45 130 1
45 133 1
45 134 1
45 145 1
45 148 1
45 153 1
45 155 1
45 157 1
45 158 1
45 162 1
45 165 1
45 173 1
45 178 1
45 182 1
45 192 1
45 206 1
45 207 1
45 215 1
45 216 1
45 220 1
45 221 1
45 225 1
45 226 1
45 238 1
45 240 1
45 245 1
45 252 1
45 253 1
45 262 1
45 263 1
45 265 1
45 266 1
45 277 1
45 280 1
45 284 1
45 289 1
45 292 1
45 294 1
46 3 1
46 4 1
46 6 1
46 18 1
46 25 1
46 26 1
46 34 1
46 40 1
46 48 1
46 50 1
46 64 1
46 74 1
46 77 1
46 79 1
46 87 1
46 94 1
46 98 1
46 99 1
46 100 1
46 101 1
46 102 1
46 104 1
46 109 1
46 110 1
46 123 1
46 127 1
46 135 1
46 138 1
46 139 1
46 143 1
46 145 1
46 150 1
46 156 1
46 157 1
46 159 1
46 164 1
46 170 1
46 177 1
46 180 1
46 187 1
46 188 1
46 192 1
46 204 1
46 206 1
46 210 1
46 217 1
46 219 1
46 225 1
46 226 1
46 234 1
46 240 1
46 241 1
46 247 1
46 249 1
46 254 1
46 260 1
46 262 1
46 263 1
46 274 1
46 283 1
46 292 1
46 293 1
46 295 1
46 297 1
47 5 1
47 13 1
47 16 1
47 17 1
47 23 1
47 25 1
47 28 1
47 38 1
47 42 1
47 48 1
47 50 1
47 51 1
47 62 1
47 64 1
47 77 1
47 80 1
47 84 1
47 85 1
47 89 1
47 91 1
47 92 1
47 96 1
47 110 1
47 113 1
47 114 1
47 122 1
47 125 1
47 138 1
47 144 1
47 148 1
47 167 1
47 168 1
47 174 1
47 175 1
47 179 1
47 182 1
47 183 1
47 184 1
47 185 1
47 191 1
47 192 1
47 202 1
47 203 1
47 204 1
47 208 1
47 211 1
47 224 1
47 225 1
47 227 1
47 230 1
47 235 1
47 238 1
47 239 1
47 242 1
47 253 1
47 268 1
47 272 1
47 274 1
47 275 1
47 278 1
47 286 1
47 299 1
48 11 1
48 14 1
48 15 1
48 22 1
48 24 1
48 44 1
48 46 1
48 47 1
48 52 1
48 59 1
48 60 1
48 65 1
48 66 1
48 67 1
48 68 1
48 72 1
48 92 1
48 94 1
48 96 1
48 97 1
48 98 1
48 103 1
48 105 1
48 109 1
48 113 1
48 124 1
48 125 1
48 126 1
48 134 1
48 135 1
48 145 1
48 152 1
48 155 1
48 164 1
48 188 1
48 189 1
48 199 1
48 202 1
48 205 1
48 210 1
48 211 1
48 221 1
48 226 1
48 230 1
48 232 1
48 235 1
48 242 1
48 244 1
48 246 1
48 260 1
48 261 1
48 269 1
48 272 1
49 2 1
49 7 1
49 16 1
49 20 1
49 30 1
49 35 1
49 36 1
49 52 1
49 56 1
49 59 1
49 60 1
49 63 1
49 77 1
49 78 1
49 81 1
49 88 1
49 103 1
49 104 1
49 119 1
49 121 1
49 125 1
49 127 1
49 133 1
49 141 1
49 150 1
49 161 1
49 170 1
49 172 1
49 173 1
49 177 1
49 178 1
49 180 1
49 183 1
49 187 1
49 194 1
49 196 1
49 197 1
49 201 1
49 202 1
49 206 1
49 211 1
49 217 1
49 218 1
49 222 1
49 239 1
49 241 1
49 243 1
49 252 1
49 258 1
49 262 1
49 268 1
49 270 1
49 272 1
49 285 1
49 287 1
49 289 1
49 293 1
49 298 1
49 300 1
50 1 1
50 3 1
50 17 1
50 30 1
50 32 1
50 34 1
50 36 1
50 46 1
50 47 1
50 63 1
50 64 1
50 72 1
50 79 1
50 80 1
50 83 1
50 90 1
50 91 1
50 98 1
50 110 1
50 114 1
50 123 1
50 135 1
50 138 1
50 143 1
50 150 1
50 154 1
50 160 1
50 166 1
50 174 1
50 178 1
50 179 1
50 184 1
50 187 1
50 190 1
50 205 1
50 220 1
50 224 1
50 226 1
50 227 1
50 244 1
50 250 1
50 252 1
50 254 1
50 257 1
50 265 1
50 269 1
50 276 1
50 279 1
50 292 1
50 295 1
50 300 1
51 7 1
51 13 1
51 14 1
51 19 1
51 24 1
51 27 1
51 38 1
51 47 1
51 64 1
51 75 1
51 91 1
51 92 1
51 99 1
51 100 1
51 101 1
51 102 1
51 103 1
51 104 1
51 121 1
51 125 1
51 127 1
51 129 1
51 132 1
51 134 1
51 138 1
51 141 1
51 143 1
51 147 1
51 154 1
51 164 1
51 166 1
51 168 1
51 170 1
51 172 1
51 173 1
51 181 1
51 184 1
51 189 1
51 191 1
51 192 1
51 195 1
51 196 1
51 198 1
51 199 1
51 202 1
51 204 1
51 206 1
51 210 1
51 211 1
51 215 1
51 221 1
51 224 1
51 226 1
51 241 1
51 243 1
51 245 1
51 250 1
51 254 1
51 259 1
51 270 1
51 274 1
51 283 1
51 291 1
51 294 1
51 297 1
51 300 1
52 8 1
52 26 1
52 39 1
52 40 1
52 41 1
52 48 1
52 49 1
52 62 1
52 70 1
52 71 1
52 76 1
52 77 1
52 79 1
52 92 1
52 95 1
52 96 1
52 101 1
52 107 1
52 110 1
52 111 1
52 113 1
52 126 1
52 127 1
52 129 1
52 130 1
52 138 1
52 140 1
52 151 1
52 159 1
52 164 1
52 166 1
52 170 1
52 175 1
52 176 1
52 181 1
52 185 1
52 186 1
52 194 1
52 195 1
52 204 1
52 207 1
52 216 1
52 218 1
52 222 1
52 233 1
52 251 1
52 256 1
52 260 1
52 266 1
52 267 1
52 273 1
52 277 1
52 280 1
52 282 1
52 284 1
52 287 1
52 290 1
52 291 1
52 296 1
53 5 1
53 14 1
53 34 1
53 40 1
53 42 1
53 43 1
53 44 1
53 62 1
53 78 1
53 84 1
53 87 1
53 88 1
53 89 1
53 93 1
53 112 1
53 116 1
53 120 1
53 136 1
53 140 1
53 156 1
53 159 1
53 170 1
53 175 1
53 188 1
53 198 1
53 203 1
53 204 1
53 205 1
53 206 1
53 210 1
53 213 1
53 220 1
53 225 1
53 234 1
53 239 1
53 244 1
53 245 1
53 249 1
53 254 1
53 265 1
53 269 1
53 271 1
53 272 1
53 275 1
53 280 1
53 290 1
53 292 1
53 294 1
54 4 1
54 10 1
54 14 1
54 15 1
54 24 1
54 30 1
54 39 1
54 42 1
54 64 1
54 75 1
54 85 1
54 98 1
54 100 1
54 101 1
54 102 1
54 109 1
54 115 1
54 124 1
54 132 1
54 135 1
54 142 1
54 144 1
54 152 1
54 154 1
54 155 1
54 162 1
54 165 1
54 167 1
54 174 1
54 175 1
54 180 1
54 181 1
54 190 1
54 191 1
54 193 1
54 194 1
54 209 1
54 210 1
54 215 1
54 216 1
54 219 1
54 220 1
54 225 1
54 229 1
54 231 1
54 232 1
54 234 1
54 238 1
54 240 1
54 241 1
54 245 1
54 259 1
54 269 1
54 272 1
54 274 1
54 281 1
54 288 1
54 294 1
54 296 1
55 8 1
55 11 1
55 13 1
55 14 1
55 22 1
55 23 1
55 29 1
55 37 1
55 39 1
55 41 1
55 65 1
55 68 1
55 82 1
55 83 1
55 89 1
55 92 1
55 95 1
55 112 1
55 115 1
55 117 1
55 125 1
55 127 1
55 129 1
55 135 1
55 146 1
55 156 1
55 157 1
55 158 1
55 163 1
55 166 1
55 173 1
55 174 1
55 178 1
55 184 1
55 185 1
55 188 1
55 190 1
55 191 1
55 199 1
55 200 1
55 214 1
55 217 1
55 218 1
55 221 1
55 223 1
55 228 1
55 232 1
55 235 1
55 245 1
55 247 1
55 249 1
55 256 1
55 262 1
55 281 1
55 285 1
55 291 1
55 292 1
55 295 1
55 298 1
56 4 1
56 7 1
56 40 1
56 49 1
56 58 1
56 59 1
56 60 1
56 64 1
56 66 1
56 68 1
56 81 1
56 85 1
56 87 1
56 91 1
56 92 1
56 97 1
56 103 1
56 125 1
56 127 1
56 128 1
56 137 1
56 138 1
56 142 1
56 144 1
56 146 1
56 150 1
56 153 1
56 158 1
56 163 1
56 169 1
56 172 1
56 186 1
56 187 1
56 191 1
56 192 1
56 198 1
56 208 1
56 217 1
56 218 1
56 221 1
56 237 1
56 241 1
56 242 1
56 247 1
56 250 1
56 260 1
56 263 1
56 265 1
56 277 1
56 286 1
57 3 1
57 6 1
57 7 1
57 10 1
57 11 1
57 16 1
57 18 1
57 34 1
57 43 1
57 44 1
57 62 1
57 71 1
57 76 1
57 78 1
57 79 1
57 85 1
57 88 1
57 91 1
57 96 1
57 106 1
57 115 1
57 118 1
57 139 1
57 141 1
57 142 1
57 146 1
57 153 1
57 158 1
57 169 1
57 176 1
57 179 1
57 180 1
57 188 1
57 189 1
57 208 1
57 209 1
57 212 1
57 214 1
57 216 1
57 217 1
57 218 1
57 220 1
57 227 1
57 229 1
57 232 1
57 242 1
57 243 1
57 248 1
57 252 1
57 253 1
57 264 1
57 272 1
57 279 1
57 280 1
57 281 1
57 291 1
57 292 1
57 294 1
57 298 1
57 300 1
58 5 1
58 9 1
58 11 1
58 13 1
58 15 1
58 22 1
58 29 1
58 35 1
58 39 1
58 56 1
58 61 1
58 63 1
58 66 1
58 73 1
58 74 1
58 80 1
58 99 1
58 100 1
58 105 1
58 108 1
58 111 1
58 113 1
58 114 1
58 119 1
58 122 1
58 127 1
58 128 1
58 130 1
58 140 1
58 145 1
58 147 1
58 151 1
58 154 1
58 158 1
58 159 1
58 161 1
58 163 1
58 170 1
58 172 1
58 177 1
58 181 1
58 195 1
58 200 1
58 201 1
58 203 1
58 218 1
58 224 1
58 228 1
58 233 1
58 240 1
58 243 1
58 249 1
58 250 1
58 254 1
58 260 1
58 263 1
58 264 1
58 280 1
58 287 1
58 293 1
58 296 1
59 8 1
59 10 1
59 11 1
59 15 1
59 29 1
59 43 1
59 48 1
59 49 1
59 56 1
59 60 1
59 65 1
59 66 1
59 70 1
59 74 1
59 79 1
59 87 1
59 90 1
59 94 1
59 100 1
59 102 1
59 105 1
59 110 1
59 128 1
59 142 1
59 144 1
59 145 1
59 147 1
59 158 1
59 167 1
59 169 1
59 180 1
59 181 1
59 183 1
59 189 1
59 199 1
59 207 1
59 210 1
59 211 1
59 218 1
59 232 1
59 237 1
59 238 1
59 248 1
59 249 1
59 253 1
59 258 1
59 264 1
59 268 1
59 273 1
59 275 1
59 276 1
59 285 1
59 289 1
59 290 1
59 298 1
59 300 1
60 4 1
60 14 1
60 15 1
60 23 1
60 28 1
60 29 1
60 30 1
60 37 1
60 43 1
60 48 1
60 49 1
60 56 1
60 59 1
60 66 1
60 68 1
60 73 1
60 103 1
60 106 1
60 109 1
60 114 1
60 126 1
60 127 1
60 130 1
60 137 1
60 139 1
60 147 1
60 149 1
60 153 1
60 171 1
60 175 1
60 180 1
60 181 1
60 188 1
60 194 1
60 210 1
60 212 1
60 219 1
60 228 1
60 238 1
60 242 1
60 243 1
60 244 1
60 255 1
60 264 1
60 266 1
60 268 1
60 275 1
60 286 1
60 294 1
61 2 1
61 10 1
61 18 1
61 23 1
61 28 1
61 30 1
61 33 1
61 35 1
61 37 1
61 41 1
61 42 1
61 58 1
61 62 1
61 66 1
61 76 1
61 81 1
61 92 1
61 101 1
61 111 1
61 113 1
61 114 1
61 115 1
61 116 1
61 117 1
61 120 1
61 121 1
61 133 1
61 135 1
61 138 1
61 140 1
61 169 1
61 170 1
61 171 1
61 178 1
61 193 1
61 198 1
61 199 1
61 204 1
61 211 1
61 215 1
61 216 1
61 217 1
61 223 1
61 224 1
61 225 1
61 227 1
61 229 1
61 237 1
61 245 1
61 248 1
61 265 1
61 266 1
61 267 1
61 268 1
61 271 1
61 279 1
61 286 1
61 290 1
61 291 1
61 292 1
61 294 1
61 299 1
62 3 1
62 6 1
62 16 1
62 18 1
62 28 1
62 29 1
62 43 1
62 47 1
62 52 1
62 53 1
62 57 1
62 61 1
62 72 1
62 75 1
62 76 1
62 79 1
62 84 1
62 86 1
62 94 1
62 108 1
62 110 1
62 112 1
62 114 1
62 118 1
62 121 1
62 124 1
62 127 1
62 128 1
62 131 1
62 136 1
62 138 1
62 145 1
62 146 1
62 149 1
62 152 1
62 154 1
62 160 1
62 166 1
62 167 1
62 173 1
62 181 1
62 187 1
62 190 1
62 194 1
62 197 1
62 198 1
62 199 1
62 204 1
62 206 1
62 210 1
62 215 1
62 219 1
62 227 1
62 228 1
62 231 1
62 236 1
62 238 1
62 239 1
62 255 1
62 258 1
62 269 1
62 270 1
62 273 1
62 278 1
62 290 1
62 292 1
62 294 1
62 298 1
63 2 1
63 3 1
63 13 1
63 15 1
63 26 1
63 36 1
63 38 1
63 43 1
63 49 1
63 50 1
63 58 1
63 70 1
63 71 1
63 75 1
63 87 1
63 91 1
63 94 1
63 100 1
63 103 1
63 107 1
63 110 1
63 111 1
63 113 1
63 115 1
63 120 1
63 130 1
63 131 1
63 133 1
63 135 1
63 138 1
63 141 1
63 153 1
63 154 1
63 157 1
63 161 1
63 176 1
63 181 1
63 188 1
63 194 1
63 197 1
63 199 1
63 209 1
63 215 1
63 218 1
63 221 1
63 234 1
63 235 1
63 242 1
63 248 1
63 249 1
63 263 1
63 268 1
63 271 1
63 272 1
63 276 1
63 277 1
63 284 1
63 286 1
63 293 1
63 296 1
63 300 1
64 16 1
64 19 1
64 22 1
64 30 1
64 34 1
64 40 1
64 46 1
64 47 1
64 50 1
64 51 1
64 54 1
64 56 1
64 65 1
64 71 1
64 75 1
64 76 1
64 77 1
64 80 1
64 89 1
64 98 1
64 99 1
64 100 1
64 101 1
64 104 1
64 109 1
64 113 1
64 116 1
64 120 1
64 123 1
64 126 1
64 128 1
64 147 1
64 150 1
64 151 1
64 163 1
64 165 1
64 167 1
64 169 1
64 176 1
64 184 1
64 186 1
64 187 1
64 193 1
64 205 1
64 208 1
64 215 1
64 216 1
64 218 1
64 221 1
64 223 1
64 227 1
64 229 1
64 231 1
64 233 1
64 237 1
64 244 1
64 249 1
64 257 1
64 268 1
64 275 1
64 279 1
64 284 1
64 286 1
64 293 1
64 297 1
65 9 1
65 16 1
65 22 1
65 24 1
65 27 1
65 31 1
65 32 1
65 36 1
65 37 1
65 38 1
65 48 1
65 55 1
65 59 1
65 64 1
65 72 1
65 73 1
65 75 1
65 79 1
65 81 1
65 87 1
65 91 1
65 93 1
65 101 1
65 104 1
65 110 1
65 118 1
65 119 1
65 124 1
65 125 1
65 130 1
65 136 1
65 138 1
65 145 1
65 147 1
65 150 1
65 154 1
65 160 1
65 162 1
65 166 1
65 168 1
65 171 1
65 175 1
65 179 1
65 188 1
65 190 1
65 195 1
65 207 1
65 209 1
65 214 1
65 219 1
65 222 1
65 240 1
65 246 1
65 261 1
65 268 1
65 270 1
65 274 1
65 277 1
65 283 1
65 284 1
65 289 1
65 295 1
65 298 1
66 4 1
66 10 1
66 14 1
66 18 1
66 29 1
66 35 1
66 45 1
66 48 1
66 56 1
66 58 1
66 59 1
66 60 1
66 61 1
66 74 1
66 78 1
66 80 1
66 85 1
66 87 1
66 88 1
66 89 1
66 90 1
66 106 1
66 108 1
66 123 1
66 124 1
66 127 1
66 131 1
66 135 1
66 138 1
66 149 1
66 164 1
66 170 1
66 172 1
66 180 1
66 182 1
66 186 1
66 190 1
66 193 1
66 202 1
66 207 1
66 210 1
66 211 1
66 217 1
66 227 1
66 233 1
66 234 1
66 238 1
66 249 1
66 254 1
66 259 1
66 266 1
66 269 1
66 273 1
66 281 1
66 282 1
66 286 1
66 288 1
66 292 1
66 293 1
66 296 1
67 1 1
67 2 1
67 8 1
67 12 1
67 16 1
67 17 1
67 18 1
67 21 1
67 25 1
67 33 1
67 40 1
67 44 1
67 48 1
67 70 1
67 75 1
67 78 1
67 80 1
67 81 1
67 106 1
67 108 1
67 111 1
67 113 1
67 136 1
67 141 1
67 158 1
67 159 1
67 165 1
67 179 1
67 185 1
67 188 1
67 190 1
67 225 1
67 228 1
67 229 1
67 252 1
67 254 1
67 275 1
67 281 1
67 283 1
67 284 1
67 285 1
67 289 1
67 291 1
67 296 1
68 8 1
68 16 1
68 22 1
68 27 1
68 30 1
68 39 1
68 40 1
68 43 1
68 48 1
68 55 1
68 56 1
68 60 1
68 70 1
68 71 1
68 75 1
68 77 1
68 82 1
68 84 1
68 89 1
68 91 1
68 93 1
68 96 1
68 103 1
68 116 1
68 120 1
68 126 1
68 131 1
68 137 1
68 143 1
68 148 1
68 151 1
68 153 1
68 155 1
68 158 1
68 171 1
68 172 1
68 175 1
68 179 1
68 184 1
68 185 1
68 188 1
68 189 1
68 191 1
68 200 1
68 201 1
68 203 1
68 206 1
68 207 1
68 209 1
68 213 1
68 220 1
68 222 1
68 237 1
68 239 1
68 241 1
68 246 1
68 251 1
68 252 1
68 254 1
68 265 1
68 268 1
68 269 1
68 274 1
68 297 1
69 6 1
69 9 1
69 10 1
69 12 1
69 18 1
69 21 1
69 28 1
69 37 1
69 43 1
69 70 1
69 75 1
69 77 1
69 79 1
69 81 1
69 86 1
69 94 1
69 96 1
69 102 1
69 115 1
69 121 1
69 123 1
69 128 1
69 131 1
69 133 1
69 135 1
69 137 1
69 149 1
69 155 1
69 162 1
69 166 1
69 169 1
69 171 1
69 173 1
69 178 1
69 180 1
69 188 1
69 193 1
69 196 1
69 204 1
69 209 1
69 212 1
69 214 1
69 224 1
69 226 1
69 233 1
69 236 1
69 239 1
69 240 1
69 242 1
69 247 1
69 249 1
69 257 1
69 259 1
69 260 1
69 263 1
69 281 1
69 298 1
69 299 1
70 4 1
70 5 1
70 12 1
70 21 1
70 26 1
70 28 1
70 30 1
70 38 1
70 42 1
70 45 1
70 52 1
70 59 1
70 63 1
70 67 1
70 68 1
70 69 1
70 71 1
70 80 1
70 92 1
70 94 1
70 96 1
70 103 1
70 104 1
70 111 1
70 112 1
70 117 1
70 119 1
70 127 1
70 128 1
70 134 1
70 136 1
70 144 1
70 146 1
70 147 1
70 149 1
70 151 1
70 154 1
70 157 1
70 164 1
70 165 1
70 170 1
70 171 1
70 172 1
70 175 1
70 177 1
70 178 1
70 199 1
70 200 1
70 202 1
70 203 1
70 208 1
70 210 1
70 212 1
70 219 1
70 220 1
70 221 1
70 231 1
70 240 1
70 242 1
70 243 1
70 244 1
70 245 1
70 248 1
70 252 1
70 256 1
70 260 1
70 263 1
70 276 1
70 283 1
70 294 1
71 2 1
71 7 1
71 9 1
71 20 1
71 26 1
71 32 1
71 42 1
71 45 1
71 52 1
71 57 1
71 63 1
71 64 1
71 68 1
71 70 1
71 74 1
71 78 1
71 79 1
71 89 1
71 94 1
71 96 1
71 99 1
71 112 1
71 116 1
71 122 1
71 130 1
71 138 1
71 139 1
71 158 1
71 169 1
71 176 1
71 180 1
71 181 1
71 192 1
71 194 1
71 195 1
71 198 1
71 213 1
71 216 1
71 217 1
71 221 1
71 222 1
71 226 1
71 228 1
71 232 1
71 236 1
71 241 1
71 245 1
71 246 1
71 247 1
71 259 1
71 267 1
71 275 1
71 283 1
71 284 1
71 289 1
71 291 1
71 294 1
71 298 1
71 299 1
72 10 1
72 12 1
72 14 1
72 15 1
72 19 1
72 23 1
72 29 1
72 33 1
72 34 1
72 42 1
72 45 1
72 48 1
72 50 1
72 62 1
72 65 1
72 73 1
72 82 1
72 86 1
72 91 1
72 96 1
72 99 1
72 100 1
72 102 1
72 117 1
72 118 1
72 120 1
72 122 1
72 123 1
72 125 1
72 128 1
72 135 1
72 143 1
72 148 1
72 149 1
72 155 1
72 169 1
72 175 1
72 184 1
72 186 1
72 188 1
72 189 1
72 190 1
72 192 1
72 198 1
72 199 1
72 207 1
72 218 1
72 219 1
72 227 1
72 231 1
72 240 1
72 241 1
72 243 1
72 244 1
72 255 1
72 256 1
72 268 1
72 271 1
72 296 1
73 2 1
73 5 1
73 6 1
73 15 1
73 19 1
73 25 1
73 28 1
73 40 1
73 58 1
73 60 1
73 65 1
73 72 1
73 75 1
73 79 1
73 80 1
73 85 1
73 89 1
73 104 1
73 109 1
73 111 1
73 113 1
73 117 1
73 120 1
73 130 1
73 131 1
73 133 1
73 134 1
73 136 1
73 143 1
73 147 1
73 167 1
73 168 1
73 169 1
73 173 1
73 179 1
73 185 1
73 195 1
73 204 1
73 205 1
73 217 1
73 218 1
73 221 1
73 230 1
73 233 1
73 236 1
73 237 1
73 240 1
73 249 1
73 265 1
73 283 1
73 288 1
73 298 1
74 3 1
74 6 1
74 12 1
74 29 1
74 31 1
74 42 1
74 46 1
74 58 1
74 59 1
74 66 1
74 71 1
74 76 1
74 79 1
74 92 1
74 93 1
74 97 1
74 103 1
74 109 1
74 110 1
74 118 1
74 129 1
74 131 1
74 135 1
74 139 1
74 142 1
74 154 1
74 162 1
74 167 1
74 170 1
74 172 1
74 173 1
74 176 1
74 182 1
74 184 1
74 186 1
74 188 1
74 198 1
74 209 1
74 211 1
74 214 1
74 216 1
74 218 1
74 228 1
74 230 1
74 231 1
74 232 1
74 235 1
74 243 1
74 244 1
74 249 1
74 251 1
74 260 1
74 261 1
74 269 1
74 270 1
74 274 1
74 283 1
74 284 1
74 285 1
74 286 1
75 5 1
75 11 1
75 19 1
75 20 1
75 22 1
75 26 1
75 28 1
75 31 1
75 33 1
75 41 1
75 45 1
75 51 1
75 54 1
75 62 1
75 63 1
75 64 1
75 65 1
75 67 1
75 68 1
75 69 1
75 73 1
75 76 1
75 99 1
75 110 1
75 114 1
75 121 1
75 129 1
75 132 1
75 137 1
75 146 1
75 151 1
75 152 1
75 155 1
75 157 1
75 188 1
75 189 1
75 197 1
75 208 1
75 212 1
75 217 1
75 218 1
75 219 1
75 221 1
75 222 1
75 225 1
75 230 1
75 234 1
75 235 1
75 238 1
75 242 1
75 244 1
75 245 1
75 249 1
75 259 1
75 260 1
75 261 1
75 262 1
75 265 1
75 272 1
75 280 1
75 284 1
75 288 1
75 295 1
75 299 1
76 2 1
76 6 1
76 13 1
76 18 1
76 22 1
76 26 1
76 29 1
76 31 1
76 37 1
76 38 1
76 45 1
76 52 1
76 57 1
76 61 1
76 62 1
76 64 1
76 74 1
76 75 1
76 83 1
76 95 1
76 96 1
76 102 1
76 106 1
76 110 1
76 115 1
76 116 1
76 125 1
76 127 1
76 139 1
76 151 1
76 154 1
76 156 1
76 158 1
76 161 1
76 167 1
76 184 1
76 192 1
76 193 1
76 195 1
76 196 1
76 203 1
76 209 1
76 213 1
76 214 1
76 218 1
76 233 1
76 235 1
76 236 1
76 241 1
76 242 1
76 245 1
76 247 1
76 257 1
76 279 1
76 281 1
76 288 1
76 289 1
77 6 1
77 14 1
77 16 1
77 18 1
77 24 1
77 29 1
77 32 1
77 34 1
77 37 1
77 38 1
77 43 1
77 46 1
77 47 1
77 49 1
77 52 1
77 64 1
77 68 1
77 69 1
77 87 1
77 88 1
77 93 1
77 101 1
77 106 1
77 108 1
77 110 1
77 115 1
77 120 1
77 121 1
77 124 1
77 125 1
77 135 1
77 139 1
77 140 1
77 142 1
77 146 1
77 148 1
77 160 1
77 163 1
77 170 1
77 171 1
77 173 1
77 179 1
77 184 1
77 186 1
77 187 1
77 191 1
77 192 1
77 195 1
77 196 1
77 204 1
77 208 1
77 212 1
77 213 1
77 218 1
77 226 1
77 239 1
77 240 1
77 249 1
77 253 1
77 258 1
77 260 1
77 262 1
77 267 1
77 274 1
77 275 1
77 281 1
77 286 1
77 295 1
77 300 1
78 2 1
78 4 1
78 5 1
78 10 1
78 21 1
78 22 1
78 24 1
78 27 1
78 29 1
78 33 1
78 36 1
78 37 1
78 41 1
78 43 1
78 49 1
78 53 1
78 57 1
78 66 1
78 67 1
78 71 1
78 79 1
78 83 1
78 93 1
78 94 1
78 95 1
78 97 1
78 98 1
78 99 1
78 102 1
78 117 1
78 128 1
78 133 1
78 136 1
78 143 1
78 148 1
78 151 1
78 161 1
78 163 1
78 165 1
78 168 1
78 169 1
78 172 1
78 175 1
78 179 1
78 187 1
78 188 1
78 203 1
78 216 1
78 222 1
78 236 1
78 243 1
78 245 1
78 247 1
78 248 1
78 253 1
78 255 1
78 261 1
78 262 1
78 270 1
78 275 1
78 277 1
78 284 1
78 294 1
78 299 1
79 1 1
79 7 1
79 9 1
79 10 1
79 23 1
79 24 1
79 41 1
79 45 1
79 46 1
79 50 1
79 52 1
79 57 1
79 59 1
79 62 1
79 65 1
79 69 1
79 71 1
79 73 1
79 74 1
79 78 1
79 87 1
79 94 1
79 95 1
79 107 1
79 111 1
79 112 1
79 114 1
79 117 1
79 126 1
79 127 1
79 134 1
79 136 1
79 142 1
79 150 1
79 154 1
79 155 1
79 163 1
79 176 1
79 177 1
79 185 1
79 190 1
79 192 1
79 193 1
79 194 1
79 198 1
79 199 1
79 203 1
79 208 1
79 212 1
79 215 1
79 224 1
79 226 1
79 228 1
79 234 1
79 245 1
79 246 1
79 253 1
79 257 1
79 266 1
79 268 1
79 273 1
79 278 1
79 285 1
79 292 1
79 294 1
79 295 1
79 299 1
80 5 1
80 6 1
80 12 1
80 17 1
80 24 1
80 32 1
80 34 1
80 41 1
80 42 1
80 47 1
80 50 1
80 58 1
80 64 1
80 66 1
80 67 1
80 70 1
80 73 1
80 81 1
80 84 1
80 95 1
80 101 1
80 106 1
80 108 1
80 110 1
80 116 1
80 122 1
80 126 1
80 131 1
80 133 1
80 156 1
80 157 1
80 158 1
80 160 1
80 166 1
80 169 1
80 185 1
80 186 1
80 192 1
80 193 1
80 208 1
80 210 1
80 216 1
80 217 1
80 222 1
80 223 1
80 229 1
80 231 1
80 239 1
80 240 1
80 241 1
80 243 1
80 247 1
80 252 1
80 259 1
80 261 1
80 271 1
80 278 1
80 282 1
80 288 1
81 5 1
81 6 1
81 7 1
81 11 1
81 13 1
81 15 1
81 21 1
81 27 1
81 33 1
81 37 1
81 41 1
81 44 1
81 45 1
81 49 1
81 56 1
81 61 1
81 65 1
81 67 1
81 69 1
81 80 1
81 82 1
81 84 1
81 88 1
81 92 1
81 95 1
81 99 1
81 102 1
81 108 1
81 114 1
81 124 1
81 125 1
81 128 1
81 131 1
81 134 1
81 143 1
81 144 1
81 145 1
81 152 1
81 158 1
81 162 1
81 164 1
81 167 1
81 181 1
81 183 1
81 184 1
81 187 1
81 190 1
81 192 1
81 195 1
81 197 1
81 201 1
81 208 1
81 209 1
81 213 1
81 220 1
81 225 1
81 227 1
81 237 1
81 241 1
81 247 1
81 253 1
81 259 1
81 263 1
81 265 1
81 273 1
81 287 1
81 288 1
81 289 1
81 290 1
81 294 1
81 296 1
82 2 1
82 13 1
82 19 1
82 21 1
82 26 1
82 27 1
82 34 1
82 36 1
82 55 1
82 68 1
82 72 1
82 81 1
82 97 1
82 101 1
82 103 1
82 105 1
82 110 1
82 124 1
82 126 1
82 127 1
82 135 1
82 136 1
82 144 1
82 148 1
82 162 1
82 166 1
82 167 1
82 170 1
82 175 1
82 176 1
82 186 1
82 189 1
82 195 1
82 210 1
82 214 1
82 230 1
82 231 1
82 232 1
82 241 1
82 252 1
82 256 1
82 260 1
82 265 1
82 268 1
82 276 1
82 287 1
82 290 1
82 294 1
82 300 1
83 2 1
83 3 1
83 7 1
83 8 1
83 18 1
83 19 1
83 25 1
83 30 1
83 34 1
83 41 1
83 44 1
83 50 1
83 55 1
83 76 1
83 78 1
83 84 1
83 87 1
83 88 1
83 89 1
83 103 1
83 105 1
83 109 1
83 114 1
83 120 1
83 127 1
83 135 1
83 138 1
83 142 1
83 146 1
83 151 1
83 159 1
83 160 1
83 164 1
83 171 1
83 174 1
83 177 1
83 178 1
83 180 1
83 188 1
83 191 1
83 204 1
83 205 1
83 208 1
83 209 1
83 210 1
83 227 1
83 231 1
83 233 1
83 239 1
83 247 1
83 248 1
83 252 1
83 257 1
83 264 1
83 265 1
83 269 1
83 275 1
83 281 1
83 291 1
83 292 1
83 297 1
84 1 1
84 2 1
84 4 1
84 8 1
84 12 1
84 17 1
84 29 1
84 30 1
84 39 1
84 47 1
84 53 1
84 62 1
84 68 1
84 80 1
84 81 1
84 83 1
84 86 1
84 93 1
84 94 1
84 96 1
84 109 1
84 111 1
84 113 1
84 118 1
84 121 1
84 125 1
84 128 1
84 138 1
84 144 1
84 147 1
84 150 1
84 151 1
84 157 1
84 161 1
84 170 1
84 171 1
84 172 1
84 173 1
84 174 1
84 175 1
84 178 1
84 179 1
84 198 1
84 199 1
84 205 1
84 211 1
84 216 1
84 219 1
84 223 1
84 224 1
84 226 1
84 230 1
84 240 1
84 241 1
84 244 1
84 249 1
84 250 1
84 252 1
84 256 1
84 260 1
84 263 1
84 265 1
84 266 1
84 267 1
84 273 1
84 275 1
84 280 1
84 282 1
84 287 1
84 288 1
84 293 1
84 300 1
85 1 1
85 13 1
85 14 1
85 23 1
85 28 1
85 33 1
85 36 1
85 43 1
85 44 1
85 47 1
85 54 1
85 56 1
85 57 1
85 66 1
85 73 1
85 88 1
85 90 1
85 97 1
85 99 1
85 104 1
85 112 1
85 120 1
85 122 1
85 123 1
85 125 1
85 126 1
85 138 1
85 139 1
85 146 1
85 147 1
85 151 1
85 156 1
85 160 1
85 165 1
85 173 1
85 177 1
85 180 1
85 184 1
85 189 1
85 193 1
85 194 1
85 200 1
85 203 1
85 204 1
85 208 1
85 210 1
85 211 1
85 221 1
85 224 1
85 225 1
85 240 1
85 247 1
85 252 1
85 257 1
85 259 1
85 260 1
85 262 1
85 274 1
85 283 1
85 284 1
85 287 1
86 3 1
86 4 1
86 6 1
86 7 1
86 9 1
86 24 1
86 25 1
86 28 1
86 30 1
86 35 1
86 38 1
86 43 1
86 62 1
86 69 1
86 72 1
86 84 1
86 88 1
86 89 1
86 94 1
86 111 1
86 112 1
86 117 1
86 123 1
86 124 1
86 143 1
86 144 1
86 150 1
86 158 1
86 161 1
86 164 1
86 165 1
86 173 1
86 174 1
86 177 1
86 180 1
86 192 1
86 193 1
86 195 1
86 197 1
86 207 1
86 227 1
86 228 1
86 236 1
86 237 1
86 241 1
86 244 1
86 250 1
86 258 1
86 260 1
86 261 1
86 262 1
86 267 1
86 268 1
86 276 1
86 278 1
86 280 1
86 282 1
86 284 1
86 292 1
86 293 1
86 298 1
86 299 1
87 3 1
87 9 1
87 10 1
87 14 1
87 28 1
87 40 1
87 46 1
87 53 1
87 56 1
87 59 1
87 63 1
87 65 1
87 66 1
87 77 1
87 79 1
87 83 1
87 89 1
87 90 1
87 94 1
87 105 1
87 114 1
87 117 1
87 121 1
87 126 1
87 128 1
87 130 1
87 132 1
87 133 1
87 144 1
87 148 1
87 149 1
87 156 1
87 158 1
87 165 1
87 170 1
87 178 1
87 181 1
87 182 1
87 184 1
87 191 1
87 192 1
87 201 1
87 210 1
87 215 1
87 216 1
87 226 1
87 240 1
87 242 1
87 243 1
87 245 1
87 251 1
87 253 1
87 257 1
87 262 1
87 279 1
87 282 1
87 283 1
87 286 1
87 290 1
87 294 1
88 8 1
88 9 1
88 10 1
88 11 1
88 21 1
88 23 1
88 24 1
88 32 1
88 42 1
88 49 1
88 53 1
88 57 1
88 66 1
88 77 1
88 81 1
88 83 1
88 85 1
88 86 1
88 96 1
88 98 1
88 106 1
88 108 1
88 113 1
88 120 1
88 128 1
88 139 1
88 147 1
88 151 1
88 167 1
88 175 1
88 181 1
88 185 1
88 186 1
88 187 1
88 192 1
88 195 1
88 200 1
88 205 1
88 206 1
88 217 1
88 218 1
88 224 1
88 230 1
88 231 1
88 234 1
88 236 1
88 238 1
88 246 1
88 255 1
88 257 1
88 258 1
88 267 1
88 270 1
88 271 1
88 272 1
88 280 1
88 288 1
88 289 1
88 291 1
88 296 1
88 298 1
88 299 1
88 300 1
89 5 1
89 8 1
89 14 1
89 15 1
89 17 1
89 21 1
89 24 1
89 26 1
89 29 1
89 30 1
89 32 1
89 45 1
89 47 1
89 53 1
89 55 1
89 64 1
89 66 1
89 68 1
89 71 1
89 73 1
89 83 1
89 86 1
89 87 1
89 91 1
89 106 1
89 108 1
89 112 1
89 115 1
89 116 1
89 120 1
89 121 1
89 126 1
89 128 1
89 132 1
89 142 1
89 146 1
89 151 1
89 152 1
89 163 1
89 167 1
89 171 1
89 179 1
89 184 1
89 186 1
89 191 1
89 194 1
89 199 1
89 201 1
89 205 1
89 224 1
89 233 1
89 234 1
89 248 1
89 249 1
89 250 1
89 251 1
89 253 1
89 255 1
89 259 1
89 263 1
89 274 1
89 279 1
89 281 1
89 282 1
89 292 1
89 298 1
89 300 1
90 4 1
90 5 1
90 6 1
90 7 1
90 9 1
90 10 1
90 11 1
90 14 1
90 24 1
90 26 1
90 30 1
90 33 1
90 36 1
90 40 1
90 50 1
90 59 1
90 66 1
90 85 1
90 87 1
90 98 1
90 107 1
90 117 1
90 118 1
90 120 1
90 136 1
90 144 1
90 146 1
90 147 1
90 153 1
90 155 1
90 162 1
90 166 1
90 173 1
90 186 1
90 187 1
90 192 1
90 193 1
90 199 1
90 201 1
90 207 1
90 215 1
90 216 1
90 222 1
90 225 1
90 227 1
90 228 1
90 229 1
90 231 1
90 236 1
90 252 1
90 254 1
90 267 1
90 291 1
90 292 1
90 298 1
91 13 1
91 19 1
91 20 1
91 35 1
91 47 1
91 50 1
91 51 1
91 56 1
91 57 1
91 63 1
91 65 1
91 68 1
91 72 1
91 89 1
91 101 1
91 105 1
91 108 1
91 110 1
91 113 1
91 128 1
91 130 1
91 137 1
91 143 1
91 144 1
91 145 1
91 155 1
91 156 1
91 158 1
91 175 1
91 177 1
91 179 1
91 181 1
91 184 1
91 186 1
91 190 1
91 195 1
91 196 1
91 197 1
91 199 1
91 212 1
91 218 1
91 224 1
91 226 1
91 229 1
91 233 1
91 235 1
91 236 1
91 237 1
91 238 1
91 246 1
91 247 1
91 251 1
91 253 1
91 257 1
91 260 1
91 263 1
91 269 1
91 275 1
91 276 1
91 283 1
91 286 1
91 296 1
91 298 1
92 1 1
92 10 1
92 17 1
92 23 1
92 27 1
92 32 1
92 36 1
92 47 1
92 48 1
92 51 1
92 52 1
92 55 1
92 56 1
92 61 1
92 70 1
92 74 1
92 81 1
92 96 1
92 99 1
92 100 1
92 104 1
92 113 1
92 114 1
92 116 1
92 118 1
92 119 1
92 124 1
92 130 1
92 133 1
92 141 1
92 142 1
92 146 1
92 150 1
92 158 1
92 161 1
92 173 1
92 179 1
92 180 1
92 181 1
92 184 1
92 191 1
92 196 1
92 205 1
92 208 1
92 213 1
92 218 1
92 224 1
92 226 1
92 235 1
92 237 1
92 242 1
92 247 1
92 250 1
92 257 1
92 260 1
92 263 1
92 272 1
92 280 1
92 282 1
92 285 1
92 297 1
93 5 1
93 19 1
93 21 1
93 24 1
93 26 1
93 29 1
93 37 1
93 41 1
93 42 1
93 53 1
93 65 1
93 68 1
93 74 1
93 77 1
93 78 1
93 84 1
93 94 1
93 95 1
93 97 1
93 98 1
93 100 1
93 104 1
93 107 1
93 111 1
93 120 1
93 128 1
93 132 1
93 134 1
93 138 1
93 144 1
93 145 1
93 150 1
93 163 1
93 173 1
93 176 1
93 183 1
93 191 1
93 199 1
93 202 1
93 206 1
93 210 1
93 216 1
93 220 1
93 222 1
93 228 1
93 230 1
93 231 1
93 233 1
93 239 1
93 247 1
93 256 1
93 265 1
93 267 1
93 277 1
93 283 1
93 284 1
93 288 1
93 289 1
93 299 1
94 3 1
94 6 1
94 7 1
94 8 1
94 12 1
94 13 1
94 16 1
94 28 1
94 31 1
94 35 1
94 41 1
94 42 1
94 45 1
94 46 1
94 48 1
94 59 1
94 62 1
94 63 1
94 69 1
94 70 1
94 71 1
94 78 1
94 79 1
94 84 1
94 86 1
94 87 1
94 93 1
94 99 1
94 100 1
94 102 1
94 103 1
94 104 1
94 111 1
94 113 1
94 116 1
94 124 1
94 128 1
94 151 1
94 156 1
94 157 1
94 163 1
94 173 1
94 177 1
94 182 1
94 187 1
94 196 1
94 199 1
94 209 1
94 211 1
94 224 1
94 226 1
94 230 1
94 234 1
94 235 1
94 239 1
94 241 1
94 247 1
94 248 1
94 249 1
94 251 1
94 252 1
94 258 1
94 259 1
94 260 1
94 262 1
94 263 1
94 274 1
94 275 1
94 293 1
94 298 1
95 3 1
95 4 1
95 6 1
95 8 1
95 17 1
95 19 1
95 21 1
95 27 1
95 29 1
95 31 1
95 41 1
95 42 1
95 44 1
95 52 1
95 55 1
95 76 1
95 78 1
95 79 1
95 80 1
95 81 1
95 93 1
95 102 1
95 105 1
95 108 1
95 111 1
95 116 1
95 118 1
95 119 1
95 126 1
95 134 1
95 136 1
95 139 1
95 141 1
95 145 1
95 147 1
95 150 1
95 153 1
95 155 1
95 162 1
95 164 1
95 170 1
95 171 1
95 182 1
95 184 1
95 186 1
95 187 1
95 195 1
95 197 1
95 204 1
95 206 1
95 209 1
95 218 1
95 219 1
95 220 1
95 223 1
95 229 1
95 230 1
95 232 1
95 233 1
95 245 1
95 251 1
95 260 1
95 270 1
95 283 1
95 284 1
95 300 1
96 7 1
96 10 1
96 19 1
96 32 1
96 34 1
96 38 1
96 40 1
96 47 1
96 48 1
96 52 1
96 57 1
96 68 1
96 69 1
96 70 1
96 71 1
96 72 1
96 76 1
96 84 1
96 88 1
96 92 1
96 99 1
96 103 1
96 104 1
96 110 1
96 113 1
96 114 1
96 122 1
96 128 1
96 137 1
96 139 1
96 141 1
96 149 1
96 161 1
96 182 1
96 185 1
96 195 1
96 202 1
96 207 1
96 208 1
96 212 1
96 214 1
96 215 1
96 216 1
96 222 1
96 231 1
96 234 1
96 239 1
96 246 1
96 250 1
96 251 1
96 254 1
96 261 1
96 269 1
96 276 1
96 283 1
96 295 1
97 3 1
97 5 1
97 7 1
97 9 1
97 12 1
97 19 1
97 21 1
97 23 1
97 26 1
97 33 1
97 34 1
97 35 1
97 37 1
97 39 1
97 43 1
97 48 1
97 56 1
97 74 1
97 78 1
97 82 1
97 85 1
97 93 1
97 101 1
97 106 1
97 116 1
97 122 1
97 126 1
97 129 1
97 136 1
97 137 1
97 140 1
97 145 1
97 146 1
97 152 1
97 153 1
97 164 1
97 168 1
97 173 1
97 181 1
97 188 1
97 192 1
97 193 1
97 212 1
97 214 1
97 215 1
97 221 1
97 223 1
97 228 1
97 230 1
97 240 1
97 255 1
97 258 1
97 259 1
97 269 1
97 271 1
97 280 1
97 282 1
97 285 1
97 287 1
97 289 1
97 294 1
97 295 1
98 7 1
98 14 1
98 21 1
98 22 1
98 30 1
98 32 1
98 46 1
98 48 1
98 50 1
98 54 1
98 64 1
98 78 1
98 88 1
98 90 1
98 93 1
98 100 1
98 101 1
98 102 1
98 105 1
98 107 1
98 112 1
98 121 1
98 127 1
98 128 1
98 130 1
98 131 1
98 134 1
98 137 1
98 141 1
98 144 1
98 146 1
98 148 1
98 152 1
98 153 1
98 161 1
98 167 1
98 168 1
98 170 1
98 172 1
98 173 1
98 181 1
98 186 1
98 189 1
98 194 1
98 201 1
98 202 1
98 214 1
98 217 1
98 218 1
98 223 1
98 224 1
98 227 1
98 231 1
98 235 1
98 237 1
98 238 1
98 241 1
98 246 1
98 252 1
98 255 1
98 256 1
98 259 1
98 261 1
98 268 1
98 276 1
98 280 1
98 282 1
98 286 1
98 293 1
98 299 1
99 2 1
99 9 1
99 26 1
99 36 1
99 39 1
99 43 1
99 44 1
99 46 1
99 51 1
99 58 1
99 64 1
99 71 1
99 72 1
99 75 1
99 78 1
99 81 1
99 85 1
99 92 1
99 94 1
99 96 1
99 102 1
99 104 1
99 115 1
99 116 1
99 118 1
99 120 1
99 128 1
99 137 1
99 141 1
99 146 1
99 147 1
99 149 1
99 151 1
99 164 1
99 172 1
99 189 1
99 198 1
99 200 1
99 202 1
99 205 1
99 206 1
99 208 1
99 209 1
99 212 1
99 215 1
99 217 1
99 221 1
99 237 1
99 241 1
99 253 1
99 260 1
99 264 1
99 266 1
99 269 1
99 270 1
99 271 1
99 273 1
99 274 1
99 278 1
99 291 1
99 294 1
99 297 1
100 4 1
100 8 1
100 11 1
100 12 1
100 26 1
100 32 1
100 33 1
100 35 1
100 36 1
100 42 1
100 44 1
100 46 1
100 51 1
100 54 1
100 58 1
100 59 1
100 63 1
100 64 1
100 72 1
100 92 1
100 93 1
100 94 1
100 98 1
100 101 1
100 105 1
100 109 1
100 123 1
100 124 1
100 127 1
100 140 1
100 147 1
100 159 1
100 169 1
100 171 1
100 176 1
100 179 1
100 188 1
100 194 1
100 197 1
100 198 1
100 201 1
100 204 1
100 208 1
100 211 1
100 217 1
100 223 1
100 225 1
100 232 1
100 233 1
100 235 1
100 238 1
100 239 1
100 244 1
100 247 1
100 250 1
100 253 1
100 254 1
100 257 1
100 259 1
100 261 1
100 269 1
100 293 1
100 298 1
101 1 1
101 6 1
101 7 1
101 8 1
101 14 1
101 17 1
101 21 1
101 28 1
101 32 1
101 36 1
101 37 1
101 42 1
101 43 1
101 44 1
101 45 1
101 46 1
101 51 1
101 52 1
101 54 1
101 61 1
101 64 1
101 65 1
101 77 1
101 80 1
101 82 1
101 91 1
101 97 1
101 98 1
101 100 1
101 103 1
101 109 1
101 125 1
101 127 1
101 131 1
101 135 1
101 141 1
101 147 1
101 158 1
101 160 1
101 162 1
101 165 1
101 180 1
101 191 1
101 192 1
101 195 1
101 199 1
101 206 1
101 215 1
101 221 1
101 226 1
101 229 1
101 232 1
101 234 1
101 238 1
101 241 1
101 256 1
101 264 1
101 265 1
101 267 1
101 273 1
101 276 1
101 277 1
101 278 1
101 279 1
101 281 1
101 286 1
101 289 1
101 291 1
101 292 1
101 299 1
102 2 1
102 7 1
102 12 1
102 20 1
102 21 1
102 22 1
102 23 1
102 25 1
102 36 1
102 38 1
102 40 1
102 41 1
102 45 1
102 46 1
102 51 1
102 54 1
102 59 1
102 69 1
102 72 1
102 76 1
102 78 1
102 81 1
102 94 1
102 95 1
102 98 1
102 99 1
102 104 1
102 105 1
102 117 1
102 119 1
102 120 1
102 126 1
102 130 1
102 134 1
102 135 1
102 142 1
102 148 1
102 158 1
102 174 1
102 185 1
102 186 1
102 194 1
102 196 1
102 206 1
102 207 1
102 211 1
102 213 1
102 220 1
102 227 1
102 236 1
102 245 1
102 250 1
102 253 1
102 256 1
102 257 1
102 258 1
102 260 1
102 264 1
102 266 1
102 268 1
102 272 1
102 273 1
102 276 1
102 281 1
102 286 1
102 295 1
102 297 1
102 299 1
103 4 1
103 18 1
103 26 1
103 27 1
103 28 1
103 34 1
103 37 1
103 38 1
103 48 1
103 49 1
103 51 1
103 56 1
103 60 1
103 63 1
103 68 1
103 70 1
103 74 1
103 82 1
103 83 1
103 94 1
103 96 1
103 101 1
103 106 1
103 108 1
103 115 1
103 121 1
103 124 1
103 131 1
103 137 1
103 138 1
103 146 1
103 155 1
103 157 1
103 164 1
103 171 1
103 175 1
103 181 1
103 188 1
103 192 1
103 194 1
103 207 1
103 218 1
103 219 1
103 226 1
103 228 1
103 229 1
103 230 1
103 239 1
103 241 1
103 247 1
103 250 1
103 254 1
103 259 1
103 261 1
103 273 1
103 275 1
103 278 1
103 286 1
103 292 1
103 300 1
104 4 1
104 7 1
104 8 1
104 11 1
104 25 1
104 28 1
104 29 1
104 32 1
104 35 1
104 37 1
104 41 1
104 46 1
104 49 1
104 51 1
104 64 1
104 65 1
104 70 1
104 73 1
104 85 1
104 92 1
104 93 1
104 94 1
104 96 1
104 99 1
104 102 1
104 110 1
104 115 1
104 117 1
104 118 1
104 121 1
104 126 1
104 129 1
104 134 1
104 137 1
104 142 1
104 143 1
104 144 1
104 148 1
104 156 1
104 161 1
104 164 1
104 168 1
104 172 1
104 187 1
104 188 1
104 189 1
104 190 1
104 192 1
104 196 1
104 204 1
104 211 1
104 218 1
104 222 1
104 228 1
104 230 1
104 233 1
104 247 1
104 248 1
104 251 1
104 255 1
104 256 1
104 260 1
104 265 1
104 268 1
104 271 1
104 277 1
104 287 1
104 288 1
104 293 1
104 295 1
104 296 1
104 297 1
105 1 1
105 3 1
105 6 1
105 7 1
105 8 1
105 12 1
105 13 1
105 17 1
105 18 1
105 19 1
105 29 1
105 32 1
105 37 1
105 38 1
105 43 1
105 48 1
105 58 1
105 59 1
105 82 1
105 83 1
105 87 1
105 91 1
105 95 1
105 98 1
105 100 1
105 102 1
105 113 1
105 118 1
105 119 1
105 121 1
105 127 1
105 132 1
105 135 1
105 144 1
105 146 1
105 148 1
105 153 1
105 158 1
105 168 1
105 170 1
105 171 1
105 175 1
105 181 1
105 184 1
105 188 1
105 191 1
105 194 1
105 200 1
105 202 1
105 203 1
105 206 1
105 209 1
105 214 1
105 221 1
105 222 1
105 230 1
105 232 1
105 239 1
105 249 1
105 250 1
105 251 1
105 252 1
105 257 1
105 258 1
105 262 1
105 274 1
105 278 1
105 279 1
105 287 1
105 292 1
106 1 1
106 5 1
106 10 1
106 16 1
106 22 1
106 33 1
106 37 1
106 40 1
106 57 1
106 60 1
106 66 1
106 67 1
106 76 1
106 77 1
106 80 1
106 88 1
106 89 1
106 97 1
106 103 1
106 107 1
106 110 1
106 114 1
106 115 1
106 123 1
106 131 1
106 132 1
106 136 1
106 137 1
106 147 1
106 154 1
106 155 1
106 156 1
106 160 1
106 177 1
106 179 1
106 181 1
106 182 1
106 188 1
106 201 1
106 220 1
106 222 1
106 226 1
106 232 1
106 259 1
106 265 1
106 269 1
106 277 1
106 285 1
106 292 1
106 294 1
106 298 1
107 1 1
107 7 1
107 13 1
107 19 1
107 20 1
107 22 1
107 25 1
107 30 1
107 42 1
107 52 1
107 63 1
107 79 1
107 90 1
107 93 1
107 98 1
107 106 1
107 112 1
107 115 1
107 116 1
107 118 1
107 120 1
107 121 1
107 137 1
107 139 1
107 140 1
107 158 1
107 160 1
107 168 1
107 171 1
107 175 1
107 184 1
107 185 1
107 196 1
107 199 1
107 202 1
107 213 1
107 217 1
107 221 1
107 222 1
107 223 1
107 226 1
107 233 1
107 241 1
107 242 1
107 248 1
107 250 1
107 254 1
107 256 1
107 268 1
107 289 1
107 293 1
107 296 1
107 297 1
108 1 1
108 5 1
108 6 1
108 10 1
108 17 1
108 18 1
108 20 1
108 30 1
108 40 1
108 44 1
108 45 1
108 58 1
108 62 1
108 66 1
108 67 1
108 77 1
108 80 1
108 81 1
108 88 1
108 89 1
108 91 1
108 95 1
108 103 1
108 113 1
108 114 1
108 115 1
108 117 1
108 119 1
108 121 1
108 124 1
108 128 1
108 132 1
108 133 1
108 138 1
108 143 1
108 153 1
108 154 1
108 158 1
108 162 1
108 163 1
108 167 1
108 168 1
108 171 1
108 172 1
108 180 1
108 185 1
108 189 1
108 203 1
108 204 1
108 205 1
108 207 1
108 216 1
108 223 1
108 227 1
108 228 1
108 231 1
108 234 1
108 241 1
108 244 1
108 245 1
108 257 1
108 259 1
108 262 1
108 268 1
108 272 1
108 275 1
108 277 1
108 280 1
108 286 1
108 289 1
108 292 1
108 298 1
108 299 1
108 300 1
109 4 1
109 10 1
109 17 1
109 19 1
109 27 1
109 39 1
109 45 1
109 46 1
109 48 1
109 54 1
109 60 1
109 64 1
109 73 1
109 74 1
109 83 1
109 84 1
109 100 1
109 101 1
109 115 1
109 126 1
109 131 1
109 139 1
109 148 1
109 153 1
109 154 1
109 155 1
109 162 1
109 170 1
109 172 1
109 173 1
109 176 1
109 192 1
109 195 1
109 205 1
109 221 1
109 223 1
109 232 1
109 240 1
109 241 1
109 265 1
109 266 1
109 267 1
109 268 1
109 270 1
109 272 1
109 288 1
109 289 1
109 290 1
109 294 1
109 298 1
109 299 1
109 300 1
110 1 1
110 2 1
110 13 1
110 18 1
110 19 1
110 21 1
110 29 1
110 35 1
110 38 1
110 42 1
110 43 1
110 45 1
110 46 1
110 47 1
110 50 1
110 52 1
110 59 1
110 62 1
110 63 1
110 65 1
110 74 1
110 75 1
110 76 1
110 77 1
110 80 1
110 82 1
110 91 1
110 96 1
110 104 1
110 106 1
110 111 1
110 114 1
110 118 1
110 122 1
110 125 1
110 126 1
110 128 1
110 130 1
110 142 1
110 145 1
110 146 1
110 158 1
110 184 1
110 185 1
110 186 1
110 190 1
110 191 1
110 195 1
110 200 1
110 201 1
110 202 1
110 214 1
110 215 1
110 216 1
110 217 1
110 220 1
110 230 1
110 234 1
110 238 1
110 240 1
110 245 1
110 252 1
110 258 1
110 262 1
110 263 1
110 266 1
110 272 1
110 274 1
110 275 1
110 281 1
110 299 1
111 2 1
111 4 1
111 8 1
111 9 1
111 15 1
111 24 1
111 29 1
111 36 1
111 37 1
111 40 1
111 41 1
111 44 1
111 52 1
111 58 1
111 61 1
111 63 1
111 67 1
111 70 1
111 73 1
111 79 1
111 84 1
111 86 1
111 93 1
111 94 1
111 95 1
111 110 1
111 118 1
111 123 1
111 126 1
111 129 1
111 132 1
111 138 1
111 148 1
111 161 1
111 165 1
111 172 1
111 174 1
111 175 1
111 180 1
111 185 1
111 191 1
111 204 1
111 206 1
111 210 1
111 212 1
111 224 1
111 225 1
111 227 1
111 233 1
111 235 1
111 251 1
111 252 1
111 254 1
111 255 1
111 256 1
111 260 1
111 261 1
111 265 1
111 268 1
111 269 1
111 270 1
111 271 1
111 272 1
111 274 1
111 278 1
111 285 1
111 296 1
112 1 1
112 8 1
112 9 1
112 10 1
112 13 1
112 31 1
112 42 1
112 45 1
112 53 1
112 55 1
112 62 1
112 70 1
112 71 1
112 79 1
112 85 1
112 86 1
112 89 1
112 98 1
112 107 1
112 114 1
112 116 1
112 117 1
112 119 1
112 129 1
112 131 1
112 134 1
112 139 1
112 144 1
112 147 1
112 154 1
112 158 1
112 160 1
112 163 1
112 166 1
112 183 1
112 189 1
112 193 1
112 200 1
112 207 1
112 213 1
112 218 1
112 219 1
112 225 1
112 226 1
112 235 1
112 238 1
112 240 1
112 249 1
112 252 1
112 253 1
112 258 1
112 260 1
112 264 1
112 273 1
112 275 1
112 280 1
112 282 1
112 287 1
113 3 1
113 9 1
113 13 1
113 16 1
113 22 1
113 29 1
113 38 1
113 40 1
113 47 1
113 48 1
113 52 1
113 58 1
113 61 1
113 63 1
113 64 1
113 67 1
113 73 1
113 84 1
113 88 1
113 91 1
113 92 1
113 94 1
113 96 1
113 105 1
113 108 1
113 124 1
113 127 1
113 134 1
113 142 1
113 144 1
113 145 1
113 146 1
113 153 1
113 161 1
113 166 1
113 175 1
113 179 1
113 180 1
113 186 1
113 191 1
113 192 1
113 194 1
113 205 1
113 208 1
113 220 1
113 222 1
113 223 1
113 229 1
113 244 1
113 246 1
113 254 1
113 260 1
113 267 1
113 269 1
113 270 1
113 275 1
113 279 1
113 280 1
113 283 1
113 285 1
113 286 1
113 294 1
113 297 1
113 298 1
114 1 1
114 3 1
114 6 1
114 10 1
114 16 1
114 18 1
114 23 1
114 29 1
114 31 1
114 39 1
114 40 1
114 43 1
114 47 1
114 50 1
114 58 1
114 60 1
114 61 1
114 62 1
114 75 1
114 79 1
114 81 1
114 83 1
114 87 1
114 92 1
114 96 1
114 106 1
114 108 1
114 110 1
114 112 1
114 123 1
114 124 1
114 128 1
114 129 1
114 141 1
114 144 1
114 149 1
114 162 1
114 167 1
114 168 1
114 170 1
114 173 1
114 183 1
114 192 1
114 194 1
114 199 1
114 201 1
114 204 1
114 211 1
114 219 1
114 220 1
114 224 1
114 225 1
114 230 1
114 239 1
114 241 1
114 244 1
114 247 1
114 250 1
114 265 1
114 267 1
114 268 1
114 279 1
114 281 1
114 282 1
114 294 1
114 297 1
115 2 1
115 5 1
115 13 1
115 15 1
115 29 1
115 32 1
115 37 1
115 38 1
115 54 1
115 55 1
115 57 1
115 61 1
115 63 1
115 69 1
115 76 1
115 77 1
115 89 1
115 99 1
115 103 1
115 104 1
115 106 1
115 107 1
115 108 1
115 109 1
115 116 1
115 118 1
115 119 1
115 125 1
115 127 1
115 137 1
115 138 1
115 151 1
115 165 1
115 168 1
115 173 1
115 178 1
115 181 1
115 183 1
115 186 1
115 195 1
115 201 1
115 207 1
115 211 1
115 217 1
115 219 1
115 221 1
115 222 1
115 228 1
115 233 1
115 235 1
115 246 1
115 256 1
115 260 1
115 261 1
115 262 1
115 276 1
115 280 1
115 281 1
115 285 1
115 288 1
115 291 1
116 3 1
116 14 1
116 17 1
116 19 1
116 21 1
116 45 1
116 53 1
116 61 1
116 64 1
116 68 1
116 71 1
116 76 1
116 80 1
116 89 1
116 92 1
116 94 1
116 95 1
116 97 1
116 99 1
116 107 1
116 112 1
116 115 1
116 119 1
116 125 1
116 135 1
116 136 1
116 137 1
116 154 1
116 159 1
116 166 1
116 167 1
116 193 1
116 196 1
116 197 1
116 199 1
116 200 1
116 210 1
116 211 1
116 214 1
116 216 1
116 217 1
116 222 1
116 223 1
116 237 1
116 239 1
116 243 1
116 247 1
116 254 1
116 257 1
116 263 1
116 267 1
116 270 1
116 272 1
116 274 1
116 279 1
116 282 1
116 283 1
116 285 1
116 287 1
116 291 1
116 300 1
117 4 1
117 7 1
117 12 1
117 18 1
117 19 1
117 24 1
117 28 1
117 31 1
117 33 1
117 35 1
117 36 1
117 38 1
117 41 1
117 44 1
117 55 1
117 61 1
117 70 1
117 72 1
117 73 1
117 78 1
117 79 1
117 86 1
117 87 1
117 90 1
117 102 1
117 104 1
117 108 1
117 112 1
117 118 1
117 119 1
117 123 1
117 125 1
117 141 1
117 143 1
117 147 1
117 153 1
117 155 1
117 157 1
117 162 1
117 165 1
117 174 1
117 180 1
117 185 1
117 189 1
117 196 1
117 200 1
117 201 1
117 204 1
117 206 1
117 209 1
117 210 1
117 216 1
117 224 1
117 226 1
117 231 1
117 233 1
117 238 1
117 239 1
117 249 1
117 252 1
117 260 1
117 266 1
117 271 1
117 278 1
117 286 1
117 287 1
117 295 1
117 297 1
117 300 1
118 1 1
118 5 1
118 8 1
118 13 1
118 19 1
118 20 1
118 21 1
118 38 1
118 42 1
118 57 1
118 62 1
118 65 1
118 72 1
118 74 1
118 84 1
118 90 1
118 92 1
118 95 1
118 99 1
118 104 1
118 105 1
118 107 1
118 110 1
118 111 1
118 115 1
118 117 1
118 126 1
118 127 1
118 132 1
118 133 1
118 136 1
118 138 1
118 149 1
118 154 1
118 155 1
118 163 1
118 184 1
118 187 1
118 190 1
118 198 1
118 200 1
118 203 1
118 207 1
118 209 1
118 213 1
118 225 1
118 227 1
118 237 1
118 241 1
118 242 1
118 244 1
118 245 1
118 249 1
118 256 1
118 265 1
118 280 1
118 285 1
118 286 1
118 289 1
118 290 1
118 293 1
118 294 1
118 297 1
119 9 1
119 12 1
119 16 1
119 20 1
119 31 1
119 39 1
119 43 1
119 49 1
119 58 1
119 65 1
119 70 1
119 92 1
119 95 1
119 102 1
119 105 1
119 108 1
119 112 1
119 115 1
119 116 1
119 117 1
119 120 1
119 121 1
119 127 1
119 128 1
119 139 1
119 147 1
119 150 1
119 151 1
119 156 1
119 158 1
119 163 1
119 180 1
119 183 1
119 184 1
119 185 1
119 189 1
119 191 1
119 204 1
119 205 1
119 221 1
119 222 1
119 223 1
119 232 1
119 233 1
119 235 1
119 239 1
119 241 1
119 246 1
119 249 1
119 256 1
119 258 1
119 262 1
119 263 1
119 266 1
119 267 1
119 268 1
119 269 1
119 273 1
119 285 1
119 291 1
119 292 1
119 293 1
119 297 1
119 298 1
120 12 1
120 13 1
120 30 1
120 32 1
120 38 1
120 43 1
120 53 1
120 61 1
120 63 1
120 64 1
120 68 1
120 72 1
120 73 1
120 77 1
120 83 1
120 85 1
120 88 1
120 89 1
120 90 1
120 93 1
120 99 1
120 102 1
120 107 1
120 119 1
120 122 1
120 124 1
120 125 1
120 128 1
120 132 1
120 133 1
120 140 1
120 141 1
120 144 1
120 147 1
120 152 1
120 153 1
120 154 1
120 163 1
120 164 1
120 167 1
120 173 1
120 176 1
120 190 1
120 201 1
120 207 1
120 209 1
120 222 1
120 224 1
120 226 1
120 230 1
120 234 1
120 238 1
120 242 1
120 243 1
120 250 1
120 257 1
120 259 1
120 263 1
120 265 1
120 269 1
120 282 1
120 295 1
121 4 1
121 8 1
121 13 1
121 21 1
121 24 1
121 28 1
121 30 1
121 31 1
121 49 1
121 51 1
121 61 1
121 62 1
121 69 1
121 75 1
121 77 1
121 84 1
121 87 1
121 89 1
121 98 1
121 103 1
121 104 1
121 105 1
121 107 1
121 108 1
121 119 1
121 124 1
121 126 1
121 127 1
121 132 1
121 143 1
121 144 1
121 150 1
121 160 1
121 162 1
121 174 1
121 184 1
121 186 1
121 192 1
121 201 1
121 202 1
121 204 1
121 210 1
121 211 1
121 215 1
121 224 1
121 230 1
121 231 1
121 233 1
121 234 1
121 238 1
121 252 1
121 263 1
121 265 1
121 272 1
121 273 1
121 274 1
121 275 1
121 278 1
121 283 1
122 6 1
122 11 1
122 15 1
122 17 1
122 20 1
122 24 1
122 26 1
122 40 1
122 41 1
122 42 1
122 47 1
122 58 1
122 71 1
122 72 1
122 80 1
122 85 1
122 96 1
122 97 1
122 110 1
122 120 1
122 141 1
122 146 1
122 149 1
122 155 1
122 159 1
122 172 1
122 174 1
122 175 1
122 183 1
122 186 1
122 188 1
122 195 1
122 212 1
122 214 1
122 219 1
122 221 1
122 224 1
122 226 1
122 232 1
122 234 1
122 238 1
122 247 1
122 251 1
122 270 1
122 272 1
122 273 1
122 274 1
122 279 1
122 283 1
122 286 1
122 288 1
122 289 1
122 297 1
123 8 1
123 24 1
123 28 1
123 31 1
123 43 1
123 44 1
123 46 1
123 50 1
123 64 1
123 66 1
123 69 1
123 72 1
123 85 1
123 86 1
123 100 1
123 106 1
123 111 1
123 114 1
123 117 1
123 125 1
123 130 1
123 132 1
123 145 1
123 147 1
123 149 1
123 152 1
123 154 1
123 168 1
123 174 1
123 185 1
123 187 1
123 189 1
123 190 1
123 191 1
123 194 1
123 213 1
123 221 1
123 224 1
123 227 1
123 236 1
123 238 1
123 240 1
123 242 1
123 254 1
123 259 1
123 260 1
123 261 1
123 273 1
123 274 1
123 275 1
123 288 1
123 299 1
124 3 1
124 6 1
124 7 1
124 14 1
124 16 1
124 21 1
124 22 1
124 23 1
124 25 1
124 28 1
124 31 1
124 35 1
124 44 1
124 48 1
124 54 1
124 62 1
124 65 1
124 66 1
124 77 1
124 81 1
124 82 1
124 86 1
124 92 1
124 94 1
124 100 1
124 103 1
124 108 1
124 113 1
124 114 1
124 120 1
124 121 1
124 126 1
124 128 1
124 134 1
124 154 1
124 160 1
124 164 1
124 168 1
124 172 1
124 179 1
124 183 1
124 187 1
124 190 1
124 192 1
124 207 1
124 210 1
124 212 1
124 213 1
124 223 1
124 224 1
124 231 1
124 233 1
124 235 1
124 240 1
124 251 1
124 276 1
124 280 1
124 284 1
124 286 1
124 289 1
124 291 1
124 296 1
125 8 1
125 10 1
125 11 1
125 18 1
125 20 1
125 22 1
125 32 1
125 33 1
125 34 1
125 36 1
125 42 1
125 43 1
125 47 1
125 48 1
125 49 1
125 51 1
125 55 1
125 56 1
125 65 1
125 72 1
125 76 1
125 77 1
125 81 1
125 84 1
125 85 1
125 101 1
125 110 1
125 115 1
125 116 1
125 117 1
125 120 1
125 123 1
125 128 1
125 133 1
125 135 1
125 136 1
125 138 1
125 139 1
125 145 1
125 150 1
125 152 1
125 159 1
125 170 1
125 177 1
125 181 1
125 182 1
125 183 1
125 190 1
125 192 1
125 197 1
125 198 1
125 206 1
125 209 1
125 212 1
125 226 1
125 233 1
125 254 1
125 256 1
125 260 1
125 261 1
125 266 1
125 288 1
125 289 1
125 290 1
126 1 1
126 5 1
126 22 1
126 23 1
126 26 1
126 35 1
126 37 1
126 43 1
126 48 1
126 52 1
126 60 1
126 64 1
126 68 1
126 79 1
126 80 1
126 82 1
126 85 1
126 87 1
126 89 1
126 95 1
126 97 1
126 102 1
126 104 1
126 109 1
126 110 1
126 111 1
126 118 1
126 121 1
126 124 1
126 138 1
126 139 1
126 149 1
126 157 1
126 162 1
126 164 1
126 165 1
126 170 1
126 185 1
126 188 1
126 196 1
126 212 1
126 215 1
126 217 1
126 228 1
126 231 1
126 233 1
126 239 1
126 240 1
126 252 1
126 256 1
126 259 1
126 270 1
126 272 1
126 274 1
126 276 1
126 285 1
126 289 1
126 297 1
127 4 1
127 9 1
127 31 1
127 32 1
127 35 1
127 38 1
127 39 1
127 42 1
127 46 1
127 49 1
127 51 1
127 52 1
127 55 1
127 56 1
127 58 1
127 60 1
127 62 1
127 66 1
127 70 1
127 76 1
127 79 1
127 82 1
127 83 1
127 98 1
127 100 1
127 101 1
127 105 1
127 113 1
127 115 1
127 118 1
127 119 1
127 121 1
127 133 1
127 142 1
127 144 1
127 147 1
127 148 1
127 153 1
127 154 1
127 159 1
127 164 1
127 196 1
127 215 1
127 220 1
127 221 1
127 232 1
127 240 1
127 241 1
127 243 1
127 246 1
127 250 1
127 251 1
127 261 1
127 263 1
127 264 1
127 266 1
127 282 1
127 285 1
127 295 1
127 296 1
127 300 1
128 7 1
128 9 1
128 12 1
128 16 1
128 18 1
128 20 1
128 22 1
128 25 1
128 29 1
128 34 1
128 39 1
128 56 1
128 58 1
128 59 1
128 62 1
128 64 1
128 69 1
128 70 1
128 72 1
128 78 1
128 81 1
128 84 1
128 87 1
128 88 1
128 89 1
128 91 1
128 93 1
128 94 1
128 96 1
128 98 1
128 99 1
128 108 1
128 110 1
128 114 1
128 119 1
128 120 1
128 124 1
128 125 1
128 144 1
128 148 1
128 154 1
128 157 1
128 159 1
128 163 1
128 177 1
128 181 1
128 194 1
128 197 1
128 212 1
128 214 1
128 217 1
128 221 1
128 224 1
128 227 1
128 230 1
128 233 1
128 240 1
128 242 1
128 245 1
128 246 1
128 248 1
128 262 1
128 266 1
128 271 1
128 287 1
128 288 1
128 293 1
128 296 1
128 299 1
129 1 1
129 13 1
129 20 1
129 22 1
129 24 1
129 36 1
129 37 1
129 38 1
129 51 1
129 52 1
129 55 1
129 74 1
129 75 1
129 97 1
129 104 1
129 111 1
129 112 1
129 114 1
129 130 1
129 135 1
129 136 1
129 138 1
129 146 1
129 169 1
129 171 1
129 172 1
129 173 1
129 177 1
129 178 1
129 181 1
129 182 1
129 189 1
129 192 1
129 193 1
129 196 1
129 200 1
129 202 1
129 204 1
129 215 1
129 217 1
129 229 1
129 231 1
129 232 1
129 243 1
129 245 1
129 246 1
129 251 1
129 252 1
129 254 1
129 255 1
129 258 1
129 268 1
129 270 1
129 273 1
129 274 1
129 282 1
129 284 1
129 285 1
129 291 1
129 295 1
129 297 1
130 1 1
130 8 1
130 11 1
130 13 1
130 22 1
130 29 1
130 32 1
130 42 1
130 45 1
130 52 1
130 58 1
130 60 1
130 63 1
130 65 1
130 71 1
130 73 1
130 87 1
130 91 1
130 92 1
130 98 1
130 102 1
130 110 1
130 123 1
130 129 1
130 134 1
130 138 1
130 145 1
130 146 1
130 148 1
130 156 1
130 161 1
130 164 1
130 165 1
130 174 1
130 176 1
130 182 1
130 186 1
130 188 1
130 201 1
130 202 1
130 222 1
130 231 1
130 237 1
130 244 1
130 246 1
130 247 1
130 248 1
130 252 1
130 255 1
130 263 1
130 276 1
130 284 1
130 289 1
130 294 1
131 3 1
131 11 1
131 17 1
131 26 1
131 27 1
131 28 1
131 29 1
131 30 1
131 36 1
131 37 1
131 41 1
131 62 1
131 63 1
131 66 1
131 68 1
131 69 1
131 73 1
131 74 1
131 80 1
131 81 1
131 98 1
131 101 1
131 103 1
131 106 1
131 109 1
131 112 1
131 146 1
131 155 1
131 176 1
131 195 1
131 201 1
131 205 1
131 216 1
131 218 1
131 219 1
131 220 1
131 223 1
131 228 1
131 229 1
131 230 1
131 235 1
131 240 1
131 243 1
131 249 1
131 252 1
131 257 1
131 258 1
131 260 1
131 265 1
131 273 1
131 279 1
131 289 1
131 296 1
131 298 1
131 299 1
132 8 1
132 11 1
132 16 1
132 20 1
132 21 1
132 24 1
132 25 1
132 28 1
132 31 1
132 32 1
132 36 1
132 40 1
132 44 1
132 51 1
132 54 1
132 75 1
132 87 1
132 89 1
132 93 1
132 105 1
132 106 1
132 108 1
132 111 1
132 118 1
132 120 1
132 121 1
132 123 1
132 152 1
132 170 1
132 171 1
132 177 1
132 185 1
132 205 1
132 216 1
132 231 1
132 232 1
132 238 1
132 239 1
132 253 1
132 258 1
132 260 1
132 262 1
132 285 1
132 287 1
132 293 1
132 298 1
133 1 1
133 4 1
133 6 1
133 7 1
133 10 1
133 19 1
133 25 1
133 30 1
133 45 1
133 49 1
133 61 1
133 63 1
133 69 1
133 73 1
133 78 1
133 80 1
133 87 1
133 92 1
133 108 1
133 118 1
133 120 1
133 125 1
133 127 1
133 134 1
133 138 1
133 139 1
133 143 1
133 145 1
133 148 1
133 150 1
133 157 1
133 172 1
133 179 1
133 186 1
133 206 1
133 207 1
133 213 1
133 214 1
133 215 1
133 222 1
133 230 1
133 232 1
133 240 1
133 243 1
133 247 1
133 251 1
133 253 1
133 255 1
133 256 1
133 257 1
133 264 1
133 272 1
133 289 1
133 291 1
133 296 1
133 299 1
134 2 1
134 5 1
134 11 1
134 13 1
134 14 1
134 20 1
134 31 1
134 37 1
134 39 1
134 40 1
134 44 1
134 45 1
134 48 1
134 51 1
134 70 1
134 73 1
134 79 1
134 81 1
134 93 1
134 95 1
134 98 1
134 102 1
134 104 1
134 112 1
134 113 1
134 124 1
134 130 1
134 133 1
134 137 1
134 144 1
134 145 1
134 156 1
134 159 1
134 160 1
134 180 1
134 183 1
134 184 1
134 195 1
134 201 1
134 203 1
134 205 1
134 209 1
134 211 1
134 214 1
134 217 1
134 233 1
134 250 1
134 258 1
134 270 1
134 271 1
134 272 1
134 277 1
134 280 1
134 293 1
134 294 1
134 297 1
134 299 1
135 1 1
135 10 1
135 12 1
135 13 1
135 29 1
135 36 1
135 37 1
135 46 1
135 48 1
135 50 1
135 54 1
135 55 1
135 61 1
135 63 1
135 66 1
135 69 1
135 72 1
135 74 1
135 77 1
135 82 1
135 83 1
135 101 1
135 102 1
135 105 1
135 116 1
135 125 1
135 129 1
135 140 1
135 147 1
135 152 1
135 158 1
135 162 1
135 185 1
135 188 1
135 189 1
135 190 1
135 197 1
135 198 1
135 203 1
135 207 1
135 215 1
135 220 1
135 223 1
135 224 1
135 234 1
135 235 1
135 237 1
135 240 1
135 245 1
135 249 1
135 250 1
135 251 1
135 254 1
135 265 1
135 270 1
135 281 1
135 282 1
135 292 1
135 297 1
136 3 1
136 6 1
136 7 1
136 8 1
136 10 1
136 11 1
136 12 1
136 17 1
136 19 1
136 20 1
136 21 1
136 32 1
136 38 1
136 40 1
136 42 1
136 53 1
136 62 1
136 65 1
136 67 1
136 70 1
136 73 1
136 78 1
136 79 1
136 82 1
136 90 1
136 95 1
136 97 1
136 106 1
136 116 1
136 118 1
136 125 1
136 129 1
136 139 1
136 142 1
136 146 1
136 147 1
136 148 1
136 149 1
136 154 1
136 155 1
136 158 1
136 159 1
136 161 1
136 176 1
136 180 1
136 191 1
136 206 1
136 207 1
136 209 1
136 213 1
136 222 1
136 223 1
136 243 1
136 246 1
136 249 1
136 254 1
136 263 1
136 266 1
136 278 1
136 290 1
136 291 1
136 299 1
137 5 1
137 8 1
137 12 1
137 18 1
137 26 1
137 29 1
137 41 1
137 43 1
137 56 1
137 60 1
137 68 1
137 69 1
137 75 1
137 91 1
137 96 1
137 97 1
137 98 1
137 99 1
137 103 1
137 104 1
137 106 1
137 107 1
137 115 1
137 116 1
137 134 1
137 138 1
137 146 1
137 148 1
137 155 1
137 158 1
137 162 1
137 182 1
137 192 1
137 202 1
137 203 1
137 209 1
137 210 1
137 211 1
137 214 1
137 217 1
137 222 1
137 223 1
137 228 1
137 233 1
137 236 1
137 242 1
137 245 1
137 249 1
137 250 1
137 252 1
137 257 1
137 266 1
137 270 1
137 271 1
137 275 1
137 278 1
137 298 1
138 4 1
138 13 1
138 17 1
138 18 1
138 19 1
138 23 1
138 33 1
138 36 1
138 44 1
138 46 1
138 47 1
138 50 1
138 51 1
138 52 1
138 56 1
138 61 1
138 62 1
138 63 1
138 65 1
138 66 1
138 71 1
138 83 1
138 84 1
138 85 1
138 93 1
138 103 1
138 108 1
138 111 1
138 115 1
138 118 1
138 125 1
138 126 1
138 129 1
138 130 1
138 133 1
138 137 1
138 148 1
138 150 1
138 155 1
138 156 1
138 160 1
138 170 1
138 176 1
138 179 1
138 180 1
138 182 1
138 185 1
138 193 1
138 194 1
138 198 1
138 199 1
138 202 1
138 204 1
138 205 1
138 207 1
138 218 1
138 219 1
138 220 1
138 224 1
138 225 1
138 228 1
138 233 1
138 234 1
138 238 1
138 240 1
138 248 1
138 256 1
138 257 1
138 259 1
138 263 1
138 266 1
138 269 1
138 270 1
138 275 1
138 276 1
138 282 1
138 290 1
138 292 1
139 1 1
139 4 1
139 5 1
139 8 1
139 14 1
139 16 1
139 17 1
139 21 1
139 24 1
139 34 1
139 37 1
139 42 1
139 46 1
139 57 1
139 60 1
139 71 1
139 74 1
139 76 1
139 77 1
139 85 1
139 88 1
139 95 1
139 96 1
139 107 1
139 109 1
139 112 1
139 119 1
139 125 1
139 126 1
139 133 1
139 136 1
139 140 1
139 143 1
139 146 1
139 153 1
139 154 1
139 158 1
139 177 1
139 179 1
139 184 1
139 186 1
139 190 1
139 194 1
139 201 1
139 211 1
139 224 1
139 225 1
139 226 1
139 227 1
139 229 1
139 231 1
139 244 1
139 246 1
139 250 1
139 253 1
139 262 1
139 267 1
139 297 1
139 298 1
139 299 1
140 1 1
140 6 1
140 10 1
140 18 1
140 19 1
140 21 1
140 28 1
140 34 1
140 44 1
140 52 1
140 53 1
140 58 1
140 61 1
140 77 1
140 97 1
140 100 1
140 107 1
140 120 1
140 135 1
140 139 1
140 145 1
140 149 1
140 152 1
140 172 1
140 176 1
140 178 1
140 179 1
140 181 1
140 182 1
140 190 1
140 191 1
140 193 1
140 206 1
140 209 1
140 221 1
140 224 1
140 228 1
140 229 1
140 232 1
140 234 1
140 243 1
140 244 1
140 250 1
140 259 1
140 267 1
140 269 1
140 270 1
140 271 1
140 277 1
140 282 1
140 287 1
140 288 1
140 300 1
141 1 1
141 4 1
141 9 1
141 18 1
141 19 1
141 20 1
141 23 1
141 24 1
141 26 1
141 32 1
141 36 1
141 37 1
141 49 1
141 51 1
141 57 1
141 63 1
141 67 1
141 92 1
141 95 1
141 96 1
141 98 1
141 99 1
141 101 1
141 114 1
141 117 1
141 120 1
141 122 1
141 143 1
141 150 1
141 156 1
141 160 1
141 163 1
141 167 1
141 174 1
141 175 1
141 177 1
141 181 1
141 184 1
141 186 1
141 188 1
141 190 1
141 192 1
141 196 1
141 198 1
141 205 1
141 215 1
141 218 1
141 225 1
141 229 1
141 230 1
141 236 1
141 239 1
141 240 1
141 242 1
141 244 1
141 255 1
141 256 1
141 257 1
141 259 1
141 260 1
141 262 1
141 264 1
141 267 1
141 268 1
141 273 1
141 274 1
141 275 1
141 276 1
141 277 1
141 278 1
141 279 1
141 280 1
141 281 1
141 282 1
141 283 1
141 284 1
142 2 1
142 6 1
142 11 1
142 13 1
142 19 1
142 23 1
142 33 1
142 37 1
142 41 1
142 43 1
142 54 1
142 56 1
142 57 1
142 59 1
142 74 1
142 77 1
142 79 1
142 83 1
142 89 1
142 92 1
142 102 1
142 104 1
142 110 1
142 113 1
142 127 1
142 136 1
142 143 1
142 147 1
142 150 1
142 153 1
142 160 1
142 165 1
142 171 1
142 172 1
142 174 1
142 175 1
142 182 1
142 183 1
142 184 1
142 187 1
142 190 1
142 196 1
142 199 1
142 202 1
142 210 1
142 213 1
142 216 1
142 219 1
142 222 1
142 226 1
142 229 1
142 234 1
142 236 1
142 238 1
142 249 1
142 257 1
142 261 1
142 263 1
142 266 1
142 270 1
142 275 1
142 284 1
142 285 1
142 286 1
142 294 1
142 297 1
143 8 1
143 16 1
143 18 1
143 21 1
143 25 1
143 33 1
143 35 1
143 44 1
143 46 1
143 50 1
143 51 1
143 68 1
143 72 1
143 73 1
143 78 1
143 81 1
143 86 1
143 91 1
143 104 1
143 108 1
143 117 1
143 121 1
143 133 1
143 139 1
143 141 1
143 142 1
143 148 1
143 155 1
143 156 1
143 167 1
143 169 1
143 171 1
143 172 1
143 196 1
143 205 1
143 206 1
143 212 1
143 236 1
143 238 1
143 241 1
143 246 1
143 247 1
143 251 1
143 253 1
143 260 1
143 270 1
143 271 1
143 274 1
143 276 1
143 282 1
143 289 1
143 295 1
144 5 1
144 11 1
144 12 1
144 26 1
144 28 1
144 30 1
144 35 1
144 39 1
144 47 1
144 54 1
144 56 1
144 59 1
144 70 1
144 81 1
144 82 1
144 84 1
144 86 1
144 87 1
144 90 1
144 91 1
144 93 1
144 98 1
144 104 1
144 105 1
144 112 1
144 113 1
144 114 1
144 120 1
144 121 1
144 127 1
144 128 1
144 134 1
144 147 1
144 148 1
144 161 1
144 164 1
144 169 1
144 170 1
144 172 1
144 177 1
144 179 1
144 190 1
144 195 1
144 197 1
144 203 1
144 206 1
144 207 1
144 213 1
144 214 1
144 221 1
144 223 1
144 234 1
144 236 1
144 247 1
144 252 1
144 255 1
144 256 1
144 263 1
144 264 1
144 270 1
144 274 1
144 275 1
144 286 1
144 289 1
144 296 1
145 3 1
145 5 1
145 7 1
145 22 1
145 26 1
145 27 1
145 29 1
145 31 1
145 41 1
145 45 1
145 46 1
145 48 1
145 58 1
145 59 1
145 62 1
145 65 1
145 81 1
145 91 1
145 93 1
145 95 1
145 97 1
145 110 1
145 113 1
145 123 1
145 125 1
145 130 1
145 133 1
145 134 1
145 140 1
145 146 1
145 150 1
145 151 1
145 158 1
145 166 1
145 171 1
145 181 1
145 184 1
145 187 1
145 203 1
145 208 1
145 211 1
145 223 1
145 224 1
145 226 1
145 231 1
145 233 1
145 234 1
145 239 1
145 242 1
145 255 1
145 261 1
145 263 1
145 265 1
145 270 1
145 274 1
145 290 1
146 3 1
146 4 1
146 15 1
146 16 1
146 18 1
146 23 1
146 31 1
146 33 1
146 35 1
146 39 1
146 55 1
146 56 1
146 57 1
146 62 1
146 70 1
146 75 1
146 77 1
146 83 1
146 85 1
146 89 1
146 90 1
146 92 1
146 97 1
146 98 1
146 99 1
146 103 1
146 105 1
146 110 1
146 113 1
146 122 1
146 129 1
146 130 1
146 131 1
146 136 1
146 137 1
146 139 1
146 145 1
146 150 1
146 151 1
146 170 1
146 175 1
146 178 1
146 179 1
146 181 1
146 182 1
146 187 1
146 189 1
146 193 1
146 197 1
146 198 1
146 201 1
146 214 1
146 222 1
146 223 1
146 234 1
146 235 1
146 236 1
146 239 1
146 241 1
146 243 1
146 246 1
146 251 1
146 255 1
146 260 1
146 269 1
146 273 1
146 275 1
146 279 1
147 15 1
147 18 1
147 21 1
147 31 1
147 34 1
147 35 1
147 36 1
147 51 1
147 58 1
147 59 1
147 60 1
147 64 1
147 65 1
147 70 1
147 73 1
147 84 1
147 85 1
147 88 1
147 90 1
147 95 1
147 99 1
147 100 1
147 101 1
147 106 1
147 112 1
147 117 1
147 119 1
147 120 1
147 123 1
147 127 1
147 135 1
147 136 1
147 142 1
147 144 1
147 148 1
147 152 1
147 156 1
147 157 1
147 163 1
147 166 1
147 174 1
147 180 1
147 182 1
147 199 1
147 205 1
147 206 1
147 210 1
147 225 1
147 228 1
147 238 1
147 244 1
147 249 1
147 251 1
147 257 1
147 259 1
147 263 1
147 264 1
147 284 1
147 287 1
147 294 1
147 296 1
148 1 1
148 14 1
148 21 1
148 26 1
148 29 1
148 31 1
148 32 1
148 34 1
148 35 1
148 38 1
148 41 1
148 43 1
148 45 1
148 47 1
148 68 1
148 72 1
148 77 1
148 78 1
148 82 1
148 87 1
148 98 1
148 102 1
148 104 1
148 105 1
148 109 1
148 111 1
148 127 1
148 128 1
148 130 1
148 133 1
148 136 1
148 137 1
148 138 1
148 143 1
148 144 1
148 147 1
148 154 1
148 155 1
148 156 1
148 157 1
148 160 1
148 162 1
148 173 1
148 174 1
148 187 1
148 188 1
148 194 1
148 198 1
148 204 1
148 207 1
148 212 1
148 218 1
148 219 1
148 228 1
148 231 1
148 234 1
148 236 1
148 240 1
148 242 1
148 253 1
148 267 1
148 270 1
148 274 1
148 280 1
148 286 1
148 289 1
148 291 1
148 296 1
148 297 1
148 298 1
149 3 1
149 7 1
149 10 1
149 16 1
149 26 1
149 31 1
149 32 1
149 39 1
149 40 1
149 60 1
149 62 1
149 66 1
149 69 1
149 70 1
149 72 1
149 87 1
149 96 1
149 99 1
149 114 1
149 118 1
149 122 1
149 123 1
149 126 1
149 136 1
149 140 1
149 150 1
149 151 1
149 154 1
149 156 1
149 167 1
149 168 1
149 177 1
149 178 1
149 193 1
149 200 1
149 211 1
149 213 1
149 221 1
149 225 1
149 228 1
149 232 1
149 240 1
149 241 1
149 244 1
149 249 1
149 262 1
149 275 1
149 282 1
149 284 1
149 287 1
149 290 1
150 3 1
150 5 1
150 10 1
150 11 1
150 13 1
150 28 1
150 29 1
150 31 1
150 38 1
150 44 1
150 46 1
150 49 1
150 50 1
150 56 1
150 64 1
150 65 1
150 79 1
150 84 1
150 86 1
150 92 1
150 93 1
150 95 1
150 119 1
150 121 1
150 125 1
150 133 1
150 138 1
150 141 1
150 142 1
150 145 1
150 146 1
150 149 1
150 156 1
150 157 1
150 159 1
150 162 1
150 165 1
150 169 1
150 176 1
150 182 1
150 199 1
150 217 1
150 219 1
150 223 1
150 225 1
150 240 1
150 244 1
150 245 1
150 250 1
150 251 1
150 256 1
150 260 1
150 261 1
150 265 1
150 269 1
150 273 1
150 275 1
150 276 1
150 288 1
150 291 1
150 297 1
150 299 1
151 3 1
151 9 1
151 18 1
151 22 1
151 24 1
151 25 1
151 30 1
151 42 1
151 44 1
151 52 1
151 58 1
151 64 1
151 68 1
151 70 1
151 75 1
151 76 1
151 78 1
151 83 1
151 84 1
151 85 1
151 88 1
151 89 1
151 94 1
151 99 1
151 115 1
151 119 1
151 145 1
151 146 1
151 149 1
151 155 1
151 164 1
151 170 1
151 171 1
151 174 1
151 176 1
151 182 1
151 191 1
151 201 1
151 217 1
151 219 1
151 232 1
151 250 1
151 251 1
151 257 1
151 268 1
151 269 1
151 273 1
151 276 1
151 277 1
151 289 1
151 290 1
151 296 1
152 2 1
152 7 1
152 8 1
152 13 1
152 19 1
152 22 1
152 28 1
152 29 1
152 34 1
152 38 1
152 48 1
152 54 1
152 62 1
152 75 1
152 81 1
152 89 1
152 97 1
152 98 1
152 120 1
152 123 1
152 125 1
152 132 1
152 135 1
152 140 1
152 147 1
152 158 1
152 168 1
152 169 1
152 173 1
152 175 1
152 177 1
152 180 1
152 190 1
152 192 1
152 193 1
152 195 1
152 201 1
152 202 1
152 210 1
152 217 1
152 225 1
152 233 1
152 234 1
152 239 1
152 240 1
152 249 1
152 250 1
152 254 1
152 255 1
152 262 1
152 269 1
152 295 1
152 298 1
153 2 1
153 4 1
153 7 1
153 19 1
153 39 1
153 45 1
153 56 1
153 57 1
153 60 1
153 63 1
153 68 1
153 90 1
153 95 1
153 97 1
153 98 1
153 105 1
153 108 1
153 109 1
153 113 1
153 117 1
153 120 1
153 127 1
153 139 1
153 142 1
153 160 1
153 164 1
153 168 1
153 171 1
153 174 1
153 180 1
153 186 1
153 188 1
153 192 1
153 202 1
153 204 1
153 214 1
153 215 1
153 219 1
153 222 1
153 223 1
153 224 1
153 226 1
153 230 1
153 234 1
153 236 1
153 239 1
153 240 1
153 251 1
153 265 1
153 269 1
153 272 1
153 273 1
153 275 1
153 287 1
153 288 1
153 291 1
153 294 1
154 2 1
154 4 1
154 6 1
154 15 1
154 19 1
154 28 1
154 35 1
154 38 1
154 39 1
154 50 1
154 51 1
154 54 1
154 58 1
154 62 1
154 63 1
154 65 1
154 70 1
154 74 1
154 76 1
154 79 1
154 106 1
154 108 1
154 109 1
154 112 1
154 116 1
154 118 1
154 120 1
154 123 1
154 124 1
154 127 1
154 128 1
154 136 1
154 139 1
154 148 1
154 149 1
154 156 1
154 157 1
154 160 1
154 163 1
154 165 1
154 173 1
154 177 1
154 189 1
154 195 1
154 196 1
154 197 1
154 198 1
154 201 1
154 203 1
154 205 1
154 207 1
154 211 1
154 212 1
154 214 1
154 221 1
154 226 1
154 227 1
154 232 1
154 234 1
154 243 1
154 244 1
154 245 1
154 253 1
154 255 1
154 256 1
154 271 1
154 274 1
154 275 1
154 282 1
154 292 1
154 294 1
154 299 1
155 4 1
155 8 1
155 10 1
155 12 1
155 42 1
155 45 1
155 48 1
155 54 1
155 68 1
155 69 1
155 72 1
155 75 1
155 79 1
155 90 1
155 91 1
155 95 1
155 103 1
155 106 1
155 109 1
155 117 1
155 118 1
155 122 1
155 131 1
155 136 1
155 137 1
155 138 1
155 143 1
155 148 1
155 151 1
155 156 1
155 159 1
155 169 1
155 173 1
155 177 1
155 178 1
155 179 1
155 185 1
155 190 1
155 191 1
155 194 1
155 201 1
155 206 1
155 212 1
155 215 1
155 216 1
155 220 1
155 223 1
155 225 1
155 226 1
155 227 1
155 228 1
155 233 1
155 234 1
155 243 1
155 244 1
155 259 1
155 270 1
155 283 1
155 288 1
155 291 1
155 292 1
155 294 1
156 4 1
156 8 1
156 13 1
156 14 1
156 27 1
156 29 1
156 31 1
156 32 1
156 42 1
156 46 1
156 53 1
156 55 1
156 76 1
156 80 1
156 85 1
156 87 1
156 91 1
156 94 1
156 104 1
156 106 1
156 119 1
156 130 1
156 134 1
156 138 1
156 141 1
156 143 1
156 147 1
156 148 1
156 149 1
156 150 1
156 154 1
156 155 1
156 162 1
156 167 1
156 181 1
156 182 1
156 193 1
156 194 1
156 196 1
156 200 1
156 211 1
156 220 1
156 229 1
156 243 1
156 244 1
156 247 1
156 263 1
156 268 1
156 274 1
156 278 1
156 285 1
156 289 1
156 295 1
156 296 1
156 299 1
157 1 1
157 4 1
157 5 1
157 9 1
157 13 1
157 16 1
157 30 1
157 32 1
157 38 1
157 42 1
157 45 1
157 46 1
157 55 1
157 63 1
157 70 1
157 75 1
157 80 1
157 84 1
157 94 1
157 103 1
157 117 1
157 126 1
157 128 1
157 133 1
157 147 1
157 148 1
157 150 1
157 154 1
157 158 1
157 163 1
157 165 1
157 167 1
157 170 1
157 171 1
157 172 1
157 173 1
157 177 1
157 186 1
157 190 1
157 202 1
157 206 1
157 207 1
157 214 1
157 225 1
157 232 1
157 233 1
157 237 1
157 246 1
157 247 1
157 249 1
157 250 1
157 252 1
157 253 1
157 259 1
157 261 1
157 262 1
157 281 1
157 285 1
157 288 1
157 293 1
157 296 1
157 299 1
158 3 1
158 11 1
158 23 1
158 27 1
158 34 1
158 40 1
158 45 1
158 55 1
158 56 1
158 57 1
158 58 1
158 59 1
158 67 1
158 68 1
158 71 1
158 76 1
158 80 1
158 81 1
158 86 1
158 87 1
158 91 1
158 92 1
158 101 1
158 102 1
158 105 1
158 107 1
158 108 1
158 110 1
158 112 1
158 119 1
158 135 1
158 136 1
158 137 1
158 139 1
158 145 1
158 152 1
158 157 1
158 161 1
158 163 1
158 169 1
158 173 1
158 177 1
158 181 1
158 184 1
158 187 1
158 188 1
158 195 1
158 201 1
158 205 1
158 215 1
158 225 1
158 228 1
158 229 1
158 230 1
158 239 1
158 247 1
158 250 1
158 257 1
158 258 1
158 265 1
158 279 1
158 282 1
158 293 1
159 6 1
159 21 1
159 22 1
159 30 1
159 35 1
159 36 1
159 37 1
159 38 1
159 43 1
159 46 1
159 52 1
159 53 1
159 58 1
159 67 1
159 83 1
159 100 1
159 116 1
159 122 1
159 125 1
159 127 1
159 128 1
159 134 1
159 136 1
159 150 1
159 155 1
159 160 1
159 176 1
159 182 1
159 185 1
159 186 1
159 194 1
159 197 1
159 209 1
159 211 1
159 212 1
159 213 1
159 217 1
159 222 1
159 227 1
159 236 1
159 251 1
159 253 1
159 254 1
159 258 1
159 259 1
159 265 1
159 271 1
159 276 1
159 277 1
159 282 1
159 283 1
159 289 1
159 290 1
159 291 1
159 293 1
160 33 1
160 35 1
160 38 1
160 42 1
160 44 1
160 50 1
160 62 1
160 65 1
160 77 1
160 80 1
160 83 1
160 85 1
160 101 1
160 106 1
160 107 1
160 112 1
160 121 1
160 124 1
160 134 1
160 138 1
160 141 1
160 142 1
160 148 1
160 153 1
160 154 1
160 159 1
160 170 1
160 171 1
160 175 1
160 183 1
160 200 1
160 203 1
160 204 1
160 205 1
160 216 1
160 217 1
160 223 1
160 224 1
160 226 1
160 234 1
160 240 1
160 241 1
160 244 1
160 246 1
160 247 1
160 250 1
160 254 1
160 267 1
160 275 1
160 276 1
160 281 1
160 291 1
160 292 1
160 295 1
160 300 1
161 9 1
161 17 1
161 19 1
161 38 1
161 49 1
161 58 1
161 63 1
161 76 1
161 78 1
161 84 1
161 86 1
161 92 1
161 96 1
161 98 1
161 104 1
161 111 1
161 113 1
161 130 1
161 136 1
161 144 1
161 158 1
161 176 1
161 177 1
161 185 1
161 187 1
161 190 1
161 195 1
161 196 1
161 207 1
161 211 1
161 224 1
161 227 1
161 235 1
161 240 1
161 247 1
161 249 1
161 251 1
161 254 1
161 263 1
161 268 1
161 282 1
161 289 1
161 299 1
162 12 1
162 14 1
162 16 1
162 20 1
162 21 1
162 24 1
162 31 1
162 32 1
162 39 1
162 45 1
162 54 1
162 65 1
162 69 1
162 74 1
162 81 1
162 82 1
162 90 1
162 95 1
162 101 1
162 108 1
162 109 1
162 114 1
162 117 1
162 121 1
162 126 1
162 135 1
162 137 1
162 148 1
162 150 1
162 156 1
162 163 1
162 169 1
162 177 1
162 179 1
162 184 1
162 198 1
162 202 1
162 209 1
162 221 1
162 222 1
162 223 1
162 230 1
162 236 1
162 244 1
162 246 1
162 259 1
162 260 1
162 278 1
162 282 1
162 285 1
162 292 1
162 295 1
162 299 1
162 300 1
163 3 1
163 14 1
163 16 1
163 17 1
163 24 1
163 35 1
163 44 1
163 55 1
163 56 1
163 58 1
163 64 1
163 77 1
163 78 1
163 79 1
163 89 1
163 93 1
163 94 1
163 108 1
163 112 1
163 118 1
163 119 1
163 120 1
163 128 1
163 141 1
163 147 1
163 154 1
163 157 1
163 158 1
163 162 1
163 166 1
163 168 1
163 171 1
163 173 1
163 174 1
163 175 1
163 178 1
163 185 1
163 186 1
163 194 1
163 196 1
163 198 1
163 200 1
163 202 1
163 215 1
163 222 1
163 224 1
163 235 1
163 240 1
163 244 1
163 246 1
163 248 1
163 250 1
163 256 1
163 258 1
163 260 1
163 261 1
163 272 1
163 281 1
163 293 1
164 1 1
164 12 1
164 17 1
164 31 1
164 35 1
164 46 1
164 48 1
164 51 1
164 52 1
164 66 1
164 70 1
164 81 1
164 83 1
164 86 1
164 95 1
164 97 1
164 99 1
164 103 1
164 104 1
164 120 1
164 124 1
164 126 1
164 127 1
164 130 1
164 144 1
164 151 1
164 153 1
164 166 1
164 167 1
164 168 1
164 179 1
164 182 1
164 199 1
164 210 1
164 211 1
164 218 1
164 220 1
164 223 1
164 224 1
164 233 1
164 239 1
164 243 1
164 244 1
164 245 1
164 250 1
164 251 1
164 273 1
164 290 1
164 292 1
164 295 1
164 299 1
165 1 1
165 12 1
165 15 1
165 21 1
165 22 1
165 30 1
165 42 1
165 45 1
165 54 1
165 64 1
165 67 1
165 70 1
165 78 1
165 85 1
165 86 1
165 87 1
165 101 1
165 111 1
165 115 1
165 117 1
165 126 1
165 130 1
165 142 1
165 150 1
165 154 1
165 157 1
165 168 1
165 173 1
165 188 1
165 190 1
165 193 1
165 194 1
165 196 1
165 206 1
165 214 1
165 218 1
165 221 1
165 222 1
165 225 1
165 229 1
165 230 1
165 231 1
165 244 1
165 246 1
165 255 1
165 256 1
165 257 1
165 260 1
165 261 1
165 278 1
165 283 1
165 288 1
165 292 1
166 8 1
166 10 1
166 23 1
166 24 1
166 26 1
166 35 1
166 50 1
166 51 1
166 52 1
166 55 1
166 62 1
166 65 1
166 69 1
166 80 1
166 82 1
166 90 1
166 112 1
166 113 1
166 116 1
166 145 1
166 147 1
166 163 1
166 164 1
166 169 1
166 170 1
166 181 1
166 183 1
166 185 1
166 192 1
166 194 1
166 201 1
166 204 1
166 216 1
166 230 1
166 233 1
166 236 1
166 238 1
166 243 1
166 246 1
166 252 1
166 257 1
166 261 1
166 263 1
166 268 1
166 273 1
166 276 1
166 284 1
166 285 1
166 286 1
166 289 1
166 295 1
166 297 1
166 300 1
167 2 1
167 6 1
167 7 1
167 11 1
167 18 1
167 31 1
167 35 1
167 47 1
167 54 1
167 59 1
167 62 1
167 64 1
167 73 1
167 74 1
167 76 1
167 81 1
167 82 1
167 88 1
167 89 1
167 98 1
167 108 1
167 114 1
167 116 1
167 120 1
167 141 1
167 143 1
167 149 1
167 156 1
167 157 1
167 164 1
167 170 1
167 173 1
167 178 1
167 189 1
167 197 1
167 204 1
167 206 1
167 215 1
167 219 1
167 220 1
167 223 1
167 225 1
167 228 1
167 240 1
167 243 1
167 250 1
167 252 1
167 255 1
167 258 1
167 262 1
167 267 1
167 268 1
167 270 1
167 275 1
167 280 1
167 285 1
167 290 1
168 1 1
168 4 1
168 7 1
168 22 1
168 26 1
168 29 1
168 34 1
168 43 1
168 44 1
168 47 1
168 51 1
168 65 1
168 73 1
168 78 1
168 97 1
168 98 1
168 104 1
168 105 1
168 107 1
168 108 1
168 114 1
168 115 1
168 123 1
168 124 1
168 149 1
168 152 1
168 153 1
168 163 1
168 164 1
168 165 1
168 171 1
168 175 1
168 179 1
168 180 1
168 187 1
168 188 1
168 190 1
168 192 1
168 195 1
168 200 1
168 208 1
168 209 1
168 211 1
168 213 1
168 220 1
168 227 1
168 235 1
168 244 1
168 246 1
168 249 1
168 250 1
168 258 1
168 259 1
168 268 1
168 276 1
168 283 1
168 288 1
168 292 1
168 295 1
168 298 1
168 300 1
169 1 1
169 6 1
169 7 1
169 17 1
169 32 1
169 34 1
169 36 1
169 37 1
169 40 1
169 56 1
169 57 1
169 59 1
169 61 1
169 64 1
169 69 1
169 71 1
169 72 1
169 73 1
169 78 1
169 80 1
169 100 1
169 129 1
169 143 1
169 144 1
169 150 1
169 152 1
169 155 1
169 158 1
169 162 1
169 166 1
169 170 1
169 179 1
169 188 1
169 191 1
169 208 1
169 211 1
169 216 1
169 217 1
169 218 1
169 220 1
169 240 1
169 242 1
169 246 1
169 249 1
169 250 1
169 257 1
169 262 1
169 276 1
169 278 1
169 280 1
169 281 1
169 282 1
169 291 1
169 293 1
169 298 1
169 300 1
170 1 1
170 4 1
170 5 1
170 8 1
170 21 1
170 22 1
170 23 1
170 26 1
170 28 1
170 35 1
170 38 1
170 42 1
170 43 1
170 44 1
170 46 1
170 49 1
170 51 1
170 52 1
170 53 1
170 58 1
170 61 1
170 66 1
170 70 1
170 74 1
170 77 1
170 82 1
170 84 1
170 87 1
170 95 1
170 98 1
170 105 1
170 109 1
170 114 1
170 125 1
170 126 1
170 132 1
170 138 1
170 144 1
170 146 1
170 151 1
170 157 1
170 160 1
170 166 1
170 167 1
170 169 1
170 172 1
170 173 1
170 178 1
170 197 1
170 199 1
170 206 1
170 208 1
170 209 1
170 211 1
170 212 1
170 216 1
170 223 1
170 227 1
170 240 1
170 241 1
170 254 1
170 258 1
170 259 1
170 260 1
170 263 1
170 277 1
170 284 1
170 285 1
170 288 1
170 291 1
170 295 1
171 6 1
171 10 1
171 11 1
171 14 1
171 15 1
171 20 1
171 35 1
171 60 1
171 61 1
171 65 1
171 68 1
171 69 1
171 70 1
171 77 1
171 83 1
171 84 1
171 89 1
171 95 1
171 100 1
171 103 1
171 105 1
171 107 1
171 108 1
171 129 1
171 132 1
171 142 1
171 143 1
171 145 1
171 151 1
171 153 1
171 157 1
171 160 1
171 163 1
171 168 1
171 176 1
171 183 1
171 185 1
171 189 1
171 192 1
171 196 1
171 199 1
171 208 1
171 210 1
171 215 1
171 225 1
171 235 1
171 243 1
171 244 1
171 250 1
171 255 1
171 256 1
171 258 1
171 259 1
171 262 1
171 266 1
171 271 1
171 272 1
171 275 1
171 276 1
171 295 1
171 298 1
171 299 1
172 6 1
172 7 1
172 8 1
172 10 1
172 13 1
172 14 1
172 15 1
172 18 1
172 26 1
172 27 1
172 31 1
172 32 1
172 40 1
172 42 1
172 43 1
172 49 1
172 51 1
172 56 1
172 58 1
172 66 1
172 68 1
172 70 1
172 74 1
172 78 1
172 84 1
172 98 1
172 99 1
172 104 1
172 108 1
172 109 1
172 111 1
172 122 1
172 124 1
172 129 1
172 133 1
172 140 1
172 142 1
172 143 1
172 144 1
172 157 1
172 170 1
172 195 1
172 210 1
172 211 1
172 212 1
172 219 1
172 221 1
172 226 1
172 231 1
172 233 1
172 237 1
172 238 1
172 240 1
172 243 1
172 246 1
172 247 1
172 249 1
172 251 1
172 259 1
172 262 1
172 264 1
172 266 1
172 270 1
172 276 1
172 284 1
172 288 1
172 289 1
172 290 1
172 293 1
172 295 1
172 299 1
173 4 1
173 10 1
173 11 1
173 16 1
173 18 1
173 24 1
173 26 1
173 28 1
173 30 1
173 33 1
173 36 1
173 39 1
173 40 1
173 43 1
173 45 1
173 49 1
173 51 1
173 55 1
173 62 1
173 69 1
173 73 1
173 74 1
173 77 1
173 84 1
173 85 1
173 86 1
173 90 1
173 92 1
173 93 1
173 94 1
173 97 1
173 98 1
173 109 1
173 114 1
173 115 1
173 120 1
173 129 1
173 148 1
173 152 1
173 154 1
173 155 1
173 157 1
173 158 1
173 163 1
173 165 1
173 167 1
173 170 1
173 176 1
173 179 1
173 180 1
173 191 1
173 195 1
173 196 1
173 199 1
173 201 1
173 202 1
173 204 1
173 215 1
173 216 1
173 228 1
173 230 1
173 235 1
173 242 1
173 248 1
173 249 1
173 250 1
173 251 1
173 257 1
173 258 1
173 268 1
173 280 1
173 282 1
173 285 1
173 288 1
173 289 1
173 296 1
174 2 1
174 10 1
174 13 1
174 19 1
174 20 1
174 30 1
174 31 1
174 33 1
174 40 1
174 43 1
174 47 1
174 50 1
174 54 1
174 55 1
174 83 1
174 84 1
174 86 1
174 102 1
174 111 1
174 117 1
174 121 1
174 122 1
174 123 1
174 130 1
174 141 1
174 142 1
174 147 1
174 148 1
174 151 1
174 153 1
174 163 1
174 175 1
174 177 1
174 179 1
174 181 1
174 184 1
174 189 1
174 192 1
174 196 1
174 205 1
174 210 1
174 217 1
174 232 1
174 233 1
174 251 1
174 253 1
174 258 1
174 259 1
174 279 1
174 281 1
174 293 1
174 294 1
174 297 1
175 3 1
175 39 1
175 47 1
175 52 1
175 53 1
175 54 1
175 60 1
175 65 1
175 68 1
175 70 1
175 72 1
175 78 1
175 82 1
175 84 1
175 88 1
175 91 1
175 103 1
175 105 1
175 107 1
175 111 1
175 113 1
175 122 1
175 141 1
175 142 1
175 146 1
175 152 1
175 160 1
175 163 1
175 168 1
175 174 1
175 176 1
175 182 1
175 183 1
175 185 1
175 187 1
175 190 1
175 193 1
175 194 1
175 201 1
175 206 1
175 210 1
175 217 1
175 222 1
175 224 1
175 233 1
175 235 1
175 241 1
175 246 1
175 254 1
175 260 1
175 264 1
175 266 1
175 268 1
175 279 1
175 292 1
176 10 1
176 11 1
176 16 1
176 28 1
176 35 1
176 38 1
176 40 1
176 52 1
176 57 1
176 63 1
176 64 1
176 71 1
176 74 1
176 79 1
176 82 1
176 93 1
176 100 1
176 109 1
176 120 1
176 130 1
176 131 1
176 136 1
176 138 1
176 140 1
176 150 1
176 151 1
176 159 1
176 161 1
176 171 1
176 173 1
176 175 1
176 177 1
176 178 1
176 182 1
176 186 1
176 187 1
176 188 1
176 190 1
176 193 1
176 201 1
176 203 1
176 209 1
176 214 1
176 219 1
176 223 1
176 224 1
176 226 1
176 230 1
176 231 1
176 233 1
176 234 1
176 235 1
176 237 1
176 239 1
176 243 1
176 259 1
176 271 1
176 275 1
176 278 1
176 282 1
176 286 1
177 1 1
177 7 1
177 13 1
177 18 1
177 22 1
177 24 1
177 25 1
177 27 1
177 31 1
177 39 1
177 44 1
177 46 1
177 49 1
177 58 1
177 70 1
177 79 1
177 83 1
177 85 1
177 86 1
177 91 1
177 94 1
177 106 1
177 125 1
177 128 1
177 129 1
177 132 1
177 139 1
177 141 1
177 144 1
177 149 1
177 152 1
177 154 1
177 155 1
177 157 1
177 158 1
177 161 1
177 162 1
177 174 1
177 176 1
177 180 1
177 187 1
177 197 1
177 202 1
177 206 1
177 209 1
177 210 1
177 214 1
177 217 1
177 224 1
177 226 1
177 229 1
177 242 1
177 249 1
177 258 1
177 261 1
177 263 1
177 265 1
177 268 1
177 275 1
177 277 1
177 283 1
177 293 1
177 299 1
177 300 1
178 1 1
178 10 1
178 11 1
178 12 1
178 16 1
178 18 1
178 20 1
178 21 1
178 25 1
178 28 1
178 31 1
178 35 1
178 37 1
178 44 1
178 45 1
178 49 1
178 50 1
178 55 1
178 61 1
178 69 1
178 70 1
178 83 1
178 84 1
178 87 1
178 115 1
178 129 1
178 140 1
178 146 1
178 149 1
178 155 1
178 163 1
178 167 1
178 170 1
178 176 1
178 190 1
178 204 1
178 213 1
178 216 1
178 221 1
178 228 1
178 232 1
178 236 1
178 238 1
178 240 1
178 255 1
178 258 1
178 262 1
178 274 1
178 278 1
178 288 1
178 289 1
178 291 1
178 295 1
178 298 1
179 9 1
179 12 1
179 23 1
179 26 1
179 38 1
179 41 1
179 47 1
179 50 1
179 57 1
179 65 1
179 67 1
179 68 1
179 73 1
179 77 1
179 78 1
179 84 1
179 89 1
179 91 1
179 92 1
179 100 1
179 106 1
179 113 1
179 124 1
179 133 1
179 138 1
179 139 1
179 140 1
179 144 1
179 146 1
179 155 1
179 162 1
179 164 1
179 168 1
179 169 1
179 173 1
179 174 1
179 180 1
179 185 1
179 190 1
179 195 1
179 199 1
179 208 1
179 211 1
179 219 1
179 223 1
179 224 1
179 230 1
179 233 1
179 238 1
179 254 1
179 258 1
179 259 1
179 271 1
179 272 1
179 273 1
179 274 1
179 277 1
179 278 1
179 282 1
180 4 1
180 7 1
180 11 1
180 23 1
180 31 1
180 34 1
180 35 1
180 36 1
180 37 1
180 41 1
180 42 1
180 43 1
180 44 1
180 46 1
180 49 1
180 54 1
180 57 1
180 59 1
180 60 1
180 66 1
180 69 1
180 71 1
180 83 1
180 85 1
180 86 1
180 92 1
180 101 1
180 108 1
180 111 1
180 113 1
180 117 1
180 119 1
180 134 1
180 136 1
180 138 1
180 147 1
180 152 1
180 153 1
180 168 1
180 173 1
180 177 1
180 179 1
180 182 1
180 183 1
180 185 1
180 187 1
180 192 1
180 203 1
180 204 1
180 210 1
180 214 1
180 218 1
180 233 1
180 239 1
180 240 1
180 242 1
180 243 1
180 245 1
180 251 1
180 253 1
180 255 1
180 261 1
180 278 1
180 282 1
180 284 1
180 291 1
180 292 1
180 299 1
181 5 1
181 6 1
181 7 1
181 9 1
181 11 1
181 12 1
181 22 1
181 28 1
181 39 1
181 40 1
181 51 1
181 52 1
181 54 1
181 58 1
181 59 1
181 60 1
181 62 1
181 63 1
181 71 1
181 81 1
181 87 1
181 88 1
181 91 1
181 92 1
181 97 1
181 98 1
181 103 1
181 105 1
181 106 1
181 115 1
181 125 1
181 128 1
181 129 1
181 140 1
181 141 1
181 145 1
181 146 1
181 156 1
181 158 1
181 166 1
181 174 1
181 190 1
181 194 1
181 196 1
181 199 1
181 205 1
181 206 1
181 212 1
181 215 1
181 220 1
181 226 1
181 229 1
181 231 1
181 238 1
181 239 1
181 243 1
181 252 1
181 254 1
181 257 1
181 260 1
181 263 1
181 265 1
181 267 1
181 268 1
181 276 1
181 290 1
181 291 1
181 294 1
181 295 1
181 297 1
181 299 1
182 11 1
182 16 1
182 17 1
182 21 1
182 28 1
182 30 1
182 40 1
182 42 1
182 43 1
182 45 1
182 47 1
182 66 1
182 74 1
182 87 1
182 94 1
182 95 1
182 96 1
182 106 1
182 125 1
182 129 1
182 130 1
182 137 1
182 138 1
182 140 1
182 142 1
182 146 1
182 147 1
182 150 1
182 151 1
182 156 1
182 159 1
182 164 1
182 175 1
182 176 1
182 180 1
182 191 1
182 192 1
182 199 1
182 208 1
182 212 1
182 216 1
182 217 1
182 223 1
182 226 1
182 240 1
182 241 1
182 245 1
182 248 1
182 255 1
182 257 1
182 258 1
182 272 1
182 290 1
182 292 1
182 293 1
182 299 1
183 2 1
183 3 1
183 7 1
183 15 1
183 20 1
183 22 1
183 23 1
183 26 1
183 27 1
183 31 1
183 36 1
183 43 1
183 47 1
183 49 1
183 59 1
183 81 1
183 93 1
183 112 1
183 114 1
183 115 1
183 119 1
183 122 1
183 124 1
183 125 1
183 134 1
183 142 1
183 160 1
183 166 1
183 171 1
183 175 1
183 180 1
183 191 1
183 192 1
183 194 1
183 197 1
183 199 1
183 200 1
183 201 1
183 203 1
183 210 1
183 212 1
183 214 1
183 216 1
183 222 1
183 223 1
183 228 1
183 229 1
183 235 1
183 236 1
183 251 1
183 252 1
183 266 1
183 267 1
183 295 1
183 298 1
184 2 1
184 3 1
184 4 1
184 27 1
184 47 1
184 50 1
184 51 1
184 55 1
184 64 1
184 68 1
184 72 1
184 74 1
184 76 1
184 77 1
184 81 1
184 85 1
184 87 1
184 89 1
184 91 1
184 92 1
184 95 1
184 105 1
184 107 1
184 110 1
184 118 1
184 119 1
184 121 1
184 134 1
184 139 1
184 141 1
184 142 1
184 145 1
184 158 1
184 162 1
184 174 1
184 185 1
184 191 1
184 205 1
184 206 1
184 209 1
184 212 1
184 213 1
184 217 1
184 223 1
184 231 1
184 234 1
184 246 1
184 251 1
184 252 1
184 262 1
184 266 1
184 268 1
184 269 1
184 276 1
184 287 1
184 289 1
185 5 1
185 6 1
185 9 1
185 10 1
185 15 1
185 19 1
185 21 1
185 22 1
185 35 1
185 40 1
185 41 1
185 47 1
185 52 1
185 55 1
185 67 1
185 68 1
185 73 1
185 79 1
185 80 1
185 88 1
185 96 1
185 102 1
185 107 1
185 108 1
185 110 1
185 111 1
185 117 1
185 119 1
185 123 1
185 126 1
185 132 1
185 135 1
185 138 1
185 155 1
185 159 1
185 161 1
185 163 1
185 166 1
185 171 1
185 175 1
185 179 1
185 180 1
185 184 1
185 189 1
185 194 1
185 203 1
185 205 1
185 208 1
185 213 1
185 235 1
185 241 1
185 243 1
185 250 1
185 254 1
185 259 1
185 260 1
185 262 1
185 278 1
185 281 1
185 283 1
185 297 1
186 13 1
186 16 1
186 21 1
186 23 1
186 25 1
186 37 1
186 41 1
186 43 1
186 44 1
186 52 1
186 56 1
186 64 1
186 66 1
186 72 1
186 74 1
186 77 1
186 80 1
186 82 1
186 88 1
186 89 1
186 90 1
186 91 1
186 95 1
186 98 1
186 102 1
186 110 1
186 113 1
186 115 1
186 121 1
186 122 1
186 130 1
186 133 1
186 139 1
186 141 1
186 153 1
186 157 1
186 159 1
186 163 1
186 176 1
186 196 1
186 206 1
186 208 1
186 209 1
186 214 1
186 226 1
186 230 1
186 233 1
186 241 1
186 247 1
186 255 1
186 256 1
186 260 1
186 261 1
186 262 1
186 264 1
186 265 1
186 270 1
186 275 1
186 280 1
186 285 1
186 287 1
187 4 1
187 6 1
187 11 1
187 19 1
187 29 1
187 35 1
187 37 1
187 38 1
187 40 1
187 46 1
187 49 1
187 50 1
187 56 1
187 62 1
187 64 1
187 77 1
187 78 1
187 81 1
187 88 1
187 90 1
187 94 1
187 95 1
187 104 1
187 118 1
187 123 1
187 124 1
187 142 1
187 145 1
187 146 1
187 148 1
187 158 1
187 161 1
187 168 1
187 175 1
187 176 1
187 177 1
187 180 1
187 188 1
187 190 1
187 192 1
187 204 1
187 205 1
187 210 1
187 216 1
187 226 1
187 229 1
187 232 1
187 233 1
187 239 1
187 244 1
187 247 1
187 253 1
187 255 1
187 266 1
187 279 1
187 280 1
187 282 1
187 284 1
187 290 1
187 293 1
187 294 1
188 12 1
188 17 1
188 19 1
188 23 1
188 30 1
188 33 1
188 37 1
188 41 1
188 42 1
188 43 1
188 46 1
188 48 1
188 53 1
188 55 1
188 57 1
188 60 1
188 63 1
188 65 1
188 67 1
188 68 1
188 69 1
188 72 1
188 74 1
188 75 1
188 78 1
188 83 1
188 97 1
188 100 1
188 103 1
188 104 1
188 105 1
188 106 1
188 122 1
188 126 1
188 130 1
188 135 1
188 141 1
188 148 1
188 153 1
188 158 1
188 165 1
188 168 1
188 169 1
188 176 1
188 187 1
188 197 1
188 198 1
188 200 1
188 204 1
188 206 1
188 208 1
188 209 1
188 214 1
188 217 1
188 221 1
188 231 1
188 232 1
188 237 1
188 238 1
188 239 1
188 245 1
188 248 1
188 252 1
188 254 1
188 263 1
188 264 1
188 267 1
188 272 1
188 281 1
188 282 1
188 286 1
188 292 1
188 293 1
189 6 1
189 7 1
189 12 1
189 23 1
189 29 1
189 32 1
189 48 1
189 51 1
189 57 1
189 59 1
189 68 1
189 72 1
189 75 1
189 82 1
189 85 1
189 98 1
189 99 1
189 104 1
189 108 1
189 112 1
189 117 1
189 119 1
189 123 1
189 129 1
189 135 1
189 146 1
189 154 1
189 167 1
189 171 1
189 174 1
189 185 1
189 198 1
189 202 1
189 205 1
189 216 1
189 222 1
189 233 1
189 235 1
189 242 1
189 245 1
189 251 1
189 253 1
189 257 1
189 267 1
189 276 1
189 279 1
189 284 1
189 299 1
190 2 1
190 6 1
190 12 1
190 13 1
190 23 1
190 27 1
190 28 1
190 38 1
190 41 1
190 50 1
190 54 1
190 55 1
190 62 1
190 65 1
190 66 1
190 67 1
190 72 1
190 79 1
190 81 1
190 91 1
190 104 1
190 110 1
190 118 1
190 120 1
190 123 1
190 124 1
190 125 1
190 135 1
190 139 1
190 140 1
190 141 1
190 142 1
190 144 1
190 152 1
190 155 1
190 157 1
190 161 1
190 165 1
190 168 1
190 175 1
190 176 1
190 178 1
190 179 1
190 181 1
190 187 1
190 194 1
190 202 1
190 209 1
190 211 1
190 213 1
190 220 1
190 225 1
190 233 1
190 235 1
190 238 1
190 247 1
190 253 1
190 258 1
190 266 1
190 268 1
190 272 1
190 275 1
190 280 1
190 286 1
190 294 1
190 295 1
190 296 1
190 299 1
191 1 1
191 2 1
191 3 1
191 7 1
191 11 1
191 12 1
191 19 1
191 21 1
191 30 1
191 32 1
191 34 1
191 47 1
191 51 1
191 54 1
191 55 1
191 56 1
191 68 1
191 77 1
191 83 1
191 87 1
191 89 1
191 92 1
191 93 1
191 101 1
191 105 1
191 110 1
191 111 1
191 113 1
191 119 1
191 123 1
191 136 1
191 140 1
191 151 1
191 155 1
191 169 1
191 173 1
191 182 1
191 183 1
191 184 1
191 193 1
191 199 1
191 201 1
191 202 1
191 205 1
191 207 1
191 215 1
191 229 1
191 235 1
191 238 1
191 243 1
191 256 1
191 257 1
191 273 1
191 274 1
191 277 1
191 288 1
191 293 1
192 2 1
192 13 1
192 19 1
192 21 1
192 24 1
192 25 1
192 28 1
192 36 1
192 45 1
192 46 1
192 47 1
192 51 1
192 56 1
192 71 1
192 72 1
192 76 1
192 77 1
192 79 1
192 80 1
192 81 1
192 86 1
192 87 1
192 88 1
192 90 1
192 97 1
192 101 1
192 103 1
192 104 1
192 109 1
192 113 1
192 114 1
192 121 1
192 124 1
192 125 1
192 129 1
192 137 1
192 141 1
192 152 1
192 153 1
192 166 1
192 168 1
192 171 1
192 174 1
192 180 1
192 182 1
192 183 1
192 187 1
192 195 1
192 201 1
192 209 1
192 210 1
192 219 1
192 221 1
192 224 1
192 226 1
192 236 1
192 237 1
192 242 1
192 247 1
192 250 1
192 255 1
192 256 1
192 260 1
192 268 1
192 278 1
192 281 1
192 290 1
193 3 1
193 8 1
193 18 1
193 21 1
193 22 1
193 24 1
193 28 1
193 38 1
193 54 1
193 61 1
193 64 1
193 66 1
193 69 1
193 76 1
193 79 1
193 80 1
193 85 1
193 86 1
193 90 1
193 97 1
193 112 1
193 116 1
193 129 1
193 138 1
193 140 1
193 146 1
193 149 1
193 152 1
193 156 1
193 165 1
193 175 1
193 176 1
193 191 1
193 195 1
193 196 1
193 197 1
193 200 1
193 222 1
193 224 1
193 227 1
193 231 1
193 233 1
193 242 1
193 247 1
193 250 1
193 252 1
193 256 1
193 259 1
193 260 1
193 261 1
193 263 1
193 265 1
193 278 1
193 279 1
193 280 1
193 284 1
193 289 1
193 293 1
193 297 1
193 298 1
194 1 1
194 7 1
194 14 1
194 15 1
194 23 1
194 24 1
194 32 1
194 37 1
194 49 1
194 52 1
194 54 1
194 60 1
194 62 1
194 63 1
194 71 1
194 79 1
194 85 1
194 89 1
194 98 1
194 100 1
194 102 1
194 103 1
194 105 1
194 113 1
194 114 1
194 123 1
194 128 1
194 138 1
194 139 1
194 148 1
194 155 1
194 156 1
194 159 1
194 163 1
194 165 1
194 166 1
194 175 1
194 181 1
194 183 1
194 185 1
194 190 1
194 205 1
194 211 1
194 216 1
194 228 1
194 231 1
194 236 1
194 240 1
194 242 1
194 254 1
194 255 1
194 267 1
194 269 1
194 284 1
194 296 1
195 1 1
195 5 1
195 7 1
195 11 1
195 12 1
195 17 1
195 21 1
195 35 1
195 43 1
195 44 1
195 51 1
195 52 1
195 58 1
195 65 1
195 71 1
195 73 1
195 76 1
195 77 1
195 81 1
195 82 1
195 86 1
195 88 1
195 91 1
195 95 1
195 96 1
195 101 1
195 109 1
195 110 1
195 115 1
195 122 1
195 131 1
195 134 1
195 144 1
195 152 1
195 154 1
195 158 1
195 161 1
195 168 1
195 172 1
195 173 1
195 179 1
195 192 1
195 193 1
195 203 1
195 205 1
195 222 1
195 223 1
195 224 1
195 229 1
195 232 1
195 237 1
195 243 1
195 244 1
195 245 1
195 246 1
195 250 1
195 254 1
195 256 1
195 269 1
195 275 1
195 277 1
195 278 1
195 285 1
195 295 1
196 2 1
196 5 1
196 9 1
196 14 1
196 25 1
196 26 1
196 31 1
196 32 1
196 38 1
196 49 1
196 51 1
196 69 1
196 76 1
196 77 1
196 91 1
196 92 1
196 94 1
196 102 1
196 104 1
196 107 1
196 116 1
196 117 1
196 126 1
196 127 1
196 129 1
196 141 1
196 142 1
196 143 1
196 154 1
196 156 1
196 161 1
196 163 1
196 165 1
196 171 1
196 173 1
196 174 1
196 181 1
196 186 1
196 193 1
196 202 1
196 204 1
196 206 1
196 209 1
196 213 1
196 219 1
196 228 1
196 236 1
196 237 1
196 243 1
196 244 1
196 250 1
196 252 1
196 257 1
196 260 1
196 263 1
196 265 1
196 276 1
196 278 1
197 7 1
197 8 1
197 11 1
197 13 1
197 15 1
197 25 1
197 30 1
197 33 1
197 34 1
197 40 1
197 42 1
197 44 1
197 49 1
197 62 1
197 63 1
197 75 1
197 81 1
197 86 1
197 91 1
197 95 1
197 100 1
197 116 1
197 125 1
197 128 1
197 135 1
197 144 1
197 146 1
197 154 1
197 159 1
197 167 1
197 170 1
197 177 1
197 183 1
197 188 1
197 193 1
197 200 1
197 201 1
197 219 1
197 223 1
197 228 1
197 236 1
197 238 1
197 239 1
197 244 1
197 246 1
197 247 1
197 257 1
197 261 1
197 263 1
197 266 1
197 272 1
197 278 1
197 279 1
197 281 1
197 282 1
197 284 1
197 286 1
197 291 1
197 296 1
197 297 1
197 299 1
198 10 1
198 14 1
198 17 1
198 19 1
198 22 1
198 30 1
198 32 1
198 33 1
198 38 1
198 40 1
198 41 1
198 43 1
198 51 1
198 53 1
198 56 1
198 61 1
198 62 1
198 71 1
198 72 1
198 74 1
198 79 1
198 84 1
198 99 1
198 100 1
198 118 1
198 125 1
198 135 1
198 138 1
198 141 1
198 146 1
198 148 1
198 154 1
198 162 1
198 163 1
198 188 1
198 189 1
198 208 1
198 209 1
198 212 1
198 220 1
198 226 1
198 229 1
198 232 1
198 241 1
198 242 1
198 252 1
198 256 1
198 259 1
198 261 1
198 263 1
198 265 1
198 273 1
198 282 1
198 285 1
198 287 1
198 294 1
199 2 1
199 3 1
199 9 1
199 11 1
199 20 1
199 28 1
199 34 1
199 48 1
199 51 1
199 55 1
199 59 1
199 61 1
199 62 1
199 63 1
199 70 1
199 72 1
199 79 1
199 84 1
199 89 1
199 90 1
199 91 1
199 93 1
199 94 1
199 101 1
199 107 1
199 114 1
199 116 1
199 138 1
199 142 1
199 147 1
199 150 1
199 164 1
199 170 1
199 171 1
199 173 1
199 179 1
199 181 1
199 182 1
199 183 1
199 191 1
199 204 1
199 209 1
199 211 1
199 221 1
199 222 1
199 226 1
199 228 1
199 230 1
199 234 1
199 238 1
199 244 1
199 248 1
199 249 1
199 255 1
199 277 1
199 278 1
199 290 1
199 294 1
200 1 1
200 3 1
200 10 1
200 15 1
200 25 1
200 27 1
200 44 1
200 55 1
200 58 1
200 68 1
200 70 1
200 85 1
200 88 1
200 99 1
200 105 1
200 110 1
200 112 1
200 116 1
200 117 1
200 118 1
200 129 1
200 149 1
200 156 1
200 160 1
200 163 1
200 168 1
200 183 1
200 188 1
200 193 1
200 197 1
200 204 1
200 205 1
200 206 1
200 216 1
200 219 1
200 221 1
200 223 1
200 224 1
200 225 1
200 230 1
200 233 1
200 242 1
200 245 1
200 248 1
200 252 1
200 261 1
200 266 1
200 273 1
200 278 1
200 293 1
200 296 1
201 10 1
201 11 1
201 13 1
201 14 1
201 17 1
201 33 1
201 37 1
201 49 1
201 58 1
201 68 1
201 81 1
201 87 1
201 89 1
201 90 1
201 98 1
201 100 1
201 106 1
201 110 1
201 114 1
201 115 1
201 117 1
201 120 1
201 121 1
201 130 1
201 131 1
201 134 1
201 139 1
201 146 1
201 151 1
201 152 1
201 154 1
201 155 1
201 158 1
201 166 1
201 173 1
201 175 1
201 176 1
201 183 1
201 191 1
201 192 1
201 197 1
201 202 1
201 203 1
201 214 1
201 218 1
201 226 1
201 227 1
201 230 1
201 236 1
201 244 1
201 248 1
201 255 1
201 259 1
201 261 1
201 269 1
201 272 1
201 279 1
201 281 1
201 282 1
201 283 1
201 287 1
201 288 1
201 289 1
201 293 1
201 295 1
201 298 1
202 3 1
202 6 1
202 11 1
202 13 1
202 20 1
202 26 1
202 28 1
202 29 1
202 37 1
202 39 1
202 47 1
202 48 1
202 49 1
202 51 1
202 66 1
202 70 1
202 93 1
202 96 1
202 98 1
202 99 1
202 105 1
202 107 1
202 110 1
202 121 1
202 129 1
202 130 1
202 137 1
202 138 1
202 142 1
202 152 1
202 153 1
202 157 1
202 162 1
202 163 1
202 173 1
202 177 1
202 189 1
202 190 1
202 191 1
202 196 1
202 201 1
202 208 1
202 216 1
202 218 1
202 221 1
202 225 1
202 226 1
202 229 1
202 230 1
202 247 1
202 256 1
202 260 1
202 263 1
202 264 1
202 269 1
202 280 1
202 286 1
202 294 1
202 300 1
203 8 1
203 17 1
203 20 1
203 39 1
203 40 1
203 41 1
203 47 1
203 53 1
203 58 1
203 68 1
203 70 1
203 76 1
203 78 1
203 79 1
203 85 1
203 105 1
203 108 1
203 118 1
203 134 1
203 135 1
203 137 1
203 144 1
203 145 1
203 154 1
203 160 1
203 176 1
203 180 1
203 183 1
203 185 1
203 195 1
203 201 1
203 206 1
203 207 1
203 209 1
203 215 1
203 224 1
203 234 1
203 241 1
203 246 1
203 250 1
203 255 1
203 277 1
203 278 1
203 280 1
203 282 1
203 283 1
203 285 1
203 286 1
203 288 1
203 290 1
204 3 1
204 7 1
204 15 1
204 19 1
204 21 1
204 29 1
204 32 1
204 40 1
204 41 1
204 46 1
204 47 1
204 51 1
204 52 1
204 53 1
204 61 1
204 62 1
204 69 1
204 73 1
204 77 1
204 83 1
204 85 1
204 95 1
204 100 1
204 104 1
204 108 1
204 111 1
204 114 1
204 117 1
204 119 1
204 121 1
204 129 1
204 138 1
204 148 1
204 153 1
204 160 1
204 166 1
204 167 1
204 173 1
204 178 1
204 180 1
204 187 1
204 188 1
204 196 1
204 199 1
204 200 1
204 219 1
204 227 1
204 228 1
204 243 1
204 247 1
204 257 1
204 258 1
204 259 1
204 280 1
204 288 1
205 11 1
205 13 1
205 15 1
205 20 1
205 21 1
205 23 1
205 25 1
205 37 1
205 39 1
205 48 1
205 50 1
205 53 1
205 64 1
205 73 1
205 83 1
205 84 1
205 88 1
205 89 1
205 92 1
205 99 1
205 108 1
205 109 1
205 113 1
205 119 1
205 131 1
205 132 1
205 134 1
205 138 1
205 141 1
205 143 1
205 147 1
205 154 1
205 158 1
205 160 1
205 174 1
205 181 1
205 184 1
205 185 1
205 187 1
205 189 1
205 191 1
205 194 1
205 195 1
205 200 1
205 212 1
205 216 1
205 218 1
205 221 1
205 230 1
205 233 1
205 251 1
205 252 1
205 258 1
205 266 1
205 267 1
205 278 1
205 282 1
205 284 1
205 291 1
205 295 1
205 297 1
206 6 1
206 14 1
206 17 1
206 20 1
206 26 1
206 35 1
206 40 1
206 42 1
206 45 1
206 46 1
206 49 1
206 51 1
206 53 1
206 62 1
206 68 1
206 88 1
206 93 1
206 95 1
206 99 1
206 101 1
206 102 1
206 105 1
206 111 1
206 117 1
206 125 1
206 133 1
206 136 1
206 140 1
206 143 1
206 144 1
206 147 1
206 155 1
206 157 1
206 165 1
206 167 1
206 170 1
206 175 1
206 177 1
206 181 1
206 184 1
206 186 1
206 188 1
206 196 1
206 200 1
206 203 1
206 211 1
206 213 1
206 215 1
206 216 1
206 220 1
206 227 1
206 233 1
206 237 1
206 238 1
206 242 1
206 243 1
206 246 1
206 247 1
206 250 1
206 266 1
206 268 1
206 270 1
206 275 1
206 282 1
206 287 1
206 290 1
206 291 1
206 293 1
206 298 1
207 3 1
207 6 1
207 9 1
207 30 1
207 31 1
207 45 1
207 52 1
207 59 1
207 65 1
207 66 1
207 68 1
207 72 1
207 86 1
207 90 1
207 96 1
207 102 1
207 103 1
207 108 1
207 112 1
207 115 1
207 118 1
207 120 1
207 124 1
207 133 1
207 135 1
207 136 1
207 138 1
207 144 1
207 148 1
207 154 1
207 157 1
207 161 1
207 191 1
207 203 1
207 208 1
207 211 1
207 214 1
207 215 1
207 220 1
207 221 1
207 229 1
207 246 1
207 249 1
207 251 1
207 259 1
207 260 1
207 261 1
207 263 1
207 267 1
207 282 1
207 285 1
207 293 1
208 8 1
208 10 1
208 19 1
208 23 1
208 34 1
208 43 1
208 47 1
208 56 1
208 57 1
208 64 1
208 70 1
208 75 1
208 77 1
208 79 1
208 80 1
208 81 1
208 83 1
208 85 1
208 92 1
208 96 1
208 99 1
208 100 1
208 113 1
208 145 1
208 168 1
208 169 1
208 170 1
208 171 1
208 179 1
208 182 1
208 185 1
208 186 1
208 188 1
208 198 1
208 202 1
208 207 1
208 211 1
208 215 1
208 217 1
208 218 1
208 219 1
208 231 1
208 234 1
208 241 1
208 254 1
208 270 1
208 278 1
208 282 1
208 283 1
208 287 1
208 289 1
208 298 1
209 2 1
209 8 1
209 16 1
209 19 1
209 27 1
209 34 1
209 36 1
209 38 1
209 54 1
209 57 1
209 63 1
209 65 1
209 68 1
209 69 1
209 74 1
209 76 1
209 81 1
209 83 1
209 94 1
209 95 1
209 99 1
209 105 1
209 117 1
209 118 1
209 120 1
209 125 1
209 134 1
209 136 1
209 137 1
209 140 1
209 159 1
209 162 1
209 168 1
209 170 1
209 176 1
209 177 1
209 184 1
209 186 1
209 188 1
209 190 1
209 192 1
209 196 1
209 198 1
209 199 1
209 203 1
209 212 1
209 220 1
209 225 1
209 227 1
209 242 1
209 243 1
209 245 1
209 248 1
209 259 1
209 265 1
209 269 1
209 277 1
209 283 1
209 293 1
210 3 1
210 12 1
210 15 1
210 16 1
210 39 1
210 41 1
210 46 1
210 48 1
210 51 1
210 53 1
210 54 1
210 59 1
210 60 1
210 62 1
210 66 1
210 70 1
210 80 1
210 82 1
210 83 1
210 85 1
210 87 1
210 93 1
210 111 1
210 116 1
210 117 1
210 121 1
210 124 1
210 137 1
210 142 1
210 147 1
210 152 1
210 164 1
210 171 1
210 172 1
210 174 1
210 175 1
210 177 1
210 180 1
210 183 1
210 187 1
210 192 1
210 213 1
210 214 1
210 216 1
210 217 1
210 218 1
210 220 1
210 224 1
210 237 1
210 243 1
210 251 1
210 267 1
210 271 1
210 285 1
210 289 1
210 293 1
210 295 1
210 298 1
210 300 1
211 5 1
211 6 1
211 8 1
211 14 1
211 15 1
211 19 1
211 34 1
211 35 1
211 37 1
211 40 1
211 43 1
211 47 1
211 48 1
211 49 1
211 51 1
211 59 1
211 61 1
211 66 1
211 74 1
211 84 1
211 85 1
211 94 1
211 100 1
211 102 1
211 104 1
211 114 1
211 115 1
211 116 1
211 121 1
211 134 1
211 137 1
211 139 1
211 145 1
211 149 1
211 154 1
211 156 1
211 159 1
211 161 1
211 164 1
211 168 1
211 169 1
211 170 1
211 172 1
211 179 1
211 190 1
211 194 1
211 199 1
211 206 1
211 207 1
211 208 1
211 231 1
211 235 1
211 239 1
211 241 1
211 244 1
211 248 1
211 257 1
211 263 1
211 265 1
211 267 1
211 271 1
211 293 1
212 1 1
212 7 1
212 8 1
212 12 1
212 26 1
212 29 1
212 37 1
212 41 1
212 57 1
212 60 1
212 69 1
212 70 1
212 75 1
212 77 1
212 79 1
212 91 1
212 96 1
212 97 1
212 99 1
212 111 1
212 122 1
212 124 1
212 125 1
212 126 1
212 128 1
212 143 1
212 148 1
212 154 1
212 155 1
212 159 1
212 170 1
212 172 1
212 181 1
212 182 1
212 183 1
212 184 1
212 198 1
212 205 1
212 209 1
212 213 1
212 214 1
212 215 1
212 216 1
212 217 1
212 219 1
212 221 1
212 222 1
212 229 1
212 241 1
212 247 1
212 260 1
212 271 1
212 272 1
212 281 1
212 292 1
213 4 1
213 8 1
213 10 1
213 12 1
213 18 1
213 19 1
213 27 1
213 35 1
213 40 1
213 53 1
213 68 1
213 71 1
213 76 1
213 77 1
213 81 1
213 92 1
213 102 1
213 107 1
213 112 1
213 118 1
213 123 1
213 124 1
213 133 1
213 136 1
213 142 1
213 144 1
213 149 1
213 159 1
213 168 1
213 178 1
213 184 1
213 185 1
213 190 1
213 196 1
213 206 1
213 210 1
213 212 1
213 233 1
213 234 1
213 242 1
213 243 1
213 247 1
213 248 1
213 252 1
213 262 1
213 263 1
213 278 1
213 279 1
213 280 1
213 294 1
213 299 1
213 300 1
214 5 1
214 16 1
214 19 1
214 28 1
214 30 1
214 43 1
214 55 1
214 57 1
214 65 1
214 69 1
214 74 1
214 76 1
214 82 1
214 96 1
214 97 1
214 98 1
214 105 1
214 110 1
214 116 1
214 122 1
214 128 1
214 133 1
214 134 1
214 137 1
214 144 1
214 146 1
214 153 1
214 154 1
214 157 1
214 165 1
214 176 1
214 177 1
214 180 1
214 183 1
214 186 1
214 188 1
214 201 1
214 207 1
214 210 1
214 212 1
214 234 1
214 236 1
214 238 1
214 239 1
214 246 1
214 248 1
214 252 1
214 255 1
214 256 1
214 257 1
214 261 1
214 264 1
214 275 1
214 283 1
214 289 1
214 290 1
214 294 1
215 6 1
215 10 1
215 19 1
215 27 1
215 31 1
215 38 1
215 45 1
215 51 1
215 54 1
215 61 1
215 62 1
215 63 1
215 64 1
215 79 1
215 87 1
215 90 1
215 96 1
215 97 1
215 99 1
215 101 1
215 110 1
215 121 1
215 126 1
215 127 1
215 129 1
215 133 1
215 135 1
215 141 1
215 153 1
215 155 1
215 158 1
215 163 1
215 167 1
215 171 1
215 173 1
215 181 1
215 191 1
215 203 1
215 206 1
215 207 1
215 208 1
215 212 1
215 219 1
215 224 1
215 232 1
215 239 1
215 244 1
215 245 1
215 250 1
215 253 1
215 257 1
215 296 1
215 300 1
216 6 1
216 7 1
216 15 1
216 25 1
216 36 1
216 41 1
216 42 1
216 45 1
216 52 1
216 54 1
216 57 1
216 61 1
216 64 1
216 71 1
216 74 1
216 78 1
216 80 1
216 84 1
216 87 1
216 90 1
216 93 1
216 96 1
216 108 1
216 110 1
216 116 1
216 117 1
216 131 1
216 132 1
216 142 1
216 155 1
216 160 1
216 166 1
216 169 1
216 170 1
216 173 1
216 178 1
216 182 1
216 183 1
216 187 1
216 189 1
216 194 1
216 200 1
216 202 1
216 205 1
216 206 1
216 210 1
216 212 1
216 220 1
216 228 1
216 233 1
216 236 1
216 237 1
216 252 1
216 254 1
216 255 1
216 265 1
216 267 1
216 271 1
216 272 1
216 276 1
216 280 1
216 283 1
216 290 1
216 293 1
216 295 1
216 299 1
217 5 1
217 8 1
217 10 1
217 11 1
217 23 1
217 34 1
217 46 1
217 49 1
217 55 1
217 56 1
217 57 1
217 61 1
217 66 1
217 71 1
217 73 1
217 75 1
217 80 1
217 88 1
217 98 1
217 99 1
217 100 1
217 107 1
217 110 1
217 115 1
217 116 1
217 126 1
217 128 1
217 129 1
217 134 1
217 137 1
217 150 1
217 151 1
217 152 1
217 159 1
217 160 1
217 169 1
217 174 1
217 175 1
217 177 1
217 182 1
217 184 1
217 188 1
217 208 1
217 210 1
217 212 1
217 221 1
217 242 1
217 245 1
217 256 1
217 260 1
217 279 1
217 285 1
217 287 1
217 290 1
217 294 1
217 298 1
218 2 1
218 3 1
218 26 1
218 30 1
218 37 1
218 40 1
218 44 1
218 49 1
218 52 1
218 55 1
218 56 1
218 57 1
218 58 1
218 59 1
218 63 1
218 64 1
218 72 1
218 73 1
218 74 1
218 75 1
218 76 1
218 77 1
218 88 1
218 91 1
218 92 1
218 95 1
218 98 1
218 103 1
218 104 1
218 112 1
218 131 1
218 138 1
218 141 1
218 148 1
218 164 1
218 165 1
218 169 1
218 180 1
218 201 1
218 202 1
218 205 1
218 208 1
218 210 1
218 223 1
218 227 1
218 231 1
218 238 1
218 244 1
218 249 1
218 250 1
218 254 1
218 256 1
218 258 1
218 262 1
218 265 1
218 270 1
218 275 1
218 280 1
218 284 1
218 287 1
218 290 1
218 291 1
218 297 1
219 5 1
219 6 1
219 8 1
219 12 1
219 15 1
219 19 1
219 22 1
219 26 1
219 33 1
219 44 1
219 46 1
219 54 1
219 60 1
219 62 1
219 65 1
219 70 1
219 72 1
219 75 1
219 84 1
219 95 1
219 103 1
219 112 1
219 114 1
219 115 1
219 122 1
219 131 1
219 138 1
219 142 1
219 148 1
219 150 1
219 151 1
219 153 1
219 167 1
219 172 1
219 176 1
219 179 1
219 192 1
219 196 1
219 197 1
219 200 1
219 204 1
219 208 1
219 212 1
219 215 1
219 221 1
219 223 1
219 228 1
219 230 1
219 232 1
219 234 1
219 238 1
219 252 1
219 258 1
219 262 1
219 266 1
219 267 1
219 271 1
219 274 1
219 278 1
219 280 1
219 284 1
219 297 1
219 300 1
220 4 1
220 6 1
220 10 1
220 11 1
220 12 1
220 20 1
220 32 1
220 36 1
220 37 1
220 39 1
220 42 1
220 45 1
220 50 1
220 53 1
220 54 1
220 57 1
220 68 1
220 70 1
220 81 1
220 93 1
220 95 1
220 102 1
220 106 1
220 110 1
220 113 1
220 114 1
220 127 1
220 131 1
220 135 1
220 138 1
220 155 1
220 156 1
220 164 1
220 167 1
220 168 1
220 169 1
220 181 1
220 190 1
220 198 1
220 206 1
220 207 1
220 209 1
220 210 1
220 216 1
220 221 1
220 223 1
220 227 1
220 233 1
220 243 1
220 248 1
220 251 1
220 253 1
220 254 1
220 274 1
220 277 1
220 278 1
220 280 1
220 281 1
220 283 1
220 288 1
220 295 1
220 299 1
221 4 1
221 18 1
221 19 1
221 23 1
221 24 1
221 31 1
221 45 1
221 48 1
221 51 1
221 55 1
221 56 1
221 63 1
221 64 1
221 70 1
221 71 1
221 73 1
221 75 1
221 85 1
221 97 1
221 99 1
221 101 1
221 105 1
221 107 1
221 109 1
221 115 1
221 119 1
221 122 1
221 123 1
221 127 1
221 128 1
221 140 1
221 144 1
221 149 1
221 154 1
221 162 1
221 165 1
221 172 1
221 178 1
221 188 1
221 192 1
221 199 1
221 200 1
221 202 1
221 205 1
221 207 1
221 212 1
221 217 1
221 219 1
221 220 1
221 229 1
221 238 1
221 244 1
221 246 1
221 250 1
221 257 1
221 258 1
221 261 1
221 269 1
221 271 1
221 273 1
221 279 1
221 283 1
221 288 1
221 295 1
221 300 1
222 4 1
222 12 1
222 20 1
222 21 1
222 22 1
222 27 1
222 33 1
222 38 1
222 49 1
222 52 1
222 65 1
222 68 1
222 71 1
222 75 1
222 78 1
222 80 1
222 90 1
222 93 1
222 96 1
222 104 1
222 105 1
222 106 1
222 107 1
222 113 1
222 115 1
222 116 1
222 119 1
222 120 1
222 130 1
222 133 1
222 136 1
222 137 1
222 142 1
222 146 1
222 153 1
222 159 1
222 162 1
222 163 1
222 165 1
222 175 1
222 183 1
222 189 1
222 193 1
222 195 1
222 199 1
222 212 1
222 226 1
222 231 1
222 232 1
222 234 1
222 236 1
222 240 1
222 249 1
222 250 1
222 256 1
222 260 1
222 262 1
222 263 1
222 267 1
222 272 1
222 287 1
222 288 1
222 290 1
222 298 1
223 3 1
223 8 1
223 9 1
223 25 1
223 27 1
223 31 1
223 32 1
223 34 1
223 35 1
223 38 1
223 55 1
223 61 1
223 64 1
223 80 1
223 84 1
223 95 1
223 97 1
223 98 1
223 100 1
223 107 1
223 108 1
223 109 1
223 113 1
223 116 1
223 119 1
223 124 1
223 131 1
223 135 1
223 136 1
223 137 1
223 144 1
223 145 1
223 146 1
223 150 1
223 153 1
223 155 1
223 160 1
223 162 1
223 164 1
223 167 1
223 170 1
223 176 1
223 179 1
223 182 1
223 183 1
223 184 1
223 195 1
223 197 1
223 200 1
223 218 1
223 219 1
223 220 1
223 231 1
223 237 1
223 238 1
223 239 1
223 241 1
223 252 1
223 260 1
223 261 1
223 262 1
223 267 1
223 277 1
223 286 1
224 2 1
224 17 1
224 20 1
224 26 1
224 34 1
224 38 1
224 42 1
224 44 1
224 47 1
224 50 1
224 51 1
224 58 1
224 61 1
224 69 1
224 79 1
224 84 1
224 85 1
224 88 1
224 89 1
224 91 1
224 92 1
224 94 1
224 98 1
224 111 1
224 114 1
224 117 1
224 120 1
224 121 1
224 122 1
224 123 1
224 124 1
224 128 1
224 135 1
224 138 1
224 139 1
224 140 1
224 145 1
224 153 1
224 160 1
224 161 1
224 163 1
224 164 1
224 175 1
224 176 1
224 177 1
224 179 1
224 192 1
224 193 1
224 195 1
224 200 1
224 203 1
224 210 1
224 215 1
224 226 1
224 227 1
224 250 1
224 253 1
224 254 1
224 262 1
224 278 1
224 285 1
224 287 1
224 290 1
224 299 1
225 6 1
225 8 1
225 10 1
225 11 1
225 22 1
225 26 1
225 33 1
225 37 1
225 38 1
225 45 1
225 46 1
225 47 1
225 53 1
225 54 1
225 61 1
225 67 1
225 75 1
225 81 1
225 85 1
225 90 1
225 100 1
225 111 1
225 112 1
225 114 1
225 118 1
225 138 1
225 139 1
225 141 1
225 147 1
225 149 1
225 150 1
225 152 1
225 155 1
225 157 1
225 158 1
225 165 1
225 167 1
225 171 1
225 190 1
225 200 1
225 202 1
225 209 1
225 230 1
225 231 1
225 236 1
225 237 1
225 255 1
225 258 1
225 261 1
225 267 1
225 268 1
225 272 1
225 283 1
225 286 1
225 290 1
225 293 1
225 294 1
226 2 1
226 8 1
226 16 1
226 23 1
226 30 1
226 36 1
226 44 1
226 45 1
226 46 1
226 48 1
226 50 1
226 51 1
226 69 1
226 71 1
226 77 1
226 79 1
226 84 1
226 87 1
226 91 1
226 92 1
226 94 1
226 101 1
226 103 1
226 106 1
226 107 1
226 112 1
226 117 1
226 120 1
226 122 1
226 125 1
226 139 1
226 142 1
226 145 1
226 153 1
226 154 1
226 155 1
226 160 1
226 172 1
226 176 1
226 177 1
226 181 1
226 182 1
226 186 1
226 187 1
226 192 1
226 198 1
226 199 1
226 201 1
226 202 1
226 222 1
226 224 1
226 236 1
226 244 1
226 253 1
226 254 1
226 255 1
226 257 1
226 262 1
226 264 1
226 269 1
226 274 1
226 278 1
226 279 1
226 284 1
226 286 1
226 296 1
227 11 1
227 12 1
227 22 1
227 33 1
227 38 1
227 47 1
227 50 1
227 57 1
227 61 1
227 62 1
227 64 1
227 66 1
227 72 1
227 81 1
227 83 1
227 86 1
227 90 1
227 98 1
227 102 1
227 108 1
227 111 1
227 118 1
227 123 1
227 128 1
227 139 1
227 154 1
227 155 1
227 159 1
227 161 1
227 168 1
227 170 1
227 193 1
227 201 1
227 204 1
227 206 1
227 209 1
227 218 1
227 220 1
227 224 1
227 230 1
227 236 1
227 238 1
227 239 1
227 247 1
227 250 1
227 253 1
227 255 1
227 257 1
227 264 1
227 268 1
227 279 1
227 282 1
227 286 1
227 288 1
228 2 1
228 3 1
228 12 1
228 22 1
228 23 1
228 25 1
228 32 1
228 37 1
228 55 1
228 58 1
228 60 1
228 62 1
228 67 1
228 71 1
228 74 1
228 79 1
228 86 1
228 90 1
228 93 1
228 97 1
228 103 1
228 104 1
228 108 1
228 115 1
228 126 1
228 131 1
228 137 1
228 138 1
228 140 1
228 147 1
228 148 1
228 149 1
228 155 1
228 158 1
228 167 1
228 173 1
228 178 1
228 183 1
228 194 1
228 196 1
228 197 1
228 199 1
228 204 1
228 216 1
228 219 1
228 230 1
228 233 1
228 235 1
228 243 1
228 253 1
228 257 1
228 260 1
228 261 1
228 262 1
228 264 1
228 281 1
228 282 1
228 289 1
228 293 1
228 294 1
228 300 1
229 5 1
229 20 1
229 21 1
229 23 1
229 25 1
229 40 1
229 54 1
229 57 1
229 61 1
229 64 1
229 67 1
229 80 1
229 90 1
229 91 1
229 95 1
229 101 1
229 103 1
229 113 1
229 129 1
229 131 1
229 139 1
229 140 1
229 141 1
229 142 1
229 156 1
229 158 1
229 165 1
229 177 1
229 181 1
229 183 1
229 187 1
229 191 1
229 195 1
229 198 1
229 202 1
229 207 1
229 212 1
229 221 1
229 264 1
229 266 1
229 267 1
229 271 1
229 278 1
229 281 1
229 284 1
229 286 1
229 287 1
229 293 1
229 294 1
230 15 1
230 31 1
230 40 1
230 42 1
230 47 1
230 48 1
230 73 1
230 74 1
230 75 1
230 82 1
230 84 1
230 88 1
230 93 1
230 94 1
230 95 1
230 97 1
230 103 1
230 104 1
230 105 1
230 110 1
230 114 1
230 120 1
230 121 1
230 128 1
230 131 1
230 133 1
230 141 1
230 153 1
230 158 1
230 162 1
230 165 1
230 166 1
230 173 1
230 176 1
230 179 1
230 186 1
230 199 1
230 200 1
230 201 1
230 202 1
230 205 1
230 219 1
230 225 1
230 227 1
230 228 1
230 231 1
230 236 1
230 239 1
230 241 1
230 243 1
230 245 1
230 247 1
230 254 1
230 258 1
230 273 1
230 276 1
230 278 1
230 281 1
230 289 1
230 291 1
230 296 1
231 8 1
231 19 1
231 24 1
231 26 1
231 43 1
231 44 1
231 54 1
231 62 1
231 64 1
231 70 1
231 72 1
231 74 1
231 80 1
231 82 1
231 83 1
231 88 1
231 90 1
231 93 1
231 96 1
231 98 1
231 108 1
231 117 1
231 121 1
231 124 1
231 126 1
231 129 1
231 130 1
231 132 1
231 139 1
231 145 1
231 148 1
231 165 1
231 172 1
231 176 1
231 181 1
231 184 1
231 188 1
231 193 1
231 194 1
231 208 1
231 211 1
231 218 1
231 222 1
231 223 1
231 225 1
231 230 1
231 240 1
231 241 1
231 243 1
231 244 1
231 247 1
231 249 1
231 257 1
231 271 1
231 286 1
231 289 1
231 292 1
231 300 1
232 3 1
232 10 1
232 11 1
232 12 1
232 21 1
232 26 1
232 27 1
232 39 1
232 48 1
232 54 1
232 55 1
232 57 1
232 59 1
232 71 1
232 74 1
232 82 1
232 95 1
232 100 1
232 101 1
232 105 1
232 106 1
232 109 1
232 119 1
232 122 1
232 127 1
232 129 1
232 132 1
232 133 1
232 140 1
232 149 1
232 151 1
232 154 1
232 157 1
232 174 1
232 178 1
232 187 1
232 188 1
232 195 1
232 198 1
232 215 1
232 219 1
232 222 1
232 234 1
232 239 1
232 243 1
232 247 1
232 249 1
232 252 1
232 255 1
232 263 1
232 267 1
232 270 1
232 274 1
232 275 1
232 282 1
232 287 1
232 289 1
232 294 1
233 1 1
233 3 1
233 5 1
233 9 1
233 11 1
233 12 1
233 13 1
233 19 1
233 25 1
233 29 1
233 42 1
233 52 1
233 58 1
233 64 1
233 66 1
233 69 1
233 73 1
233 76 1
233 83 1
233 89 1
233 91 1
233 93 1
233 95 1
233 100 1
233 104 1
233 107 1
233 111 1
233 115 1
233 117 1
233 119 1
233 121 1
233 124 1
233 125 1
233 126 1
233 128 1
233 134 1
233 137 1
233 138 1
233 145 1
233 152 1
233 155 1
233 157 1
233 164 1
233 166 1
233 172 1
233 174 1
233 175 1
233 176 1
233 179 1
233 180 1
233 186 1
233 187 1
233 189 1
233 190 1
233 193 1
233 200 1
233 205 1
233 206 1
233 213 1
233 216 1
233 220 1
233 228 1
233 237 1
233 247 1
233 248 1
233 250 1
233 255 1
233 272 1
233 274 1
233 276 1
233 280 1
233 281 1
233 291 1
233 299 1
233 300 1
234 8 1
234 12 1
234 23 1
234 35 1
234 37 1
234 43 1
234 44 1
234 46 1
234 53 1
234 54 1
234 63 1
234 66 1
234 75 1
234 79 1
234 88 1
234 89 1
234 94 1
234 96 1
234 101 1
234 108 1
234 110 1
234 120 1
234 121 1
234 122 1
234 135 1
234 138 1
234 140 1
234 142 1
234 144 1
234 145 1
234 146 1
234 148 1
234 152 1
234 153 1
234 154 1
234 155 1
234 160 1
234 176 1
234 184 1
234 199 1
234 203 1
234 208 1
234 213 1
234 214 1
234 219 1
234 222 1
234 232 1
234 237 1
234 241 1
234 244 1
234 245 1
234 246 1
234 251 1
234 254 1
234 263 1
234 268 1
234 274 1
234 278 1
234 279 1
234 298 1
234 299 1
235 6 1
235 12 1
235 16 1
235 26 1
235 28 1
235 31 1
235 34 1
235 47 1
235 48 1
235 55 1
235 63 1
235 74 1
235 75 1
235 76 1
235 91 1
235 92 1
235 94 1
235 98 1
235 100 1
235 111 1
235 112 1
235 115 1
235 119 1
235 124 1
235 131 1
235 135 1
235 146 1
235 161 1
235 163 1
235 168 1
235 171 1
235 173 1
235 175 1
235 176 1
235 183 1
235 185 1
235 189 1
235 190 1
235 191 1
235 211 1
235 228 1
235 247 1
235 256 1
235 264 1
235 266 1
235 268 1
235 269 1
235 272 1
235 277 1
235 279 1
235 282 1
235 286 1
235 289 1
235 299 1
236 8 1
236 9 1
236 12 1
236 17 1
236 27 1
236 30 1
236 31 1
236 34 1
236 42 1
236 44 1
236 62 1
236 69 1
236 71 1
236 73 1
236 76 1
236 78 1
236 86 1
236 88 1
236 90 1
236 91 1
236 102 1
236 123 1
236 137 1
236 141 1
236 142 1
236 143 1
236 144 1
236 146 1
236 148 1
236 153 1
236 159 1
236 162 1
236 166 1
236 178 1
236 183 1
236 192 1
236 194 1
236 196 1
236 197 1
236 201 1
236 214 1
236 216 1
236 222 1
236 225 1
236 226 1
236 227 1
236 230 1
236 241 1
236 243 1
236 244 1
236 249 1
236 253 1
236 254 1
236 257 1
236 262 1
236 266 1
236 279 1
236 282 1
236 283 1
236 287 1
236 288 1
236 292 1
236 298 1
237 2 1
237 9 1
237 12 1
237 15 1
237 16 1
237 42 1
237 56 1
237 59 1
237 61 1
237 64 1
237 68 1
237 73 1
237 81 1
237 86 1
237 91 1
237 92 1
237 98 1
237 99 1
237 116 1
237 118 1
237 130 1
237 135 1
237 157 1
237 172 1
237 176 1
237 188 1
237 192 1
237 195 1
237 196 1
237 206 1
237 210 1
237 216 1
237 223 1
237 225 1
237 233 1
237 234 1
237 238 1
237 252 1
237 255 1
237 256 1
237 261 1
237 263 1
237 277 1
237 281 1
237 285 1
237 289 1
237 292 1
237 300 1
238 8 1
238 9 1
238 11 1
238 16 1
238 22 1
238 24 1
238 28 1
238 36 1
238 37 1
238 40 1
238 42 1
238 45 1
238 47 1
238 54 1
238 59 1
238 60 1
238 62 1
238 66 1
238 75 1
238 88 1
238 91 1
238 98 1
238 100 1
238 101 1
238 110 1
238 112 1
238 117 1
238 120 1
238 121 1
238 122 1
238 123 1
238 132 1
238 138 1
238 142 1
238 143 1
238 147 1
238 166 1
238 172 1
238 178 1
238 179 1
238 181 1
238 188 1
238 190 1
238 191 1
238 197 1
238 199 1
238 206 1
238 214 1
238 218 1
238 219 1
238 221 1
238 223 1
238 227 1
238 237 1
238 239 1
238 248 1
238 253 1
238 255 1
238 260 1
238 269 1
238 270 1
238 271 1
238 274 1
238 284 1
238 286 1
238 288 1
238 290 1
238 293 1
238 294 1
238 295 1
239 6 1
239 10 1
239 12 1
239 20 1
239 21 1
239 25 1
239 26 1
239 30 1
239 42 1
239 44 1
239 47 1
239 49 1
239 53 1
239 62 1
239 68 1
239 69 1
239 77 1
239 80 1
239 83 1
239 93 1
239 94 1
239 96 1
239 100 1
239 103 1
239 105 1
239 114 1
239 116 1
239 117 1
239 119 1
239 126 1
239 132 1
239 141 1
239 145 1
239 146 1
239 152 1
239 153 1
239 158 1
239 164 1
239 176 1
239 180 1
239 181 1
239 187 1
239 188 1
239 197 1
239 211 1
239 214 1
239 215 1
239 223 1
239 227 1
239 230 1
239 232 1
239 238 1
239 243 1
239 244 1
239 245 1
239 246 1
239 250 1
239 262 1
239 267 1
239 270 1
239 272 1
239 279 1
239 285 1
239 287 1
239 288 1
239 290 1
239 292 1
239 294 1
240 2 1
240 5 1
240 7 1
240 8 1
240 10 1
240 11 1
240 12 1
240 21 1
240 22 1
240 45 1
240 46 1
240 54 1
240 58 1
240 65 1
240 69 1
240 70 1
240 72 1
240 73 1
240 77 1
240 80 1
240 84 1
240 85 1
240 87 1
240 97 1
240 109 1
240 110 1
240 112 1
240 123 1
240 124 1
240 126 1
240 127 1
240 128 1
240 131 1
240 133 1
240 135 1
240 138 1
240 141 1
240 148 1
240 149 1
240 150 1
240 152 1
240 153 1
240 160 1
240 161 1
240 163 1
240 167 1
240 169 1
240 170 1
240 172 1
240 178 1
240 180 1
240 182 1
240 194 1
240 222 1
240 231 1
240 243 1
240 245 1
240 247 1
240 253 1
240 260 1
240 261 1
240 263 1
240 264 1
240 266 1
240 268 1
240 269 1
240 273 1
240 285 1
240 293 1
241 1 1
241 5 1
241 9 1
241 16 1
241 21 1
241 23 1
241 24 1
241 33 1
241 40 1
241 42 1
241 46 1
241 49 1
241 51 1
241 54 1
241 56 1
241 68 1
241 71 1
241 72 1
241 76 1
241 80 1
241 81 1
241 82 1
241 84 1
241 86 1
241 94 1
241 98 1
241 99 1
241 101 1
241 103 1
241 107 1
241 108 1
241 109 1
241 114 1
241 118 1
241 119 1
241 127 1
241 143 1
241 146 1
241 149 1
241 160 1
241 170 1
241 175 1
241 182 1
241 185 1
241 186 1
241 198 1
241 203 1
241 208 1
241 211 1
241 212 1
241 223 1
241 230 1
241 231 1
241 234 1
241 236 1
241 243 1
241 248 1
241 250 1
241 268 1
241 272 1
241 277 1
241 279 1
241 281 1
241 283 1
241 284 1
241 285 1
241 290 1
241 293 1
241 294 1
241 296 1
241 299 1
242 1 1
242 4 1
242 5 1
242 9 1
242 13 1
242 19 1
242 25 1
242 27 1
242 30 1
242 33 1
242 34 1
242 35 1
242 38 1
242 47 1
242 48 1
242 56 1
242 57 1
242 60 1
242 63 1
242 69 1
242 70 1
242 75 1
242 76 1
242 87 1
242 92 1
242 107 1
242 118 1
242 120 1
242 123 1
242 128 1
242 137 1
242 141 1
242 145 1
242 148 1
242 169 1
242 173 1
242 177 1
242 180 1
242 189 1
242 192 1
242 193 1
242 194 1
242 198 1
242 200 1
242 206 1
242 209 1
242 213 1
242 217 1
242 243 1
242 253 1
242 254 1
242 256 1
242 257 1
242 272 1
242 278 1
242 287 1
242 288 1
242 292 1
242 297 1
243 2 1
243 9 1
243 20 1
243 29 1
243 30 1
243 31 1
243 36 1
243 40 1
243 41 1
243 42 1
243 49 1
243 51 1
243 57 1
243 58 1
243 60 1
243 70 1
243 72 1
243 74 1
243 78 1
243 80 1
243 87 1
243 116 1
243 120 1
243 127 1
243 129 1
243 131 1
243 133 1
243 136 1
243 140 1
243 146 1
243 154 1
243 155 1
243 156 1
243 164 1
243 166 1
243 167 1
243 171 1
243 172 1
243 176 1
243 180 1
243 181 1
243 185 1
243 191 1
243 195 1
243 196 1
243 204 1
243 206 1
243 209 1
243 210 1
243 213 1
243 220 1
243 228 1
243 230 1
243 231 1
243 232 1
243 236 1
243 239 1
243 240 1
243 241 1
243 242 1
243 245 1
243 246 1
243 247 1
243 251 1
243 253 1
243 261 1
243 264 1
243 272 1
243 284 1
243 286 1
243 291 1
243 292 1
243 294 1
243 299 1
244 7 1
244 11 1
244 13 1
244 18 1
244 26 1
244 28 1
244 29 1
244 32 1
244 40 1
244 48 1
244 50 1
244 53 1
244 60 1
244 64 1
244 70 1
244 72 1
244 74 1
244 75 1
244 84 1
244 86 1
244 100 1
244 108 1
244 113 1
244 114 1
244 118 1
244 130 1
244 139 1
244 140 1
244 141 1
244 147 1
244 149 1
244 150 1
244 154 1
244 155 1
244 156 1
244 160 1
244 162 1
244 163 1
244 164 1
244 165 1
244 168 1
244 171 1
244 187 1
244 195 1
244 196 1
244 197 1
244 199 1
244 201 1
244 211 1
244 215 1
244 218 1
244 221 1
244 226 1
244 231 1
244 234 1
244 236 1
244 239 1
244 248 1
244 255 1
244 257 1
244 263 1
244 266 1
244 287 1
244 291 1
244 292 1
244 294 1
244 300 1
245 2 1
245 3 1
245 15 1
245 16 1
245 19 1
245 27 1
245 31 1
245 37 1
245 45 1
245 51 1
245 53 1
245 54 1
245 55 1
245 61 1
245 70 1
245 71 1
245 75 1
245 76 1
245 78 1
245 79 1
245 87 1
245 95 1
245 102 1
245 108 1
245 110 1
245 118 1
245 128 1
245 129 1
245 135 1
245 137 1
245 150 1
245 154 1
245 164 1
245 180 1
245 182 1
245 188 1
245 189 1
245 195 1
245 200 1
245 209 1
245 215 1
245 217 1
245 230 1
245 234 1
245 239 1
245 240 1
245 243 1
245 255 1
245 256 1
245 265 1
245 273 1
245 275 1
245 283 1
245 290 1
245 296 1
245 300 1
246 1 1
246 5 1
246 6 1
246 9 1
246 11 1
246 15 1
246 20 1
246 29 1
246 31 1
246 33 1
246 37 1
246 44 1
246 48 1
246 65 1
246 68 1
246 71 1
246 79 1
246 88 1
246 91 1
246 96 1
246 98 1
246 113 1
246 115 1
246 119 1
246 127 1
246 128 1
246 129 1
246 130 1
246 136 1
246 139 1
246 143 1
246 146 1
246 157 1
246 160 1
246 162 1
246 163 1
246 165 1
246 166 1
246 168 1
246 169 1
246 172 1
246 175 1
246 184 1
246 195 1
246 197 1
246 203 1
246 206 1
246 207 1
246 214 1
246 221 1
246 234 1
246 239 1
246 243 1
246 248 1
246 255 1
246 266 1
246 271 1
246 291 1
247 5 1
247 6 1
247 9 1
247 10 1
247 20 1
247 27 1
247 30 1
247 32 1
247 35 1
247 39 1
247 42 1
247 46 1
247 55 1
247 56 1
247 69 1
247 71 1
247 76 1
247 78 1
247 80 1
247 81 1
247 83 1
247 85 1
247 91 1
247 92 1
247 93 1
247 94 1
247 100 1
247 103 1
247 104 1
247 114 1
247 116 1
247 122 1
247 130 1
247 133 1
247 143 1
247 144 1
247 156 1
247 157 1
247 158 1
247 160 1
247 161 1
247 172 1
247 186 1
247 187 1
247 190 1
247 192 1
247 193 1
247 197 1
247 202 1
247 204 1
247 206 1
247 212 1
247 213 1
247 227 1
247 230 1
247 231 1
247 232 1
247 233 1
247 235 1
247 240 1
247 243 1
247 248 1
247 250 1
247 252 1
247 255 1
247 265 1
247 268 1
247 270 1
247 271 1
247 279 1
247 281 1
247 287 1
247 292 1
247 295 1
247 299 1
248 5 1
248 8 1
248 16 1
248 25 1
248 27 1
248 31 1
248 32 1
248 57 1
248 59 1
248 61 1
248 63 1
248 70 1
248 78 1
248 83 1
248 89 1
248 94 1
248 104 1
248 107 1
248 128 1
248 130 1
248 138 1
248 163 1
248 173 1
248 182 1
248 188 1
248 199 1
248 200 1
248 201 1
248 209 1
248 211 1
248 213 1
248 214 1
248 220 1
248 233 1
248 238 1
248 241 1
248 244 1
248 246 1
248 247 1
248 260 1
248 268 1
248 278 1
248 286 1
248 287 1
248 293 1
248 295 1
249 1 1
249 2 1
249 15 1
249 18 1
249 20 1
249 26 1
249 38 1
249 46 1
249 53 1
249 55 1
249 58 1
249 59 1
249 63 1
249 64 1
249 66 1
249 69 1
249 73 1
249 74 1
249 75 1
249 77 1
249 84 1
249 89 1
249 94 1
249 105 1
249 112 1
249 117 1
249 118 1
249 119 1
249 131 1
249 135 1
249 136 1
249 137 1
249 142 1
249 147 1
249 149 1
249 152 1
249 157 1
249 161 1
249 168 1
249 169 1
249 172 1
249 173 1
249 177 1
249 199 1
249 207 1
249 218 1
249 222 1
249 231 1
249 232 1
249 236 1
249 253 1
249 257 1
249 260 1
249 274 1
249 275 1
249 276 1
249 285 1
249 291 1
250 5 1
250 7 1
250 14 1
250 16 1
250 17 1
250 22 1
250 24 1
250 25 1
250 27 1
250 31 1
250 38 1
250 50 1
250 51 1
250 56 1
250 58 1
250 84 1
250 86 1
250 89 1
250 92 1
250 96 1
250 100 1
250 102 1
250 103 1
250 105 1
250 107 1
250 114 1
250 120 1
250 127 1
250 134 1
250 135 1
250 137 1
250 139 1
250 140 1
250 150 1
250 151 1
250 152 1
250 157 1
250 158 1
250 160 1
250 163 1
250 164 1
250 167 1
250 168 1
250 169 1
250 171 1
250 173 1
250 185 1
250 192 1
250 193 1
250 195 1
250 196 1
250 203 1
250 206 1
250 215 1
250 218 1
250 221 1
250 222 1
250 224 1
250 227 1
250 233 1
250 239 1
250 241 1
250 247 1
250 251 1
250 254 1
250 258 1
250 271 1
250 287 1
250 293 1
250 294 1
250 299 1
251 10 1
251 19 1
251 33 1
251 34 1
251 35 1
251 40 1
251 52 1
251 68 1
251 74 1
251 87 1
251 89 1
251 91 1
251 94 1
251 95 1
251 96 1
251 104 1
251 105 1
251 111 1
251 122 1
251 124 1
251 127 1
251 129 1
251 133 1
251 135 1
251 143 1
251 146 1
251 147 1
251 150 1
251 151 1
251 153 1
251 159 1
251 161 1
251 164 1
251 172 1
251 173 1
251 174 1
251 180 1
251 183 1
251 184 1
251 189 1
251 205 1
251 207 1
251 210 1
251 220 1
251 234 1
251 243 1
251 250 1
251 260 1
251 261 1
251 262 1
251 267 1
251 268 1
251 271 1
251 277 1
251 280 1
251 283 1
251 289 1
251 295 1
252 10 1
252 16 1
252 17 1
252 20 1
252 22 1
252 25 1
252 26 1
252 34 1
252 38 1
252 45 1
252 49 1
252 50 1
252 57 1
252 67 1
252 68 1
252 70 1
252 80 1
252 82 1
252 83 1
252 84 1
252 85 1
252 90 1
252 94 1
252 98 1
252 105 1
252 110 1
252 111 1
252 112 1
252 117 1
252 121 1
252 126 1
252 129 1
252 130 1
252 131 1
252 137 1
252 144 1
252 157 1
252 166 1
252 167 1
252 181 1
252 183 1
252 184 1
252 188 1
252 193 1
252 196 1
252 198 1
252 200 1
252 205 1
252 213 1
252 214 1
252 216 1
252 219 1
252 223 1
252 232 1
252 237 1
252 247 1
252 257 1
252 258 1
252 270 1
252 276 1
252 277 1
252 290 1
252 294 1
252 295 1
252 296 1
252 300 1
253 1 1
253 4 1
253 5 1
253 6 1
253 7 1
253 9 1
253 13 1
253 18 1
253 26 1
253 27 1
253 29 1
253 41 1
253 43 1
253 45 1
253 47 1
253 57 1
253 59 1
253 77 1
253 78 1
253 79 1
253 81 1
253 87 1
253 89 1
253 91 1
253 99 1
253 100 1
253 102 1
253 112 1
253 132 1
253 133 1
253 139 1
253 143 1
253 148 1
253 154 1
253 157 1
253 159 1
253 174 1
253 180 1
253 187 1
253 189 1
253 190 1
253 215 1
253 220 1
253 224 1
253 226 1
253 227 1
253 228 1
253 236 1
253 238 1
253 240 1
253 242 1
253 243 1
253 249 1
253 267 1
253 272 1
253 275 1
253 278 1
253 285 1
253 289 1
253 292 1
253 295 1
253 296 1
253 298 1
253 299 1
254 2 1
254 4 1
254 12 1
254 23 1
254 28 1
254 35 1
254 41 1
254 46 1
254 50 1
254 51 1
254 53 1
254 58 1
254 66 1
254 67 1
254 68 1
254 90 1
254 96 1
254 100 1
254 103 1
254 107 1
254 111 1
254 113 1
254 116 1
254 123 1
254 125 1
254 129 1
254 135 1
254 136 1
254 152 1
254 159 1
254 160 1
254 161 1
254 170 1
254 175 1
254 179 1
254 181 1
254 185 1
254 188 1
254 194 1
254 195 1
254 208 1
254 216 1
254 218 1
254 220 1
254 224 1
254 226 1
254 230 1
254 234 1
254 236 1
254 242 1
254 250 1
254 256 1
254 267 1
254 275 1
254 282 1
254 286 1
254 288 1
254 289 1
254 291 1
254 299 1
255 6 1
255 8 1
255 15 1
255 21 1
255 23 1
255 25 1
255 32 1
255 34 1
255 36 1
255 39 1
255 42 1
255 60 1
255 62 1
255 72 1
255 78 1
255 88 1
255 89 1
255 97 1
255 98 1
255 104 1
255 111 1
255 129 1
255 130 1
255 133 1
255 141 1
255 144 1
255 145 1
255 146 1
255 152 1
255 154 1
255 165 1
255 167 1
255 171 1
255 178 1
255 180 1
255 182 1
255 186 1
255 187 1
255 192 1
255 194 1
255 199 1
255 201 1
255 203 1
255 214 1
255 216 1
255 225 1
255 226 1
255 227 1
255 232 1
255 233 1
255 237 1
255 238 1
255 244 1
255 245 1
255 246 1
255 247 1
255 267 1
255 269 1
255 279 1
255 286 1
255 288 1
255 289 1
255 295 1
255 298 1
255 299 1
255 300 1
256 5 1
256 6 1
256 7 1
256 8 1
256 17 1
256 22 1
256 37 1
256 52 1
256 55 1
256 70 1
256 72 1
256 82 1
256 84 1
256 93 1
256 98 1
256 101 1
256 102 1
256 104 1
256 107 1
256 111 1
256 115 1
256 118 1
256 119 1
256 125 1
256 126 1
256 133 1
256 138 1
256 141 1
256 144 1
256 150 1
256 154 1
256 163 1
256 165 1
256 171 1
256 186 1
256 191 1
256 192 1
256 193 1
256 195 1
256 198 1
256 202 1
256 214 1
256 217 1
256 218 1
256 222 1
256 235 1
256 237 1
256 242 1
256 245 1
256 254 1
256 257 1
256 261 1
256 269 1
256 275 1
256 276 1
256 277 1
256 280 1
256 283 1
256 284 1
256 285 1
256 292 1
256 296 1
257 1 1
257 7 1
257 8 1
257 9 1
257 11 1
257 15 1
257 19 1
257 25 1
257 30 1
257 36 1
257 38 1
257 41 1
257 50 1
257 64 1
257 69 1
257 76 1
257 79 1
257 83 1
257 85 1
257 87 1
257 88 1
257 91 1
257 92 1
257 100 1
257 102 1
257 105 1
257 108 1
257 116 1
257 120 1
257 131 1
257 133 1
257 137 1
257 138 1
257 141 1
257 142 1
257 147 1
257 151 1
257 158 1
257 165 1
257 166 1
257 169 1
257 173 1
257 181 1
257 182 1
257 189 1
257 191 1
257 196 1
257 197 1
257 204 1
257 211 1
257 214 1
257 215 1
257 221 1
257 226 1
257 227 1
257 228 1
257 231 1
257 236 1
257 242 1
257 244 1
257 249 1
257 252 1
257 256 1
257 269 1
257 271 1
257 277 1
257 279 1
257 282 1
258 1 1
258 2 1
258 7 1
258 11 1
258 17 1
258 19 1
258 20 1
258 28 1
258 37 1
258 38 1
258 44 1
258 49 1
258 59 1
258 62 1
258 77 1
258 86 1
258 88 1
258 94 1
258 97 1
258 102 1
258 105 1
258 110 1
258 112 1
258 119 1
258 129 1
258 131 1
258 132 1
258 134 1
258 158 1
258 159 1
258 163 1
258 167 1
258 168 1
258 170 1
258 171 1
258 173 1
258 174 1
258 177 1
258 178 1
258 179 1
258 182 1
258 190 1
258 204 1
258 205 1
258 218 1
258 219 1
258 221 1
258 225 1
258 230 1
258 250 1
258 252 1
258 269 1
258 270 1
258 278 1
258 282 1
258 288 1
259 4 1
259 9 1
259 10 1
259 17 1
259 29 1
259 34 1
259 51 1
259 54 1
259 66 1
259 69 1
259 71 1
259 75 1
259 80 1
259 81 1
259 85 1
259 89 1
259 94 1
259 97 1
259 98 1
259 100 1
259 103 1
259 106 1
259 108 1
259 120 1
259 123 1
259 126 1
259 138 1
259 140 1
259 141 1
259 147 1
259 155 1
259 157 1
259 159 1
259 162 1
259 168 1
259 170 1
259 171 1
259 172 1
259 174 1
259 176 1
259 179 1
259 185 1
259 193 1
259 198 1
259 201 1
259 204 1
259 207 1
259 209 1
259 260 1
259 265 1
259 267 1
259 268 1
259 273 1
259 281 1
259 286 1
259 292 1
259 299 1
259 300 1
260 20 1
260 21 1
260 26 1
260 33 1
260 37 1
260 40 1
260 46 1
260 48 1
260 52 1
260 56 1
260 58 1
260 69 1
260 70 1
260 74 1
260 75 1
260 77 1
260 82 1
260 84 1
260 85 1
260 86 1
260 91 1
260 92 1
260 94 1
260 95 1
260 99 1
260 102 1
260 104 1
260 111 1
260 112 1
260 113 1
260 115 1
260 117 1
260 123 1
260 125 1
260 131 1
260 132 1
260 141 1
260 143 1
260 146 1
260 150 1
260 162 1
260 163 1
260 165 1
260 170 1
260 175 1
260 181 1
260 185 1
260 186 1
260 192 1
260 193 1
260 196 1
260 202 1
260 207 1
260 212 1
260 217 1
260 222 1
260 223 1
260 228 1
260 238 1
260 240 1
260 248 1
260 249 1
260 251 1
260 259 1
260 265 1
260 267 1
260 268 1
260 269 1
260 274 1
260 277 1
260 279 1
260 286 1
260 288 1
260 296 1
260 297 1
261 8 1
261 20 1
261 24 1
261 30 1
261 34 1
261 39 1
261 42 1
261 48 1
261 65 1
261 74 1
261 75 1
261 78 1
261 80 1
261 86 1
261 96 1
261 98 1
261 100 1
261 103 1
261 111 1
261 115 1
261 123 1
261 125 1
261 127 1
261 142 1
261 145 1
261 150 1
261 157 1
261 163 1
261 165 1
261 166 1
261 177 1
261 180 1
261 186 1
261 193 1
261 197 1
261 198 1
261 200 1
261 201 1
261 207 1
261 214 1
261 221 1
261 223 1
261 225 1
261 228 1
261 237 1
261 240 1
261 243 1
261 251 1
261 256 1
261 263 1
261 266 1
261 267 1
261 278 1
261 284 1
261 286 1
261 291 1
261 292 1
261 298 1
262 6 1
262 8 1
262 11 1
262 12 1
262 20 1
262 24 1
262 25 1
262 28 1
262 29 1
262 38 1
262 40 1
262 41 1
262 45 1
262 46 1
262 49 1
262 55 1
262 75 1
262 77 1
262 78 1
262 85 1
262 86 1
262 87 1
262 94 1
262 105 1
262 108 1
262 110 1
262 115 1
262 119 1
262 128 1
262 132 1
262 139 1
262 141 1
262 149 1
262 152 1
262 157 1
262 167 1
262 169 1
262 171 1
262 172 1
262 178 1
262 184 1
262 185 1
262 186 1
262 213 1
262 218 1
262 219 1
262 222 1
262 223 1
262 224 1
262 226 1
262 228 1
262 236 1
262 239 1
262 251 1
262 272 1
262 273 1
262 286 1
263 1 1
263 7 1
263 8 1
263 9 1
263 10 1
263 12 1
263 14 1
263 21 1
263 25 1
263 38 1
263 45 1
263 46 1
263 56 1
263 58 1
263 63 1
263 69 1
263 70 1
263 81 1
263 84 1
263 89 1
263 91 1
263 92 1
263 94 1
263 110 1
263 116 1
263 119 1
263 120 1
263 121 1
263 127 1
263 130 1
263 136 1
263 138 1
263 142 1
263 144 1
263 145 1
263 147 1
263 156 1
263 161 1
263 166 1
263 170 1
263 177 1
263 181 1
263 188 1
263 193 1
263 196 1
263 197 1
263 198 1
263 202 1
263 207 1
263 211 1
263 213 1
263 222 1
263 232 1
263 234 1
263 237 1
263 240 1
263 244 1
263 261 1
263 264 1
263 268 1
263 271 1
263 274 1
263 283 1
263 287 1
263 289 1
263 291 1
263 300 1
264 5 1
264 57 1
264 58 1
264 59 1
264 60 1
264 83 1
264 99 1
264 101 1
264 102 1
264 112 1
264 127 1
264 133 1
264 141 1
264 144 1
264 147 1
264 172 1
264 175 1
264 186 1
264 188 1
264 202 1
264 214 1
264 226 1
264 227 1
264 228 1
264 229 1
264 235 1
264 240 1
264 243 1
264 263 1
264 266 1
264 271 1
264 274 1
264 277 1
264 286 1
264 291 1
264 292 1
264 293 1
264 300 1
265 6 1
265 10 1
265 13 1
265 15 1
265 20 1
265 26 1
265 39 1
265 45 1
265 50 1
265 53 1
265 56 1
265 61 1
265 68 1
265 73 1
265 75 1
265 81 1
265 82 1
265 83 1
265 84 1
265 93 1
265 101 1
265 104 1
265 106 1
265 109 1
265 111 1
265 114 1
265 118 1
265 120 1
265 121 1
265 131 1
265 135 1
265 145 1
265 150 1
265 153 1
265 158 1
265 159 1
265 177 1
265 181 1
265 186 1
265 193 1
265 196 1
265 198 1
265 209 1
265 211 1
265 216 1
265 218 1
265 245 1
265 247 1
265 259 1
265 260 1
265 268 1
265 273 1
265 274 1
265 283 1
265 285 1
266 2 1
266 5 1
266 6 1
266 12 1
266 16 1
266 27 1
266 33 1
266 37 1
266 38 1
266 42 1
266 45 1
266 52 1
266 60 1
266 61 1
266 66 1
266 79 1
266 84 1
266 99 1
266 102 1
266 109 1
266 110 1
266 117 1
266 119 1
266 125 1
266 127 1
266 128 1
266 136 1
266 137 1
266 138 1
266 142 1
266 171 1
266 172 1
266 175 1
266 183 1
266 184 1
266 187 1
266 190 1
266 197 1
266 200 1
266 205 1
266 206 1
266 219 1
266 229 1
266 235 1
266 236 1
266 240 1
266 244 1
266 246 1
266 261 1
266 264 1
266 270 1
266 281 1
266 282 1
266 292 1
267 6 1
267 8 1
267 9 1
267 10 1
267 13 1
267 31 1
267 39 1
267 44 1
267 52 1
267 61 1
267 71 1
267 77 1
267 84 1
267 86 1
267 88 1
267 90 1
267 93 1
267 101 1
267 109 1
267 113 1
267 114 1
267 116 1
267 119 1
267 139 1
267 140 1
267 141 1
267 148 1
267 160 1
267 167 1
267 181 1
267 183 1
267 188 1
267 189 1
267 194 1
267 205 1
267 207 1
267 210 1
267 211 1
267 216 1
267 219 1
267 222 1
267 223 1
267 225 1
267 229 1
267 232 1
267 239 1
267 251 1
267 253 1
267 254 1
267 255 1
267 259 1
267 260 1
267 261 1
267 270 1
267 277 1
267 292 1
267 293 1
268 2 1
268 8 1
268 9 1
268 10 1
268 15 1
268 16 1
268 21 1
268 23 1
268 33 1
268 36 1
268 47 1
268 49 1
268 59 1
268 60 1
268 61 1
268 63 1
268 64 1
268 65 1
268 68 1
268 72 1
268 79 1
268 82 1
268 86 1
268 98 1
268 102 1
268 104 1
268 107 1
268 108 1
268 109 1
268 111 1
268 114 1
268 119 1
268 129 1
268 141 1
268 151 1
268 156 1
268 161 1
268 166 1
268 167 1
268 168 1
268 173 1
268 175 1
268 177 1
268 181 1
268 184 1
268 190 1
268 192 1
268 206 1
268 225 1
268 227 1
268 234 1
268 235 1
268 240 1
268 241 1
268 247 1
268 248 1
268 251 1
268 259 1
268 260 1
268 263 1
268 265 1
268 283 1
268 287 1
269 5 1
269 7 1
269 8 1
269 11 1
269 15 1
269 18 1
269 19 1
269 21 1
269 27 1
269 43 1
269 44 1
269 48 1
269 50 1
269 53 1
269 54 1
269 62 1
269 66 1
269 68 1
269 74 1
269 83 1
269 91 1
269 96 1
269 97 1
269 99 1
269 100 1
269 106 1
269 111 1
269 113 1
269 119 1
269 120 1
269 138 1
269 140 1
269 146 1
269 150 1
269 151 1
269 152 1
269 153 1
269 184 1
269 194 1
269 195 1
269 201 1
269 202 1
269 209 1
269 221 1
269 226 1
269 235 1
269 238 1
269 240 1
269 255 1
269 256 1
269 257 1
269 258 1
269 260 1
269 273 1
269 275 1
269 276 1
269 277 1
269 282 1
269 285 1
269 287 1
269 293 1
270 7 1
270 16 1
270 20 1
270 21 1
270 31 1
270 38 1
270 41 1
270 42 1
270 49 1
270 51 1
270 62 1
270 65 1
270 74 1
270 78 1
270 88 1
270 95 1
270 99 1
270 109 1
270 111 1
270 113 1
270 116 1
270 122 1
270 126 1
270 129 1
270 134 1
270 135 1
270 137 1
270 138 1
270 140 1
270 142 1
270 143 1
270 144 1
270 145 1
270 148 1
270 155 1
270 167 1
270 172 1
270 186 1
270 206 1
270 208 1
270 218 1
270 232 1
270 238 1
270 239 1
270 247 1
270 252 1
270 258 1
270 266 1
270 267 1
270 273 1
270 276 1
270 279 1
270 282 1
270 283 1
270 286 1
270 293 1
270 295 1
270 297 1
271 2 1
271 7 1
271 10 1
271 12 1
271 15 1
271 19 1
271 41 1
271 53 1
271 61 1
271 63 1
271 72 1
271 80 1
271 88 1
271 97 1
271 99 1
271 104 1
271 111 1
271 117 1
271 128 1
271 134 1
271 137 1
271 140 1
271 143 1
271 154 1
271 159 1
271 171 1
271 176 1
271 179 1
271 210 1
271 211 1
271 212 1
271 216 1
271 219 1
271 221 1
271 229 1
271 231 1
271 238 1
271 246 1
271 247 1
271 250 1
271 251 1
271 257 1
271 263 1
271 264 1
271 275 1
271 283 1
271 284 1
271 286 1
271 296 1
271 298 1
272 10 1
272 27 1
272 34 1
272 36 1
272 38 1
272 41 1
272 47 1
272 48 1
272 49 1
272 53 1
272 54 1
272 57 1
272 63 1
272 75 1
272 88 1
272 92 1
272 102 1
272 108 1
272 109 1
272 110 1
272 111 1
272 116 1
272 121 1
272 122 1
272 126 1
272 133 1
272 134 1
272 153 1
272 163 1
272 171 1
272 179 1
272 182 1
272 188 1
272 190 1
272 197 1
272 201 1
272 212 1
272 216 1
272 222 1
272 225 1
272 233 1
272 235 1
272 239 1
272 241 1
272 242 1
272 243 1
272 253 1
272 262 1
272 274 1
272 277 1
272 283 1
272 287 1
272 292 1
272 297 1
272 298 1
272 299 1
273 3 1
273 7 1
273 9 1
273 10 1
273 17 1
273 20 1
273 21 1
273 22 1
273 30 1
273 32 1
273 36 1
273 37 1
273 52 1
273 59 1
273 62 1
273 66 1
273 79 1
273 81 1
273 84 1
273 99 1
273 101 1
273 102 1
273 103 1
273 112 1
273 119 1
273 121 1
273 122 1
273 123 1
273 129 1
273 131 1
273 141 1
273 146 1
273 150 1
273 151 1
273 153 1
273 164 1
273 166 1
273 179 1
273 191 1
273 198 1
273 200 1
273 221 1
273 230 1
273 240 1
273 245 1
273 259 1
273 262 1
273 265 1
273 269 1
273 270 1
273 280 1
273 285 1
273 286 1
273 291 1
273 294 1
273 297 1
274 3 1
274 14 1
274 35 1
274 46 1
274 47 1
274 51 1
274 54 1
274 65 1
274 68 1
274 74 1
274 77 1
274 85 1
274 89 1
274 94 1
274 99 1
274 105 1
274 110 1
274 111 1
274 116 1
274 121 1
274 122 1
274 123 1
274 126 1
274 129 1
274 141 1
274 143 1
274 144 1
274 145 1
274 148 1
274 154 1
274 156 1
274 178 1
274 179 1
274 191 1
274 219 1
274 220 1
274 226 1
274 232 1
274 233 1
274 234 1
274 238 1
274 249 1
274 260 1
274 263 1
274 264 1
274 265 1
274 272 1
274 275 1
274 277 1
274 278 1
274 285 1
274 293 1
274 300 1
275 4 1
275 5 1
275 18 1
275 26 1
275 28 1
275 29 1
275 30 1
275 32 1
275 33 1
275 47 1
275 53 1
275 59 1
275 60 1
275 64 1
275 67 1
275 71 1
275 77 1
275 78 1
275 83 1
275 84 1
275 91 1
275 94 1
275 103 1
275 108 1
275 110 1
275 112 1
275 113 1
275 121 1
275 123 1
275 137 1
275 138 1
275 141 1
275 142 1
275 144 1
275 146 1
275 149 1
275 150 1
275 153 1
275 154 1
275 160 1
275 167 1
275 171 1
275 176 1
275 177 1
275 186 1
275 190 1
275 195 1
275 206 1
275 214 1
275 218 1
275 232 1
275 245 1
275 249 1
275 253 1
275 254 1
275 256 1
275 269 1
275 271 1
275 274 1
275 282 1
275 283 1
275 285 1
275 292 1
275 299 1
276 1 1
276 9 1
276 18 1
276 20 1
276 23 1
276 37 1
276 38 1
276 39 1
276 43 1
276 50 1
276 59 1
276 63 1
276 70 1
276 82 1
276 86 1
276 91 1
276 96 1
276 98 1
276 101 1
276 102 1
276 115 1
276 124 1
276 126 1
276 130 1
276 138 1
276 141 1
276 143 1
276 150 1
276 151 1
276 159 1
276 160 1
276 166 1
276 168 1
276 169 1
276 171 1
276 172 1
276 181 1
276 184 1
276 189 1
276 196 1
276 216 1
276 230 1
276 233 1
276 249 1
276 252 1
276 256 1
276 269 1
276 270 1
276 278 1
276 279 1
276 284 1
276 286 1
276 287 1
276 293 1
276 300 1
277 7 1
277 8 1
277 10 1
277 14 1
277 18 1
277 19 1
277 22 1
277 35 1
277 36 1
277 38 1
277 45 1
277 52 1
277 56 1
277 63 1
277 65 1
277 78 1
277 93 1
277 101 1
277 104 1
277 106 1
277 108 1
277 134 1
277 140 1
277 141 1
277 151 1
277 159 1
277 170 1
277 177 1
277 179 1
277 191 1
277 195 1
277 199 1
277 203 1
277 209 1
277 220 1
277 223 1
277 235 1
277 237 1
277 241 1
277 251 1
277 252 1
277 256 1
277 257 1
277 260 1
277 264 1
277 267 1
277 269 1
277 272 1
277 274 1
277 284 1
277 291 1
277 292 1
277 294 1
277 295 1
277 296 1
278 1 1
278 11 1
278 12 1
278 14 1
278 17 1
278 18 1
278 20 1
278 22 1
278 26 1
278 28 1
278 32 1
278 41 1
278 47 1
278 62 1
278 79 1
278 80 1
278 86 1
278 99 1
278 101 1
278 103 1
278 105 1
278 111 1
278 117 1
278 121 1
278 136 1
278 137 1
278 141 1
278 156 1
278 162 1
278 165 1
278 169 1
278 176 1
278 178 1
278 179 1
278 180 1
278 185 1
278 192 1
278 193 1
278 195 1
278 196 1
278 197 1
278 199 1
278 200 1
278 203 1
278 205 1
278 208 1
278 213 1
278 219 1
278 220 1
278 224 1
278 226 1
278 229 1
278 230 1
278 234 1
278 242 1
278 248 1
278 253 1
278 258 1
278 261 1
278 274 1
278 276 1
278 279 1
278 280 1
278 294 1
278 298 1
278 299 1
279 3 1
279 5 1
279 7 1
279 13 1
279 17 1
279 22 1
279 23 1
279 33 1
279 38 1
279 40 1
279 50 1
279 57 1
279 61 1
279 64 1
279 76 1
279 87 1
279 89 1
279 101 1
279 105 1
279 113 1
279 114 1
279 116 1
279 122 1
279 131 1
279 141 1
279 146 1
279 158 1
279 174 1
279 175 1
279 187 1
279 189 1
279 193 1
279 197 1
279 201 1
279 213 1
279 217 1
279 221 1
279 226 1
279 227 1
279 234 1
279 235 1
279 236 1
279 239 1
279 241 1
279 247 1
279 255 1
279 257 1
279 260 1
279 270 1
279 276 1
279 278 1
279 280 1
279 282 1
279 283 1
279 287 1
279 289 1
279 297 1
279 299 1
280 3 1
280 8 1
280 15 1
280 17 1
280 26 1
280 33 1
280 44 1
280 45 1
280 52 1
280 53 1
280 57 1
280 58 1
280 75 1
280 84 1
280 86 1
280 88 1
280 92 1
280 97 1
280 98 1
280 108 1
280 112 1
280 113 1
280 115 1
280 118 1
280 124 1
280 134 1
280 141 1
280 148 1
280 167 1
280 169 1
280 173 1
280 186 1
280 187 1
280 190 1
280 193 1
280 202 1
280 203 1
280 204 1
280 213 1
280 216 1
280 218 1
280 219 1
280 220 1
280 233 1
280 251 1
280 256 1
280 273 1
280 278 1
280 279 1
280 281 1
280 294 1
280 297 1
281 5 1
281 9 1
281 14 1
281 35 1
281 38 1
281 54 1
281 55 1
281 57 1
281 66 1
281 67 1
281 69 1
281 76 1
281 77 1
281 83 1
281 89 1
281 101 1
281 102 1
281 110 1
281 114 1
281 115 1
281 135 1
281 141 1
281 157 1
281 160 1
281 163 1
281 169 1
281 174 1
281 185 1
281 188 1
281 192 1
281 197 1
281 201 1
281 212 1
281 220 1
281 228 1
281 229 1
281 230 1
281 233 1
281 237 1
281 241 1
281 247 1
281 259 1
281 266 1
281 280 1
281 285 1
281 291 1
281 295 1
282 9 1
282 16 1
282 29 1
282 30 1
282 31 1
282 33 1
282 34 1
282 37 1
282 41 1
282 42 1
282 52 1
282 66 1
282 80 1
282 84 1
282 86 1
282 87 1
282 89 1
282 92 1
282 97 1
282 98 1
282 112 1
282 114 1
282 116 1
282 120 1
282 127 1
282 129 1
282 135 1
282 138 1
282 140 1
282 141 1
282 143 1
282 149 1
282 154 1
282 158 1
282 159 1
282 161 1
282 162 1
282 169 1
282 173 1
282 176 1
282 179 1
282 180 1
282 187 1
282 188 1
282 197 1
282 198 1
282 201 1
282 203 1
282 205 1
282 206 1
282 207 1
282 208 1
282 227 1
282 228 1
282 232 1
282 235 1
282 236 1
282 254 1
282 257 1
282 258 1
282 266 1
282 269 1
282 270 1
282 275 1
282 279 1
282 288 1
282 289 1
282 297 1
282 298 1
283 4 1
283 6 1
283 7 1
283 9 1
283 18 1
283 21 1
283 24 1
283 27 1
283 29 1
283 30 1
283 39 1
283 43 1
283 44 1
283 46 1
283 51 1
283 65 1
283 67 1
283 70 1
283 71 1
283 73 1
283 74 1
283 85 1
283 87 1
283 91 1
283 93 1
283 95 1
283 96 1
283 113 1
283 116 1
283 121 1
283 122 1
283 141 1
283 155 1
283 159 1
283 165 1
283 168 1
283 177 1
283 185 1
283 201 1
283 203 1
283 208 1
283 209 1
283 214 1
283 216 1
283 220 1
283 221 1
283 225 1
283 236 1
283 241 1
283 245 1
283 251 1
283 256 1
283 263 1
283 265 1
283 268 1
283 270 1
283 271 1
283 272 1
283 275 1
283 279 1
283 296 1
283 297 1
283 298 1
283 299 1
284 10 1
284 15 1
284 31 1
284 37 1
284 42 1
284 43 1
284 45 1
284 52 1
284 63 1
284 64 1
284 65 1
284 67 1
284 71 1
284 74 1
284 75 1
284 78 1
284 85 1
284 86 1
284 93 1
284 95 1
284 124 1
284 129 1
284 130 1
284 141 1
284 142 1
284 147 1
284 149 1
284 166 1
284 170 1
284 172 1
284 180 1
284 187 1
284 189 1
284 193 1
284 194 1
284 197 1
284 205 1
284 218 1
284 219 1
284 226 1
284 229 1
284 238 1
284 241 1
284 243 1
284 256 1
284 261 1
284 271 1
284 276 1
284 277 1
284 291 1
284 292 1
284 296 1
284 298 1
284 299 1
285 2 1
285 8 1
285 13 1
285 20 1
285 24 1
285 26 1
285 34 1
285 36 1
285 49 1
285 55 1
285 59 1
285 67 1
285 74 1
285 79 1
285 92 1
285 97 1
285 106 1
285 111 1
285 113 1
285 115 1
285 116 1
285 118 1
285 119 1
285 126 1
285 127 1
285 129 1
285 132 1
285 142 1
285 156 1
285 157 1
285 162 1
285 166 1
285 167 1
285 170 1
285 173 1
285 186 1
285 195 1
285 198 1
285 203 1
285 207 1
285 210 1
285 217 1
285 224 1
285 237 1
285 239 1
285 240 1
285 241 1
285 249 1
285 253 1
285 256 1
285 265 1
285 269 1
285 273 1
285 274 1
285 275 1
285 281 1
285 295 1
285 297 1
286 6 1
286 7 1
286 8 1
286 11 1
286 14 1
286 17 1
286 19 1
286 20 1
286 25 1
286 32 1
286 40 1
286 42 1
286 47 1
286 56 1
286 60 1
286 61 1
286 63 1
286 64 1
286 66 1
286 74 1
286 77 1
286 87 1
286 91 1
286 98 1
286 101 1
286 102 1
286 103 1
286 108 1
286 113 1
286 117 1
286 118 1
286 122 1
286 124 1
286 142 1
286 144 1
286 148 1
286 166 1
286 176 1
286 188 1
286 190 1
286 197 1
286 202 1
286 203 1
286 223 1
286 225 1
286 226 1
286 227 1
286 229 1
286 231 1
286 235 1
286 238 1
286 243 1
286 248 1
286 254 1
286 255 1
286 259 1
286 260 1
286 261 1
286 262 1
286 264 1
286 270 1
286 271 1
286 273 1
286 276 1
286 288 1
286 298 1
287 9 1
287 13 1
287 14 1
287 31 1
287 38 1
287 49 1
287 52 1
287 58 1
287 81 1
287 82 1
287 84 1
287 85 1
287 97 1
287 104 1
287 105 1
287 112 1
287 116 1
287 117 1
287 128 1
287 132 1
287 140 1
287 147 1
287 149 1
287 153 1
287 184 1
287 186 1
287 198 1
287 201 1
287 206 1
287 208 1
287 217 1
287 218 1
287 222 1
287 224 1
287 229 1
287 232 1
287 236 1
287 239 1
287 242 1
287 244 1
287 247 1
287 248 1
287 250 1
287 263 1
287 268 1
287 269 1
287 272 1
287 276 1
287 279 1
287 289 1
287 294 1
287 296 1
288 3 1
288 11 1
288 13 1
288 14 1
288 15 1
288 27 1
288 36 1
288 40 1
288 54 1
288 66 1
288 73 1
288 75 1
288 76 1
288 80 1
288 81 1
288 84 1
288 88 1
288 93 1
288 104 1
288 109 1
288 115 1
288 122 1
288 123 1
288 125 1
288 128 1
288 140 1
288 150 1
288 153 1
288 155 1
288 157 1
288 165 1
288 168 1
288 170 1
288 172 1
288 173 1
288 178 1
288 191 1
288 201 1
288 203 1
288 204 1
288 220 1
288 221 1
288 222 1
288 227 1
288 236 1
288 238 1
288 239 1
288 242 1
288 254 1
288 255 1
288 258 1
288 260 1
288 282 1
288 286 1
288 291 1
288 292 1
288 298 1
289 1 1
289 7 1
289 14 1
289 17 1
289 22 1
289 24 1
289 27 1
289 30 1
289 31 1
289 34 1
289 36 1
289 45 1
289 49 1
289 59 1
289 65 1
289 67 1
289 71 1
289 76 1
289 81 1
289 88 1
289 93 1
289 97 1
289 101 1
289 107 1
289 108 1
289 109 1
289 118 1
289 122 1
289 124 1
289 125 1
289 126 1
289 130 1
289 131 1
289 133 1
289 143 1
289 144 1
289 148 1
289 151 1
289 156 1
289 159 1
289 161 1
289 166 1
289 172 1
289 173 1
289 178 1
289 184 1
289 193 1
289 201 1
289 208 1
289 210 1
289 214 1
289 228 1
289 230 1
289 231 1
289 232 1
289 235 1
289 237 1
289 251 1
289 253 1
289 254 1
289 255 1
289 263 1
289 279 1
289 282 1
289 287 1
289 298 1
289 299 1
289 300 1
290 2 1
290 5 1
290 6 1
290 28 1
290 34 1
290 35 1
290 42 1
290 43 1
290 52 1
290 53 1
290 59 1
290 61 1
290 62 1
290 81 1
290 82 1
290 87 1
290 109 1
290 118 1
290 125 1
290 136 1
290 138 1
290 145 1
290 149 1
290 151 1
290 159 1
290 164 1
290 167 1
290 172 1
290 181 1
290 182 1
290 187 1
290 192 1
290 199 1
290 203 1
290 206 1
290 214 1
290 216 1
290 217 1
290 218 1
290 222 1
290 224 1
290 225 1
290 238 1
290 239 1
290 241 1
290 245 1
290 252 1
290 293 1
291 1 1
291 2 1
291 4 1
291 17 1
291 20 1
291 26 1
291 27 1
291 32 1
291 43 1
291 44 1
291 51 1
291 52 1
291 55 1
291 57 1
291 61 1
291 67 1
291 71 1
291 83 1
291 88 1
291 90 1
291 99 1
291 101 1
291 115 1
291 116 1
291 119 1
291 124 1
291 129 1
291 133 1
291 136 1
291 148 1
291 150 1
291 153 1
291 155 1
291 159 1
291 160 1
291 169 1
291 170 1
291 178 1
291 180 1
291 181 1
291 197 1
291 205 1
291 206 1
291 218 1
291 230 1
291 233 1
291 243 1
291 244 1
291 246 1
291 249 1
291 254 1
291 261 1
291 263 1
291 264 1
291 273 1
291 277 1
291 281 1
291 284 1
291 288 1
291 292 1
291 297 1
291 298 1
292 1 1
292 4 1
292 10 1
292 19 1
292 21 1
292 26 1
292 30 1
292 31 1
292 39 1
292 41 1
292 45 1
292 46 1
292 50 1
292 53 1
292 55 1
292 57 1
292 61 1
292 62 1
292 66 1
292 79 1
292 83 1
292 86 1
292 89 1
292 90 1
292 101 1
292 103 1
292 105 1
292 106 1
292 108 1
292 119 1
292 135 1
292 138 1
292 154 1
292 155 1
292 160 1
292 162 1
292 164 1
292 165 1
292 168 1
292 175 1
292 180 1
292 182 1
292 188 1
292 212 1
292 231 1
292 236 1
292 237 1
292 239 1
292 242 1
292 243 1
292 244 1
292 247 1
292 253 1
292 256 1
292 259 1
292 261 1
292 264 1
292 266 1
292 267 1
292 272 1
292 275 1
292 277 1
292 284 1
292 288 1
292 291 1
292 296 1
292 297 1
292 300 1
293 10 1
293 18 1
293 23 1
293 29 1
293 32 1
293 34 1
293 42 1
293 44 1
293 46 1
293 49 1
293 58 1
293 63 1
293 64 1
293 66 1
293 84 1
293 86 1
293 94 1
293 98 1
293 100 1
293 104 1
293 107 1
293 118 1
293 119 1
293 128 1
293 132 1
293 134 1
293 157 1
293 158 1
293 159 1
293 163 1
293 169 1
293 172 1
293 174 1
293 177 1
293 182 1
293 187 1
293 188 1
293 191 1
293 193 1
293 200 1
293 201 1
293 206 1
293 207 1
293 209 1
293 210 1
293 211 1
293 216 1
293 225 1
293 228 1
293 229 1
293 238 1
293 240 1
293 241 1
293 248 1
293 250 1
293 264 1
293 267 1
293 269 1
293 270 1
293 274 1
293 276 1
293 290 1
294 4 1
294 5 1
294 11 1
294 15 1
294 18 1
294 21 1
294 25 1
294 32 1
294 36 1
294 40 1
294 42 1
294 45 1
294 51 1
294 53 1
294 54 1
294 57 1
294 60 1
294 61 1
294 62 1
294 70 1
294 71 1
294 78 1
294 79 1
294 81 1
294 82 1
294 87 1
294 97 1
294 99 1
294 106 1
294 109 1
294 113 1
294 114 1
294 118 1
294 130 1
294 134 1
294 142 1
294 147 1
294 153 1
294 154 1
294 155 1
294 174 1
294 181 1
294 187 1
294 190 1
294 198 1
294 199 1
294 202 1
294 213 1
294 214 1
294 217 1
294 225 1
294 228 1
294 229 1
294 232 1
294 238 1
294 239 1
294 241 1
294 243 1
294 244 1
294 250 1
294 252 1
294 273 1
294 277 1
294 278 1
294 280 1
294 287 1
294 295 1
294 298 1
295 4 1
295 6 1
295 8 1
295 10 1
295 11 1
295 13 1
295 14 1
295 24 1
295 25 1
295 26 1
295 40 1
295 42 1
295 44 1
295 46 1
295 50 1
295 55 1
295 65 1
295 75 1
295 77 1
295 79 1
295 96 1
295 97 1
295 102 1
295 104 1
295 117 1
295 120 1
295 127 1
295 129 1
295 143 1
295 152 1
295 156 1
295 160 1
295 162 1
295 164 1
295 166 1
295 168 1
295 170 1
295 171 1
295 172 1
295 178 1
295 181 1
295 183 1
295 190 1
295 195 1
295 201 1
295 205 1
295 210 1
295 216 1
295 220 1
295 221 1
295 238 1
295 247 1
295 248 1
295 251 1
295 252 1
295 253 1
295 255 1
295 270 1
295 277 1
295 281 1
295 285 1
295 294 1
296 9 1
296 11 1
296 13 1
296 24 1
296 25 1
296 33 1
296 34 1
296 43 1
296 52 1
296 54 1
296 58 1
296 63 1
296 66 1
296 67 1
296 72 1
296 81 1
296 88 1
296 91 1
296 104 1
296 107 1
296 111 1
296 124 1
296 127 1
296 128 1
296 131 1
296 133 1
296 144 1
296 147 1
296 148 1
296 151 1
296 156 1
296 157 1
296 173 1
296 190 1
296 194 1
296 197 1
296 200 1
296 215 1
296 226 1
296 230 1
296 241 1
296 245 1
296 252 1
296 253 1
296 256 1
296 260 1
296 271 1
296 277 1
296 283 1
296 284 1
296 287 1
296 292 1
297 6 1
297 7 1
297 13 1
297 21 1
297 23 1
297 24 1
297 28 1
297 30 1
297 34 1
297 44 1
297 46 1
297 51 1
297 64 1
297 68 1
297 83 1
297 92 1
297 99 1
297 102 1
297 104 1
297 107 1
297 113 1
297 114 1
297 117 1
297 118 1
297 119 1
297 122 1
297 126 1
297 129 1
297 134 1
297 135 1
297 139 1
297 142 1
297 148 1
297 150 1
297 166 1
297 174 1
297 181 1
297 185 1
297 193 1
297 197 1
297 205 1
297 218 1
297 219 1
297 242 1
297 260 1
297 270 1
297 272 1
297 273 1
297 279 1
297 280 1
297 282 1
297 283 1
297 285 1
297 291 1
297 292 1
298 5 1
298 8 1
298 13 1
298 20 1
298 24 1
298 26 1
298 32 1
298 38 1
298 49 1
298 55 1
298 57 1
298 59 1
298 62 1
298 65 1
298 69 1
298 71 1
298 73 1
298 86 1
298 88 1
298 89 1
298 90 1
298 91 1
298 94 1
298 100 1
298 106 1
298 108 1
298 109 1
298 113 1
298 119 1
298 131 1
298 132 1
298 137 1
298 139 1
298 148 1
298 152 1
298 168 1
298 169 1
298 171 1
298 178 1
298 183 1
298 193 1
298 201 1
298 206 1
298 208 1
298 210 1
298 217 1
298 222 1
298 234 1
298 236 1
298 253 1
298 255 1
298 261 1
298 271 1
298 272 1
298 278 1
298 282 1
298 283 1
298 284 1
298 286 1
298 288 1
298 289 1
298 291 1
298 294 1
299 2 1
299 18 1
299 26 1
299 27 1
299 29 1
299 32 1
299 33 1
299 37 1
299 39 1
299 40 1
299 41 1
299 44 1
299 47 1
299 61 1
299 69 1
299 71 1
299 75 1
299 78 1
299 79 1
299 86 1
299 88 1
299 93 1
299 98 1
299 101 1
299 102 1
299 108 1
299 109 1
299 110 1
299 123 1
299 128 1
299 131 1
299 133 1
299 134 1
299 136 1
299 139 1
299 150 1
299 154 1
299 156 1
299 157 1
299 161 1
299 162 1
299 164 1
299 171 1
299 172 1
299 177 1
299 180 1
299 181 1
299 182 1
299 189 1
299 190 1
299 197 1
299 213 1
299 216 1
299 220 1
299 224 1
299 233 1
299 234 1
299 235 1
299 241 1
299 243 1
299 247 1
299 250 1
299 253 1
299 254 1
299 255 1
299 259 1
299 272 1
299 275 1
299 278 1
299 279 1
299 283 1
299 284 1
299 289 1
300 6 1
300 20 1
300 21 1
300 23 1
300 25 1
300 26 1
300 28 1
300 40 1
300 49 1
300 50 1
300 51 1
300 57 1
300 59 1
300 63 1
300 77 1
300 82 1
300 84 1
300 88 1
300 89 1
300 95 1
300 103 1
300 108 1
300 109 1
300 116 1
300 117 1
300 127 1
300 140 1
300 160 1
300 162 1
300 166 1
300 168 1
300 169 1
300 177 1
300 202 1
300 210 1
300 213 1
300 215 1
300 219 1
300 221 1
300 228 1
300 231 1
300 233 1
300 237 1
300 244 1
300 245 1
300 252 1
300 255 1
300 259 1
300 263 1
300 264 1
300 274 1
300 276 1
300 289 1
300 292 1
