%%MatrixMarket matrix coordinate integer general
%
100 100 3970
1 6 1
1 8 1
1 10 1
1 15 1
1 18 1
1 19 1
1 24 1
1 28 1
1 34 1
1 38 1
1 40 1
1 41 1
1 42 1
1 43 1
1 45 1
1 46 1
1 48 1
1 50 1
1 52 1
1 55 1
1 57 1
1 60 1
1 61 1
1 62 1
1 66 1
1 69 1
1 71 1
1 75 1
1 78 1
1 79 1
1 80 1
1 81 1
1 82 1
1 84 1
1 87 1
1 91 1
1 94 1
1 95 1
1 97 1
1 100 1
2 3 1
2 4 1
2 6 1
2 12 1
2 14 1
2 15 1
2 16 1
2 18 1
2 19 1
2 23 1
2 25 1
2 27 1
2 30 1
2 37 1
2 38 1
2 39 1
2 45 1
2 46 1
2 48 1
2 50 1
2 54 1
2 58 1
2 59 1
2 62 1
2 64 1
2 66 1
2 68 1
2 70 1
2 74 1
2 75 1
2 78 1
2 79 1
2 88 1
2 90 1
2 91 1
2 93 1
2 95 1
2 98 1
2 100 1
3 2 1
3 5 1
3 6 1
3 10 1
3 12 1
3 13 1
3 14 1
3 18 1
3 20 1
3 25 1
3 27 1
3 28 1
3 30 1
3 33 1
3 35 1
3 36 1
3 39 1
3 40 1
3 41 1
3 42 1
3 47 1
3 49 1
3 51 1
3 52 1
3 55 1
3 59 1
3 60 1
3 64 1
3 65 1
3 72 1
3 73 1
3 74 1
3 76 1
3 78 1
3 79 1
3 80 1
3 81 1
3 86 1
3 89 1
3 94 1
3 96 1
3 97 1
3 98 1
4 2 1
4 5 1
4 6 1
4 13 1
4 15 1
4 19 1
4 22 1
4 25 1
4 26 1
4 27 1
4 30 1
4 31 1
4 32 1
4 35 1
4 43 1
4 44 1
4 52 1
4 56 1
4 62 1
4 64 1
4 68 1
4 74 1
4 75 1
4 79 1
4 81 1
4 84 1
4 86 1
4 89 1
4 91 1
4 96 1
4 98 1
5 3 1
5 4 1
5 9 1
5 16 1
5 17 1
5 19 1
5 27 1
5 34 1
5 35 1
5 36 1
5 37 1
5 38 1
5 43 1
5 52 1
5 55 1
5 58 1
5 61 1
5 62 1
5 63 1
5 64 1
5 66 1
5 68 1
5 69 1
5 70 1
5 71 1
5 72 1
5 78 1
5 87 1
5 88 1
5 92 1
5 94 1
5 95 1
6 1 1
6 2 1
6 3 1
6 4 1
6 10 1
6 11 1
6 13 1
6 14 1
6 17 1
6 18 1
6 19 1
6 23 1
6 25 1
6 26 1
6 30 1
6 31 1
6 32 1
6 35 1
6 47 1
6 48 1
6 50 1
6 53 1
6 55 1
6 56 1
6 60 1
6 61 1
6 63 1
6 65 1
6 66 1
6 68 1
6 70 1
6 71 1
6 75 1
6 76 1
6 80 1
6 85 1
6 87 1
6 88 1
6 92 1
6 93 1
6 94 1
6 96 1
7 8 1
7 9 1
7 12 1
7 13 1
7 14 1
7 15 1
7 16 1
7 17 1
7 19 1
7 23 1
7 24 1
7 27 1
7 28 1
7 29 1
7 30 1
7 31 1
7 32 1
7 33 1
7 34 1
7 35 1
7 37 1
7 38 1
7 40 1
7 41 1
7 42 1
7 43 1
7 44 1
7 47 1
7 48 1
7 51 1
7 55 1
7 59 1
7 61 1
7 63 1
7 67 1
7 69 1
7 70 1
7 71 1
7 73 1
7 83 1
7 85 1
7 86 1
7 87 1
7 91 1
7 96 1
7 99 1
8 1 1
8 7 1
8 12 1
8 13 1
8 15 1
8 18 1
8 19 1
8 21 1
8 24 1
8 36 1
8 37 1
8 41 1
8 47 1
8 49 1
8 51 1
8 55 1
8 56 1
8 60 1
8 61 1
8 64 1
8 65 1
8 68 1
8 70 1
8 73 1
8 78 1
8 81 1
8 82 1
8 94 1
8 95 1
8 96 1
9 5 1
9 7 1
9 11 1
9 13 1
9 15 1
9 19 1
9 22 1
9 27 1
9 30 1
9 31 1
9 35 1
9 36 1
9 39 1
9 41 1
9 42 1
9 45 1
9 48 1
9 52 1
9 54 1
9 55 1
9 61 1
9 62 1
9 67 1
9 68 1
9 69 1
9 70 1
9 75 1
9 77 1
9 79 1
9 93 1
9 94 1
9 96 1
9 97 1
10 1 1
10 3 1
10 6 1
10 15 1
10 16 1
10 18 1
10 21 1
10 22 1
10 23 1
10 26 1
10 31 1
10 35 1
10 36 1
10 38 1
10 39 1
10 43 1
10 44 1
10 56 1
10 57 1
10 60 1
10 61 1
10 62 1
10 63 1
10 64 1
10 66 1
10 69 1
10 70 1
10 71 1
10 73 1
10 74 1
10 75 1
10 77 1
10 80 1
10 87 1
10 88 1
10 89 1
10 90 1
10 91 1
10 95 1
10 97 1
11 6 1
11 9 1
11 12 1
11 13 1
11 16 1
11 18 1
11 19 1
11 25 1
11 26 1
11 27 1
11 28 1
11 31 1
11 35 1
11 36 1
11 39 1
11 41 1
11 43 1
11 54 1
11 56 1
11 63 1
11 65 1
11 76 1
11 77 1
11 79 1
11 83 1
11 86 1
11 88 1
11 91 1
11 92 1
11 93 1
11 95 1
11 97 1
11 100 1
12 2 1
12 3 1
12 7 1
12 8 1
12 11 1
12 14 1
12 15 1
12 17 1
12 19 1
12 20 1
12 21 1
12 22 1
12 23 1
12 24 1
12 25 1
12 27 1
12 29 1
12 30 1
12 31 1
12 32 1
12 40 1
12 41 1
12 43 1
12 47 1
12 48 1
12 53 1
12 54 1
12 55 1
12 58 1
12 59 1
12 60 1
12 62 1
12 67 1
12 68 1
12 74 1
12 76 1
12 79 1
12 83 1
12 85 1
12 98 1
13 3 1
13 4 1
13 6 1
13 7 1
13 8 1
13 9 1
13 11 1
13 17 1
13 21 1
13 22 1
13 23 1
13 25 1
13 27 1
13 28 1
13 29 1
13 31 1
13 34 1
13 36 1
13 38 1
13 41 1
13 42 1
13 43 1
13 44 1
13 47 1
13 53 1
13 55 1
13 57 1
13 59 1
13 60 1
13 61 1
13 62 1
13 64 1
13 66 1
13 68 1
13 70 1
13 71 1
13 73 1
13 76 1
13 81 1
13 84 1
13 85 1
13 87 1
13 88 1
13 90 1
13 91 1
13 95 1
13 97 1
13 100 1
14 2 1
14 3 1
14 6 1
14 7 1
14 12 1
14 17 1
14 18 1
14 19 1
14 20 1
14 23 1
14 25 1
14 27 1
14 28 1
14 29 1
14 30 1
14 31 1
14 32 1
14 33 1
14 35 1
14 37 1
14 38 1
14 41 1
14 42 1
14 44 1
14 45 1
14 46 1
14 47 1
14 49 1
14 52 1
14 55 1
14 60 1
14 63 1
14 66 1
14 67 1
14 70 1
14 74 1
14 77 1
14 78 1
14 79 1
14 80 1
14 83 1
14 84 1
14 86 1
14 88 1
14 92 1
14 93 1
14 94 1
14 95 1
14 96 1
14 97 1
15 1 1
15 2 1
15 4 1
15 7 1
15 8 1
15 9 1
15 10 1
15 12 1
15 16 1
15 20 1
15 21 1
15 25 1
15 32 1
15 33 1
15 36 1
15 39 1
15 53 1
15 59 1
15 60 1
15 62 1
15 64 1
15 65 1
15 69 1
15 72 1
15 74 1
15 76 1
15 78 1
15 81 1
15 83 1
15 90 1
15 91 1
15 95 1
15 96 1
16 2 1
16 5 1
16 7 1
16 10 1
16 11 1
16 15 1
16 20 1
16 21 1
16 33 1
16 36 1
16 40 1
16 41 1
16 43 1
16 44 1
16 45 1
16 50 1
16 51 1
16 52 1
16 55 1
16 57 1
16 61 1
16 64 1
16 66 1
16 72 1
16 75 1
16 77 1
16 79 1
16 81 1
16 87 1
16 89 1
16 94 1
16 95 1
16 97 1
16 99 1
17 5 1
17 6 1
17 7 1
17 12 1
17 13 1
17 14 1
17 19 1
17 24 1
17 26 1
17 28 1
17 31 1
17 33 1
17 37 1
17 38 1
17 42 1
17 43 1
17 46 1
17 47 1
17 48 1
17 49 1
17 51 1
17 57 1
17 58 1
17 59 1
17 61 1
17 63 1
17 65 1
17 69 1
17 73 1
17 75 1
17 76 1
17 77 1
17 78 1
17 80 1
17 82 1
17 86 1
17 88 1
17 90 1
17 92 1
17 95 1
17 97 1
17 98 1
18 1 1
18 2 1
18 3 1
18 6 1
18 8 1
18 10 1
18 11 1
18 14 1
18 24 1
18 30 1
18 32 1
18 38 1
18 41 1
18 43 1
18 47 1
18 49 1
18 50 1
18 51 1
18 55 1
18 58 1
18 62 1
18 63 1
18 64 1
18 67 1
18 69 1
18 70 1
18 71 1
18 72 1
18 73 1
18 75 1
18 76 1
18 79 1
18 84 1
18 86 1
18 87 1
18 91 1
18 93 1
18 94 1
18 95 1
18 98 1
19 1 1
19 2 1
19 4 1
19 5 1
19 6 1
19 7 1
19 8 1
19 9 1
19 11 1
19 12 1
19 14 1
19 17 1
19 24 1
19 26 1
19 27 1
19 30 1
19 35 1
19 37 1
19 38 1
19 39 1
19 42 1
19 44 1
19 47 1
19 50 1
19 51 1
19 55 1
19 56 1
19 60 1
19 69 1
19 76 1
19 77 1
19 81 1
19 83 1
19 84 1
19 85 1
19 88 1
19 91 1
19 93 1
19 95 1
19 97 1
19 100 1
20 3 1
20 12 1
20 14 1
20 15 1
20 16 1
20 22 1
20 24 1
20 26 1
20 27 1
20 28 1
20 29 1
20 31 1
20 33 1
20 34 1
20 35 1
20 46 1
20 49 1
20 51 1
20 52 1
20 53 1
20 58 1
20 59 1
20 60 1
20 64 1
20 65 1
20 69 1
20 70 1
20 73 1
20 74 1
20 75 1
20 76 1
20 79 1
20 80 1
20 81 1
20 83 1
20 84 1
20 86 1
20 87 1
20 93 1
20 95 1
20 96 1
21 8 1
21 10 1
21 12 1
21 13 1
21 15 1
21 16 1
21 22 1
21 28 1
21 34 1
21 35 1
21 36 1
21 39 1
21 40 1
21 46 1
21 47 1
21 48 1
21 49 1
21 50 1
21 51 1
21 53 1
21 55 1
21 56 1
21 63 1
21 65 1
21 66 1
21 69 1
21 72 1
21 76 1
21 79 1
21 81 1
21 82 1
21 88 1
21 92 1
21 94 1
21 96 1
21 98 1
21 100 1
22 4 1
22 9 1
22 10 1
22 12 1
22 13 1
22 20 1
22 21 1
22 24 1
22 25 1
22 26 1
22 27 1
22 28 1
22 30 1
22 31 1
22 33 1
22 35 1
22 39 1
22 45 1
22 46 1
22 47 1
22 50 1
22 55 1
22 56 1
22 58 1
22 60 1
22 62 1
22 63 1
22 64 1
22 65 1
22 67 1
22 68 1
22 71 1
22 73 1
22 75 1
22 76 1
22 79 1
22 81 1
22 84 1
22 85 1
22 88 1
22 89 1
22 92 1
22 93 1
22 94 1
22 95 1
22 97 1
22 99 1
23 2 1
23 6 1
23 7 1
23 10 1
23 12 1
23 13 1
23 14 1
23 24 1
23 28 1
23 32 1
23 33 1
23 35 1
23 40 1
23 41 1
23 42 1
23 45 1
23 48 1
23 51 1
23 56 1
23 57 1
23 62 1
23 64 1
23 67 1
23 68 1
23 71 1
23 73 1
23 75 1
23 76 1
23 79 1
23 80 1
23 81 1
23 82 1
23 85 1
23 87 1
23 88 1
23 89 1
23 90 1
23 91 1
23 96 1
24 1 1
24 7 1
24 8 1
24 12 1
24 17 1
24 18 1
24 19 1
24 20 1
24 22 1
24 23 1
24 28 1
24 29 1
24 32 1
24 35 1
24 37 1
24 39 1
24 41 1
24 43 1
24 46 1
24 47 1
24 48 1
24 50 1
24 52 1
24 53 1
24 54 1
24 57 1
24 58 1
24 61 1
24 62 1
24 68 1
24 69 1
24 71 1
24 76 1
24 77 1
24 86 1
24 89 1
24 92 1
24 96 1
24 97 1
24 98 1
25 2 1
25 3 1
25 4 1
25 6 1
25 11 1
25 12 1
25 13 1
25 14 1
25 15 1
25 22 1
25 31 1
25 33 1
25 35 1
25 43 1
25 44 1
25 46 1
25 50 1
25 51 1
25 57 1
25 59 1
25 64 1
25 67 1
25 68 1
25 72 1
25 73 1
25 74 1
25 75 1
25 76 1
25 78 1
25 82 1
25 89 1
25 91 1
25 92 1
25 95 1
25 96 1
25 97 1
25 99 1
25 100 1
26 4 1
26 6 1
26 10 1
26 11 1
26 17 1
26 19 1
26 20 1
26 22 1
26 27 1
26 28 1
26 29 1
26 31 1
26 32 1
26 33 1
26 34 1
26 35 1
26 36 1
26 38 1
26 39 1
26 43 1
26 48 1
26 49 1
26 51 1
26 52 1
26 53 1
26 56 1
26 58 1
26 59 1
26 60 1
26 61 1
26 63 1
26 64 1
26 65 1
26 68 1
26 69 1
26 74 1
26 79 1
26 81 1
26 85 1
26 91 1
26 92 1
26 93 1
26 98 1
27 2 1
27 3 1
27 4 1
27 5 1
27 7 1
27 9 1
27 11 1
27 12 1
27 13 1
27 14 1
27 19 1
27 20 1
27 22 1
27 26 1
27 29 1
27 30 1
27 31 1
27 32 1
27 33 1
27 35 1
27 36 1
27 37 1
27 38 1
27 40 1
27 44 1
27 46 1
27 51 1
27 52 1
27 57 1
27 58 1
27 65 1
27 66 1
27 67 1
27 68 1
27 72 1
27 73 1
27 74 1
27 75 1
27 77 1
27 78 1
27 80 1
27 82 1
27 83 1
27 84 1
27 87 1
27 88 1
27 89 1
27 90 1
27 93 1
27 96 1
27 100 1
28 1 1
28 3 1
28 7 1
28 11 1
28 13 1
28 14 1
28 17 1
28 20 1
28 21 1
28 22 1
28 23 1
28 24 1
28 26 1
28 29 1
28 37 1
28 38 1
28 43 1
28 44 1
28 49 1
28 50 1
28 51 1
28 52 1
28 53 1
28 56 1
28 58 1
28 63 1
28 65 1
28 66 1
28 67 1
28 68 1
28 73 1
28 79 1
28 87 1
28 89 1
28 90 1
28 91 1
28 98 1
28 100 1
29 7 1
29 12 1
29 13 1
29 14 1
29 20 1
29 24 1
29 26 1
29 27 1
29 28 1
29 32 1
29 35 1
29 38 1
29 39 1
29 40 1
29 41 1
29 48 1
29 49 1
29 50 1
29 51 1
29 52 1
29 53 1
29 54 1
29 58 1
29 59 1
29 60 1
29 62 1
29 63 1
29 66 1
29 68 1
29 69 1
29 72 1
29 73 1
29 81 1
29 82 1
29 90 1
29 93 1
29 98 1
29 99 1
29 100 1
30 2 1
30 3 1
30 4 1
30 6 1
30 7 1
30 9 1
30 12 1
30 14 1
30 18 1
30 19 1
30 22 1
30 27 1
30 33 1
30 36 1
30 43 1
30 45 1
30 46 1
30 47 1
30 48 1
30 49 1
30 51 1
30 52 1
30 56 1
30 57 1
30 63 1
30 68 1
30 69 1
30 75 1
30 77 1
30 78 1
30 79 1
30 80 1
30 81 1
30 84 1
30 85 1
30 88 1
30 89 1
30 91 1
30 92 1
30 93 1
30 95 1
30 96 1
30 98 1
30 100 1
31 4 1
31 6 1
31 7 1
31 9 1
31 10 1
31 11 1
31 12 1
31 13 1
31 14 1
31 17 1
31 20 1
31 22 1
31 25 1
31 26 1
31 27 1
31 35 1
31 37 1
31 38 1
31 42 1
31 44 1
31 45 1
31 47 1
31 49 1
31 51 1
31 53 1
31 55 1
31 60 1
31 63 1
31 67 1
31 70 1
31 71 1
31 73 1
31 79 1
31 80 1
31 81 1
31 82 1
31 88 1
31 89 1
31 91 1
31 92 1
31 95 1
31 98 1
31 99 1
31 100 1
32 4 1
32 6 1
32 7 1
32 12 1
32 14 1
32 15 1
32 18 1
32 23 1
32 24 1
32 26 1
32 27 1
32 29 1
32 33 1
32 34 1
32 36 1
32 38 1
32 40 1
32 43 1
32 44 1
32 53 1
32 56 1
32 66 1
32 73 1
32 74 1
32 81 1
32 84 1
32 85 1
32 86 1
32 87 1
32 88 1
32 90 1
32 95 1
32 97 1
32 99 1
33 3 1
33 7 1
33 14 1
33 15 1
33 16 1
33 17 1
33 20 1
33 22 1
33 23 1
33 25 1
33 26 1
33 27 1
33 30 1
33 32 1
33 34 1
33 36 1
33 40 1
33 41 1
33 46 1
33 51 1
33 53 1
33 54 1
33 55 1
33 57 1
33 58 1
33 59 1
33 62 1
33 63 1
33 64 1
33 67 1
33 68 1
33 71 1
33 76 1
33 79 1
33 80 1
33 87 1
33 88 1
33 89 1
33 96 1
33 98 1
33 99 1
34 1 1
34 5 1
34 7 1
34 13 1
34 20 1
34 21 1
34 26 1
34 32 1
34 33 1
34 36 1
34 37 1
34 40 1
34 43 1
34 44 1
34 45 1
34 46 1
34 48 1
34 49 1
34 52 1
34 53 1
34 57 1
34 58 1
34 59 1
34 60 1
34 61 1
34 63 1
34 65 1
34 66 1
34 68 1
34 75 1
34 77 1
34 78 1
34 79 1
34 81 1
34 82 1
34 83 1
34 85 1
34 87 1
34 91 1
34 92 1
34 94 1
34 98 1
34 100 1
35 3 1
35 4 1
35 5 1
35 6 1
35 7 1
35 9 1
35 10 1
35 11 1
35 14 1
35 19 1
35 20 1
35 21 1
35 22 1
35 23 1
35 24 1
35 25 1
35 26 1
35 27 1
35 29 1
35 31 1
35 37 1
35 42 1
35 44 1
35 50 1
35 59 1
35 63 1
35 67 1
35 73 1
35 74 1
35 75 1
35 76 1
35 81 1
35 82 1
35 84 1
35 94 1
35 97 1
35 99 1
35 100 1
36 3 1
36 5 1
36 8 1
36 9 1
36 10 1
36 11 1
36 13 1
36 15 1
36 16 1
36 21 1
36 26 1
36 27 1
36 30 1
36 32 1
36 33 1
36 34 1
36 41 1
36 45 1
36 46 1
36 49 1
36 50 1
36 51 1
36 53 1
36 58 1
36 61 1
36 62 1
36 66 1
36 71 1
36 77 1
36 78 1
36 79 1
36 80 1
36 81 1
36 84 1
36 88 1
36 89 1
36 91 1
36 95 1
36 99 1
37 2 1
37 5 1
37 7 1
37 8 1
37 14 1
37 17 1
37 19 1
37 24 1
37 27 1
37 28 1
37 31 1
37 34 1
37 35 1
37 38 1
37 39 1
37 42 1
37 44 1
37 46 1
37 50 1
37 51 1
37 56 1
37 57 1
37 58 1
37 59 1
37 61 1
37 64 1
37 68 1
37 69 1
37 73 1
37 78 1
37 80 1
37 83 1
37 85 1
37 91 1
37 92 1
37 96 1
37 99 1
38 1 1
38 2 1
38 5 1
38 7 1
38 10 1
38 13 1
38 14 1
38 17 1
38 18 1
38 19 1
38 26 1
38 27 1
38 28 1
38 29 1
38 31 1
38 32 1
38 37 1
38 41 1
38 48 1
38 49 1
38 50 1
38 53 1
38 54 1
38 56 1
38 57 1
38 60 1
38 61 1
38 62 1
38 64 1
38 66 1
38 71 1
38 73 1
38 75 1
38 76 1
38 77 1
38 78 1
38 79 1
38 80 1
38 82 1
38 84 1
38 86 1
38 89 1
38 100 1
39 2 1
39 3 1
39 9 1
39 10 1
39 11 1
39 15 1
39 19 1
39 21 1
39 22 1
39 24 1
39 26 1
39 29 1
39 37 1
39 41 1
39 42 1
39 47 1
39 49 1
39 51 1
39 60 1
39 61 1
39 62 1
39 63 1
39 64 1
39 66 1
39 67 1
39 68 1
39 69 1
39 74 1
39 75 1
39 77 1
39 82 1
39 86 1
39 87 1
39 89 1
39 90 1
39 94 1
39 97 1
39 99 1
39 100 1
40 1 1
40 3 1
40 7 1
40 12 1
40 16 1
40 21 1
40 23 1
40 27 1
40 29 1
40 32 1
40 33 1
40 34 1
40 42 1
40 43 1
40 47 1
40 51 1
40 52 1
40 53 1
40 54 1
40 59 1
40 60 1
40 61 1
40 64 1
40 68 1
40 72 1
40 73 1
40 75 1
40 78 1
40 80 1
40 81 1
40 82 1
40 85 1
40 90 1
40 92 1
40 93 1
40 94 1
40 95 1
40 96 1
40 100 1
41 1 1
41 3 1
41 7 1
41 8 1
41 9 1
41 11 1
41 12 1
41 13 1
41 14 1
41 16 1
41 18 1
41 23 1
41 24 1
41 29 1
41 33 1
41 36 1
41 38 1
41 39 1
41 46 1
41 48 1
41 51 1
41 53 1
41 56 1
41 58 1
41 63 1
41 64 1
41 68 1
41 69 1
41 71 1
41 74 1
41 75 1
41 76 1
41 77 1
41 78 1
41 81 1
41 82 1
41 84 1
41 85 1
41 88 1
41 92 1
41 95 1
41 100 1
42 1 1
42 3 1
42 7 1
42 9 1
42 13 1
42 14 1
42 17 1
42 19 1
42 23 1
42 31 1
42 35 1
42 37 1
42 39 1
42 40 1
42 47 1
42 48 1
42 50 1
42 51 1
42 52 1
42 56 1
42 60 1
42 61 1
42 64 1
42 66 1
42 68 1
42 70 1
42 72 1
42 75 1
42 77 1
42 78 1
42 79 1
42 80 1
42 81 1
42 82 1
42 84 1
42 85 1
42 88 1
42 90 1
42 93 1
42 98 1
42 99 1
43 1 1
43 4 1
43 5 1
43 7 1
43 10 1
43 11 1
43 12 1
43 13 1
43 16 1
43 17 1
43 18 1
43 24 1
43 25 1
43 26 1
43 28 1
43 30 1
43 32 1
43 34 1
43 40 1
43 44 1
43 45 1
43 46 1
43 47 1
43 48 1
43 50 1
43 54 1
43 55 1
43 56 1
43 59 1
43 60 1
43 63 1
43 64 1
43 66 1
43 70 1
43 72 1
43 73 1
43 78 1
43 79 1
43 81 1
43 82 1
43 83 1
43 85 1
43 86 1
43 89 1
43 90 1
43 91 1
43 93 1
43 94 1
43 97 1
43 98 1
43 99 1
44 4 1
44 7 1
44 10 1
44 13 1
44 14 1
44 16 1
44 19 1
44 25 1
44 27 1
44 28 1
44 31 1
44 32 1
44 34 1
44 35 1
44 37 1
44 43 1
44 45 1
44 46 1
44 48 1
44 52 1
44 57 1
44 61 1
44 62 1
44 63 1
44 69 1
44 71 1
44 72 1
44 78 1
44 79 1
44 80 1
44 86 1
44 92 1
44 93 1
44 95 1
44 96 1
44 97 1
44 98 1
44 99 1
45 1 1
45 2 1
45 9 1
45 14 1
45 16 1
45 22 1
45 23 1
45 30 1
45 31 1
45 34 1
45 36 1
45 43 1
45 44 1
45 50 1
45 52 1
45 54 1
45 55 1
45 64 1
45 68 1
45 69 1
45 72 1
45 73 1
45 74 1
45 75 1
45 80 1
45 81 1
45 82 1
45 85 1
45 86 1
45 91 1
45 92 1
45 95 1
45 96 1
45 99 1
45 100 1
46 1 1
46 2 1
46 14 1
46 17 1
46 20 1
46 21 1
46 22 1
46 24 1
46 25 1
46 27 1
46 30 1
46 33 1
46 34 1
46 36 1
46 37 1
46 41 1
46 43 1
46 44 1
46 50 1
46 51 1
46 53 1
46 54 1
46 56 1
46 59 1
46 60 1
46 65 1
46 70 1
46 71 1
46 73 1
46 75 1
46 78 1
46 79 1
46 80 1
46 88 1
46 89 1
46 90 1
46 91 1
46 93 1
46 95 1
46 98 1
47 3 1
47 6 1
47 7 1
47 8 1
47 12 1
47 13 1
47 14 1
47 17 1
47 18 1
47 19 1
47 21 1
47 22 1
47 24 1
47 30 1
47 31 1
47 39 1
47 40 1
47 42 1
47 43 1
47 50 1
47 52 1
47 54 1
47 58 1
47 61 1
47 63 1
47 65 1
47 67 1
47 68 1
47 69 1
47 78 1
47 79 1
47 80 1
47 81 1
47 85 1
47 86 1
47 88 1
47 90 1
47 96 1
48 1 1
48 2 1
48 6 1
48 7 1
48 9 1
48 12 1
48 17 1
48 21 1
48 23 1
48 24 1
48 26 1
48 29 1
48 30 1
48 34 1
48 38 1
48 41 1
48 42 1
48 43 1
48 44 1
48 49 1
48 51 1
48 52 1
48 53 1
48 56 1
48 69 1
48 70 1
48 71 1
48 76 1
48 81 1
48 88 1
48 91 1
48 95 1
48 96 1
48 97 1
49 3 1
49 8 1
49 14 1
49 17 1
49 18 1
49 20 1
49 21 1
49 26 1
49 28 1
49 29 1
49 30 1
49 31 1
49 34 1
49 36 1
49 38 1
49 39 1
49 48 1
49 50 1
49 52 1
49 54 1
49 55 1
49 56 1
49 57 1
49 59 1
49 61 1
49 63 1
49 65 1
49 66 1
49 70 1
49 72 1
49 73 1
49 74 1
49 77 1
49 78 1
49 82 1
49 84 1
49 86 1
49 89 1
49 90 1
49 92 1
49 93 1
49 95 1
49 97 1
49 98 1
49 100 1
50 1 1
50 2 1
50 6 1
50 16 1
50 18 1
50 19 1
50 21 1
50 22 1
50 24 1
50 25 1
50 28 1
50 29 1
50 35 1
50 36 1
50 37 1
50 38 1
50 42 1
50 43 1
50 45 1
50 46 1
50 47 1
50 49 1
50 55 1
50 56 1
50 57 1
50 62 1
50 66 1
50 67 1
50 68 1
50 69 1
50 71 1
50 72 1
50 74 1
50 75 1
50 81 1
50 82 1
50 83 1
50 85 1
50 86 1
50 87 1
50 88 1
50 91 1
50 93 1
50 94 1
50 100 1
51 3 1
51 7 1
51 8 1
51 16 1
51 17 1
51 18 1
51 19 1
51 20 1
51 21 1
51 23 1
51 25 1
51 26 1
51 27 1
51 28 1
51 29 1
51 30 1
51 31 1
51 33 1
51 36 1
51 37 1
51 39 1
51 40 1
51 41 1
51 42 1
51 46 1
51 48 1
51 55 1
51 56 1
51 57 1
51 58 1
51 60 1
51 61 1
51 65 1
51 67 1
51 68 1
51 71 1
51 72 1
51 73 1
51 75 1
51 79 1
51 80 1
51 85 1
51 90 1
51 91 1
51 92 1
51 94 1
51 96 1
51 98 1
51 99 1
52 1 1
52 3 1
52 4 1
52 5 1
52 9 1
52 14 1
52 16 1
52 20 1
52 24 1
52 26 1
52 27 1
52 28 1
52 29 1
52 30 1
52 34 1
52 40 1
52 42 1
52 44 1
52 45 1
52 47 1
52 48 1
52 49 1
52 54 1
52 58 1
52 61 1
52 62 1
52 65 1
52 67 1
52 71 1
52 73 1
52 74 1
52 80 1
52 83 1
52 84 1
52 85 1
52 91 1
52 95 1
52 96 1
52 99 1
52 100 1
53 6 1
53 12 1
53 13 1
53 15 1
53 20 1
53 21 1
53 24 1
53 26 1
53 28 1
53 29 1
53 31 1
53 32 1
53 33 1
53 34 1
53 36 1
53 38 1
53 40 1
53 41 1
53 46 1
53 48 1
53 56 1
53 57 1
53 61 1
53 63 1
53 64 1
53 67 1
53 72 1
53 77 1
53 78 1
53 81 1
53 86 1
53 95 1
53 97 1
53 98 1
54 2 1
54 9 1
54 11 1
54 12 1
54 24 1
54 29 1
54 33 1
54 38 1
54 40 1
54 43 1
54 45 1
54 46 1
54 47 1
54 49 1
54 52 1
54 55 1
54 56 1
54 57 1
54 60 1
54 61 1
54 66 1
54 68 1
54 69 1
54 70 1
54 81 1
54 82 1
54 83 1
54 86 1
54 87 1
54 90 1
54 95 1
54 96 1
54 98 1
54 99 1
55 1 1
55 3 1
55 5 1
55 6 1
55 7 1
55 8 1
55 9 1
55 12 1
55 13 1
55 14 1
55 16 1
55 18 1
55 19 1
55 21 1
55 22 1
55 31 1
55 33 1
55 43 1
55 45 1
55 49 1
55 50 1
55 51 1
55 54 1
55 60 1
55 63 1
55 64 1
55 69 1
55 73 1
55 74 1
55 75 1
55 77 1
55 79 1
55 81 1
55 83 1
55 84 1
55 86 1
55 92 1
55 94 1
55 95 1
55 96 1
55 97 1
55 98 1
55 99 1
55 100 1
56 4 1
56 6 1
56 8 1
56 10 1
56 11 1
56 19 1
56 21 1
56 22 1
56 23 1
56 26 1
56 28 1
56 30 1
56 32 1
56 37 1
56 38 1
56 41 1
56 42 1
56 43 1
56 46 1
56 48 1
56 49 1
56 50 1
56 51 1
56 53 1
56 54 1
56 58 1
56 59 1
56 60 1
56 61 1
56 63 1
56 67 1
56 73 1
56 74 1
56 78 1
56 79 1
56 82 1
56 88 1
56 93 1
56 94 1
56 97 1
56 98 1
57 1 1
57 10 1
57 13 1
57 16 1
57 17 1
57 23 1
57 24 1
57 25 1
57 27 1
57 30 1
57 33 1
57 34 1
57 37 1
57 38 1
57 44 1
57 49 1
57 50 1
57 51 1
57 53 1
57 54 1
57 58 1
57 74 1
57 75 1
57 76 1
57 77 1
57 79 1
57 80 1
57 81 1
57 82 1
57 86 1
57 90 1
57 91 1
57 97 1
57 99 1
58 2 1
58 5 1
58 12 1
58 17 1
58 18 1
58 20 1
58 22 1
58 24 1
58 26 1
58 27 1
58 28 1
58 29 1
58 33 1
58 34 1
58 36 1
58 37 1
58 41 1
58 47 1
58 51 1
58 52 1
58 56 1
58 57 1
58 64 1
58 67 1
58 68 1
58 69 1
58 71 1
58 73 1
58 75 1
58 76 1
58 77 1
58 82 1
58 86 1
58 87 1
58 88 1
58 90 1
58 94 1
58 95 1
58 97 1
58 98 1
59 2 1
59 3 1
59 7 1
59 12 1
59 13 1
59 15 1
59 17 1
59 20 1
59 25 1
59 26 1
59 29 1
59 33 1
59 34 1
59 35 1
59 37 1
59 40 1
59 43 1
59 46 1
59 49 1
59 56 1
59 61 1
59 64 1
59 66 1
59 67 1
59 70 1
59 71 1
59 72 1
59 74 1
59 77 1
59 82 1
59 84 1
59 85 1
59 89 1
59 91 1
59 94 1
59 95 1
59 99 1
60 1 1
60 3 1
60 6 1
60 8 1
60 10 1
60 12 1
60 13 1
60 14 1
60 15 1
60 19 1
60 20 1
60 22 1
60 26 1
60 29 1
60 31 1
60 34 1
60 38 1
60 39 1
60 40 1
60 42 1
60 43 1
60 46 1
60 51 1
60 54 1
60 55 1
60 56 1
60 63 1
60 64 1
60 66 1
60 67 1
60 68 1
60 69 1
60 70 1
60 71 1
60 72 1
60 73 1
60 74 1
60 76 1
60 77 1
60 81 1
60 82 1
60 83 1
60 87 1
60 88 1
60 89 1
60 91 1
60 94 1
60 98 1
60 99 1
61 1 1
61 5 1
61 6 1
61 7 1
61 8 1
61 9 1
61 10 1
61 13 1
61 16 1
61 17 1
61 24 1
61 26 1
61 34 1
61 36 1
61 37 1
61 38 1
61 39 1
61 40 1
61 42 1
61 44 1
61 47 1
61 49 1
61 51 1
61 52 1
61 53 1
61 54 1
61 56 1
61 59 1
61 63 1
61 65 1
61 66 1
61 69 1
61 72 1
61 73 1
61 74 1
61 77 1
61 78 1
61 81 1
61 83 1
61 91 1
61 92 1
61 93 1
61 94 1
61 97 1
61 99 1
61 100 1
62 1 1
62 2 1
62 4 1
62 5 1
62 9 1
62 10 1
62 12 1
62 13 1
62 15 1
62 18 1
62 22 1
62 23 1
62 24 1
62 29 1
62 33 1
62 36 1
62 38 1
62 39 1
62 44 1
62 50 1
62 52 1
62 63 1
62 64 1
62 65 1
62 70 1
62 73 1
62 77 1
62 78 1
62 80 1
62 81 1
62 86 1
62 88 1
62 90 1
62 98 1
62 100 1
63 5 1
63 6 1
63 7 1
63 10 1
63 11 1
63 14 1
63 17 1
63 18 1
63 21 1
63 22 1
63 26 1
63 28 1
63 29 1
63 30 1
63 31 1
63 33 1
63 34 1
63 35 1
63 39 1
63 41 1
63 43 1
63 44 1
63 47 1
63 49 1
63 53 1
63 55 1
63 56 1
63 60 1
63 61 1
63 62 1
63 64 1
63 65 1
63 67 1
63 68 1
63 70 1
63 74 1
63 76 1
63 80 1
63 81 1
63 82 1
63 85 1
63 86 1
63 88 1
63 89 1
63 90 1
63 91 1
63 92 1
63 97 1
63 99 1
63 100 1
64 2 1
64 3 1
64 4 1
64 5 1
64 8 1
64 10 1
64 13 1
64 15 1
64 16 1
64 18 1
64 20 1
64 22 1
64 23 1
64 25 1
64 26 1
64 33 1
64 37 1
64 38 1
64 39 1
64 40 1
64 41 1
64 42 1
64 43 1
64 45 1
64 53 1
64 55 1
64 58 1
64 59 1
64 60 1
64 62 1
64 63 1
64 67 1
64 72 1
64 77 1
64 80 1
64 82 1
64 83 1
64 84 1
64 88 1
64 91 1
64 92 1
64 93 1
64 96 1
65 3 1
65 6 1
65 8 1
65 11 1
65 15 1
65 17 1
65 20 1
65 21 1
65 22 1
65 26 1
65 27 1
65 28 1
65 34 1
65 46 1
65 47 1
65 49 1
65 51 1
65 52 1
65 61 1
65 62 1
65 63 1
65 67 1
65 68 1
65 71 1
65 72 1
65 73 1
65 75 1
65 76 1
65 82 1
65 84 1
65 88 1
65 93 1
65 94 1
65 95 1
66 1 1
66 2 1
66 5 1
66 6 1
66 10 1
66 13 1
66 14 1
66 16 1
66 21 1
66 27 1
66 28 1
66 29 1
66 32 1
66 34 1
66 36 1
66 38 1
66 39 1
66 42 1
66 43 1
66 49 1
66 50 1
66 54 1
66 59 1
66 60 1
66 61 1
66 70 1
66 73 1
66 74 1
66 75 1
66 76 1
66 78 1
66 79 1
66 81 1
66 86 1
66 89 1
66 91 1
66 93 1
66 94 1
66 96 1
67 7 1
67 9 1
67 12 1
67 14 1
67 18 1
67 22 1
67 23 1
67 25 1
67 27 1
67 28 1
67 31 1
67 33 1
67 35 1
67 39 1
67 47 1
67 50 1
67 51 1
67 52 1
67 53 1
67 56 1
67 58 1
67 59 1
67 60 1
67 63 1
67 64 1
67 65 1
67 71 1
67 72 1
67 77 1
67 84 1
67 86 1
67 90 1
67 91 1
67 96 1
67 98 1
68 2 1
68 4 1
68 5 1
68 6 1
68 8 1
68 9 1
68 12 1
68 13 1
68 22 1
68 23 1
68 24 1
68 25 1
68 26 1
68 27 1
68 28 1
68 29 1
68 30 1
68 33 1
68 34 1
68 37 1
68 39 1
68 40 1
68 41 1
68 42 1
68 45 1
68 47 1
68 50 1
68 51 1
68 54 1
68 58 1
68 60 1
68 63 1
68 65 1
68 72 1
68 78 1
68 80 1
68 81 1
68 82 1
68 83 1
68 85 1
68 86 1
68 92 1
68 93 1
68 94 1
68 96 1
69 1 1
69 5 1
69 7 1
69 9 1
69 10 1
69 15 1
69 17 1
69 18 1
69 19 1
69 20 1
69 21 1
69 24 1
69 26 1
69 29 1
69 30 1
69 37 1
69 39 1
69 41 1
69 44 1
69 45 1
69 47 1
69 48 1
69 50 1
69 54 1
69 55 1
69 58 1
69 60 1
69 61 1
69 71 1
69 84 1
69 88 1
69 90 1
69 92 1
69 95 1
69 99 1
70 2 1
70 5 1
70 6 1
70 7 1
70 8 1
70 9 1
70 10 1
70 13 1
70 14 1
70 18 1
70 20 1
70 31 1
70 42 1
70 43 1
70 46 1
70 48 1
70 49 1
70 54 1
70 59 1
70 60 1
70 62 1
70 63 1
70 66 1
70 71 1
70 73 1
70 86 1
70 88 1
70 95 1
70 96 1
71 1 1
71 5 1
71 6 1
71 7 1
71 10 1
71 13 1
71 18 1
71 22 1
71 23 1
71 24 1
71 31 1
71 33 1
71 36 1
71 38 1
71 41 1
71 44 1
71 46 1
71 48 1
71 50 1
71 51 1
71 52 1
71 58 1
71 59 1
71 60 1
71 65 1
71 67 1
71 69 1
71 70 1
71 73 1
71 74 1
71 78 1
71 80 1
71 85 1
71 88 1
71 89 1
71 91 1
71 92 1
71 94 1
71 96 1
71 100 1
72 3 1
72 5 1
72 15 1
72 16 1
72 18 1
72 21 1
72 25 1
72 27 1
72 29 1
72 40 1
72 42 1
72 43 1
72 44 1
72 45 1
72 49 1
72 50 1
72 51 1
72 53 1
72 59 1
72 60 1
72 61 1
72 64 1
72 65 1
72 67 1
72 68 1
72 73 1
72 75 1
72 76 1
72 78 1
72 79 1
72 81 1
72 83 1
72 85 1
72 86 1
72 87 1
72 89 1
72 96 1
72 97 1
72 99 1
73 3 1
73 7 1
73 8 1
73 10 1
73 13 1
73 17 1
73 18 1
73 20 1
73 22 1
73 23 1
73 25 1
73 27 1
73 28 1
73 29 1
73 31 1
73 32 1
73 35 1
73 37 1
73 38 1
73 40 1
73 43 1
73 45 1
73 46 1
73 49 1
73 51 1
73 52 1
73 55 1
73 56 1
73 58 1
73 60 1
73 61 1
73 62 1
73 65 1
73 66 1
73 70 1
73 71 1
73 72 1
73 76 1
73 79 1
73 81 1
73 82 1
73 84 1
73 86 1
73 87 1
73 98 1
74 2 1
74 3 1
74 4 1
74 10 1
74 12 1
74 14 1
74 15 1
74 20 1
74 25 1
74 26 1
74 27 1
74 32 1
74 35 1
74 39 1
74 41 1
74 45 1
74 49 1
74 50 1
74 52 1
74 55 1
74 56 1
74 57 1
74 59 1
74 60 1
74 61 1
74 63 1
74 66 1
74 71 1
74 80 1
74 83 1
74 85 1
74 88 1
74 91 1
74 99 1
75 1 1
75 2 1
75 4 1
75 6 1
75 9 1
75 10 1
75 16 1
75 17 1
75 18 1
75 20 1
75 22 1
75 23 1
75 25 1
75 27 1
75 30 1
75 34 1
75 35 1
75 38 1
75 39 1
75 40 1
75 41 1
75 42 1
75 45 1
75 46 1
75 50 1
75 51 1
75 55 1
75 57 1
75 58 1
75 65 1
75 66 1
75 72 1
75 77 1
75 78 1
75 82 1
75 83 1
75 89 1
75 92 1
75 95 1
75 97 1
75 98 1
75 99 1
75 100 1
76 3 1
76 6 1
76 11 1
76 12 1
76 13 1
76 15 1
76 17 1
76 18 1
76 19 1
76 20 1
76 21 1
76 22 1
76 23 1
76 24 1
76 25 1
76 33 1
76 35 1
76 38 1
76 41 1
76 48 1
76 57 1
76 58 1
76 60 1
76 63 1
76 65 1
76 66 1
76 72 1
76 73 1
76 78 1
76 79 1
76 82 1
76 83 1
76 87 1
76 88 1
76 90 1
76 94 1
76 97 1
76 99 1
77 9 1
77 10 1
77 11 1
77 14 1
77 16 1
77 17 1
77 19 1
77 24 1
77 27 1
77 30 1
77 34 1
77 36 1
77 38 1
77 39 1
77 41 1
77 42 1
77 49 1
77 53 1
77 55 1
77 57 1
77 58 1
77 59 1
77 60 1
77 61 1
77 62 1
77 64 1
77 67 1
77 75 1
77 78 1
77 79 1
77 88 1
77 94 1
77 100 1
78 1 1
78 2 1
78 3 1
78 5 1
78 8 1
78 14 1
78 15 1
78 17 1
78 25 1
78 27 1
78 30 1
78 34 1
78 36 1
78 37 1
78 38 1
78 40 1
78 41 1
78 42 1
78 43 1
78 44 1
78 46 1
78 47 1
78 49 1
78 53 1
78 56 1
78 61 1
78 62 1
78 66 1
78 68 1
78 71 1
78 72 1
78 75 1
78 76 1
78 77 1
78 80 1
78 82 1
78 83 1
78 93 1
78 94 1
78 95 1
78 98 1
78 100 1
79 1 1
79 2 1
79 3 1
79 4 1
79 9 1
79 11 1
79 12 1
79 14 1
79 16 1
79 18 1
79 20 1
79 21 1
79 22 1
79 23 1
79 26 1
79 28 1
79 30 1
79 31 1
79 33 1
79 34 1
79 36 1
79 38 1
79 42 1
79 43 1
79 44 1
79 46 1
79 47 1
79 51 1
79 55 1
79 56 1
79 57 1
79 66 1
79 72 1
79 73 1
79 76 1
79 77 1
79 87 1
79 88 1
79 89 1
79 90 1
79 91 1
79 97 1
79 99 1
79 100 1
80 1 1
80 3 1
80 6 1
80 10 1
80 14 1
80 17 1
80 20 1
80 23 1
80 27 1
80 30 1
80 31 1
80 33 1
80 36 1
80 37 1
80 38 1
80 40 1
80 42 1
80 44 1
80 45 1
80 46 1
80 47 1
80 51 1
80 52 1
80 57 1
80 62 1
80 63 1
80 64 1
80 68 1
80 71 1
80 74 1
80 78 1
80 81 1
80 84 1
80 89 1
80 97 1
80 100 1
81 1 1
81 3 1
81 4 1
81 8 1
81 13 1
81 15 1
81 16 1
81 19 1
81 20 1
81 21 1
81 22 1
81 23 1
81 26 1
81 29 1
81 30 1
81 31 1
81 32 1
81 34 1
81 35 1
81 36 1
81 40 1
81 41 1
81 42 1
81 43 1
81 45 1
81 47 1
81 48 1
81 50 1
81 53 1
81 54 1
81 55 1
81 57 1
81 60 1
81 61 1
81 62 1
81 63 1
81 66 1
81 68 1
81 72 1
81 73 1
81 80 1
81 85 1
81 89 1
81 93 1
81 96 1
81 98 1
82 1 1
82 8 1
82 17 1
82 21 1
82 23 1
82 25 1
82 27 1
82 29 1
82 31 1
82 34 1
82 35 1
82 38 1
82 39 1
82 40 1
82 41 1
82 42 1
82 43 1
82 45 1
82 49 1
82 50 1
82 54 1
82 56 1
82 57 1
82 58 1
82 59 1
82 60 1
82 63 1
82 64 1
82 65 1
82 68 1
82 73 1
82 75 1
82 76 1
82 78 1
82 84 1
82 86 1
82 90 1
82 91 1
82 92 1
82 93 1
82 94 1
82 95 1
82 96 1
83 7 1
83 11 1
83 12 1
83 14 1
83 15 1
83 19 1
83 20 1
83 27 1
83 34 1
83 37 1
83 43 1
83 50 1
83 52 1
83 54 1
83 55 1
83 60 1
83 61 1
83 64 1
83 68 1
83 72 1
83 74 1
83 75 1
83 76 1
83 78 1
83 88 1
83 89 1
83 94 1
83 95 1
83 96 1
83 97 1
84 1 1
84 4 1
84 13 1
84 14 1
84 18 1
84 19 1
84 20 1
84 22 1
84 27 1
84 30 1
84 32 1
84 35 1
84 36 1
84 38 1
84 41 1
84 42 1
84 49 1
84 52 1
84 55 1
84 59 1
84 64 1
84 65 1
84 67 1
84 69 1
84 73 1
84 80 1
84 82 1
84 89 1
84 90 1
84 91 1
84 92 1
84 96 1
84 97 1
84 99 1
84 100 1
85 6 1
85 7 1
85 12 1
85 13 1
85 19 1
85 22 1
85 23 1
85 26 1
85 30 1
85 32 1
85 34 1
85 37 1
85 40 1
85 41 1
85 42 1
85 43 1
85 45 1
85 47 1
85 50 1
85 51 1
85 52 1
85 59 1
85 63 1
85 68 1
85 71 1
85 72 1
85 74 1
85 81 1
85 86 1
85 87 1
85 88 1
85 90 1
85 91 1
85 93 1
85 95 1
86 3 1
86 4 1
86 7 1
86 11 1
86 14 1
86 17 1
86 18 1
86 20 1
86 24 1
86 32 1
86 38 1
86 39 1
86 43 1
86 44 1
86 45 1
86 47 1
86 49 1
86 50 1
86 53 1
86 54 1
86 55 1
86 57 1
86 58 1
86 62 1
86 63 1
86 66 1
86 67 1
86 68 1
86 70 1
86 72 1
86 73 1
86 82 1
86 85 1
86 88 1
86 89 1
87 1 1
87 5 1
87 6 1
87 7 1
87 10 1
87 13 1
87 16 1
87 18 1
87 20 1
87 23 1
87 27 1
87 28 1
87 32 1
87 33 1
87 34 1
87 39 1
87 50 1
87 54 1
87 58 1
87 60 1
87 72 1
87 73 1
87 76 1
87 79 1
87 85 1
87 89 1
87 90 1
87 91 1
87 94 1
87 96 1
87 98 1
87 100 1
88 2 1
88 5 1
88 6 1
88 10 1
88 11 1
88 13 1
88 14 1
88 17 1
88 19 1
88 21 1
88 22 1
88 23 1
88 27 1
88 30 1
88 31 1
88 32 1
88 33 1
88 36 1
88 41 1
88 42 1
88 46 1
88 47 1
88 48 1
88 50 1
88 56 1
88 58 1
88 60 1
88 62 1
88 63 1
88 64 1
88 65 1
88 69 1
88 70 1
88 71 1
88 74 1
88 76 1
88 77 1
88 79 1
88 83 1
88 85 1
88 86 1
88 90 1
88 92 1
88 93 1
88 95 1
88 99 1
89 3 1
89 4 1
89 10 1
89 16 1
89 22 1
89 23 1
89 24 1
89 25 1
89 27 1
89 28 1
89 30 1
89 31 1
89 33 1
89 36 1
89 38 1
89 39 1
89 43 1
89 46 1
89 49 1
89 59 1
89 60 1
89 63 1
89 66 1
89 71 1
89 72 1
89 75 1
89 79 1
89 80 1
89 81 1
89 83 1
89 84 1
89 86 1
89 87 1
89 90 1
89 94 1
89 95 1
89 96 1
89 97 1
89 98 1
90 2 1
90 10 1
90 13 1
90 15 1
90 17 1
90 23 1
90 27 1
90 28 1
90 29 1
90 32 1
90 39 1
90 40 1
90 42 1
90 43 1
90 46 1
90 47 1
90 49 1
90 51 1
90 54 1
90 57 1
90 58 1
90 62 1
90 63 1
90 67 1
90 69 1
90 76 1
90 79 1
90 82 1
90 84 1
90 85 1
90 87 1
90 88 1
90 89 1
90 91 1
90 92 1
90 94 1
90 97 1
90 99 1
90 100 1
91 1 1
91 2 1
91 4 1
91 7 1
91 10 1
91 11 1
91 13 1
91 15 1
91 18 1
91 19 1
91 23 1
91 25 1
91 26 1
91 28 1
91 30 1
91 31 1
91 34 1
91 36 1
91 37 1
91 43 1
91 45 1
91 46 1
91 48 1
91 50 1
91 51 1
91 52 1
91 57 1
91 59 1
91 60 1
91 61 1
91 63 1
91 64 1
91 66 1
91 67 1
91 71 1
91 74 1
91 79 1
91 82 1
91 84 1
91 85 1
91 87 1
91 90 1
91 92 1
91 93 1
91 97 1
91 98 1
91 100 1
92 5 1
92 6 1
92 11 1
92 14 1
92 17 1
92 21 1
92 22 1
92 24 1
92 25 1
92 26 1
92 30 1
92 31 1
92 34 1
92 37 1
92 40 1
92 41 1
92 44 1
92 45 1
92 49 1
92 51 1
92 55 1
92 61 1
92 63 1
92 64 1
92 68 1
92 69 1
92 71 1
92 75 1
92 82 1
92 84 1
92 88 1
92 90 1
92 91 1
92 93 1
92 94 1
92 95 1
92 99 1
92 100 1
93 2 1
93 6 1
93 9 1
93 11 1
93 14 1
93 18 1
93 19 1
93 20 1
93 22 1
93 26 1
93 27 1
93 29 1
93 30 1
93 40 1
93 42 1
93 43 1
93 44 1
93 46 1
93 49 1
93 50 1
93 56 1
93 61 1
93 64 1
93 65 1
93 66 1
93 68 1
93 78 1
93 81 1
93 82 1
93 85 1
93 88 1
93 91 1
93 92 1
93 96 1
93 98 1
94 1 1
94 3 1
94 5 1
94 6 1
94 8 1
94 9 1
94 14 1
94 16 1
94 18 1
94 21 1
94 22 1
94 34 1
94 35 1
94 39 1
94 40 1
94 43 1
94 50 1
94 51 1
94 55 1
94 56 1
94 58 1
94 59 1
94 60 1
94 61 1
94 65 1
94 66 1
94 68 1
94 71 1
94 76 1
94 77 1
94 78 1
94 82 1
94 83 1
94 87 1
94 89 1
94 90 1
94 92 1
94 97 1
94 99 1
95 1 1
95 2 1
95 5 1
95 8 1
95 10 1
95 11 1
95 13 1
95 14 1
95 15 1
95 16 1
95 17 1
95 18 1
95 19 1
95 20 1
95 22 1
95 25 1
95 30 1
95 31 1
95 32 1
95 36 1
95 40 1
95 41 1
95 44 1
95 45 1
95 46 1
95 48 1
95 49 1
95 52 1
95 53 1
95 54 1
95 55 1
95 58 1
95 59 1
95 65 1
95 69 1
95 70 1
95 75 1
95 78 1
95 82 1
95 83 1
95 85 1
95 88 1
95 89 1
95 92 1
95 98 1
95 99 1
95 100 1
96 3 1
96 4 1
96 6 1
96 7 1
96 8 1
96 9 1
96 14 1
96 15 1
96 20 1
96 21 1
96 23 1
96 24 1
96 25 1
96 27 1
96 30 1
96 33 1
96 37 1
96 40 1
96 44 1
96 45 1
96 47 1
96 48 1
96 51 1
96 52 1
96 54 1
96 55 1
96 64 1
96 66 1
96 67 1
96 68 1
96 70 1
96 71 1
96 72 1
96 81 1
96 82 1
96 83 1
96 84 1
96 87 1
96 89 1
96 93 1
97 1 1
97 3 1
97 9 1
97 10 1
97 11 1
97 13 1
97 14 1
97 16 1
97 17 1
97 19 1
97 22 1
97 24 1
97 25 1
97 32 1
97 35 1
97 39 1
97 43 1
97 44 1
97 48 1
97 49 1
97 53 1
97 55 1
97 56 1
97 57 1
97 58 1
97 61 1
97 63 1
97 72 1
97 75 1
97 76 1
97 79 1
97 80 1
97 83 1
97 84 1
97 89 1
97 90 1
97 91 1
97 94 1
97 99 1
98 2 1
98 3 1
98 4 1
98 12 1
98 17 1
98 18 1
98 21 1
98 24 1
98 26 1
98 28 1
98 29 1
98 30 1
98 31 1
98 33 1
98 34 1
98 42 1
98 43 1
98 44 1
98 46 1
98 49 1
98 51 1
98 53 1
98 54 1
98 55 1
98 56 1
98 58 1
98 60 1
98 62 1
98 67 1
98 73 1
98 75 1
98 78 1
98 81 1
98 87 1
98 89 1
98 91 1
98 93 1
98 95 1
98 100 1
99 7 1
99 16 1
99 22 1
99 25 1
99 29 1
99 31 1
99 32 1
99 33 1
99 35 1
99 36 1
99 37 1
99 39 1
99 42 1
99 43 1
99 44 1
99 45 1
99 51 1
99 52 1
99 54 1
99 55 1
99 57 1
99 59 1
99 60 1
99 61 1
99 63 1
99 69 1
99 72 1
99 74 1
99 75 1
99 76 1
99 79 1
99 84 1
99 88 1
99 90 1
99 92 1
99 94 1
99 95 1
99 97 1
99 100 1
100 1 1
100 2 1
100 11 1
100 13 1
100 19 1
100 21 1
100 25 1
100 27 1
100 28 1
100 29 1
100 30 1
100 31 1
100 34 1
100 35 1
100 38 1
100 39 1
100 40 1
100 41 1
100 45 1
100 49 1
100 50 1
100 52 1
100 55 1
100 61 1
100 62 1
100 63 1
100 71 1
100 75 1
100 77 1
100 78 1
100 79 1
100 80 1
100 84 1
100 87 1
100 90 1
100 91 1
100 92 1
100 95 1
100 98 1
100 99 1
