%%MatrixMarket matrix coordinate integer general
% Cubo de Fibonacci Gamma_14 | 987 vertices | 7940 arestas
987 987 7940
1 2 1
2 1 1
1 3 1
3 1 1
1 4 1
4 1 1
1 6 1
6 1 1
1 9 1
9 1 1
1 14 1
14 1 1
1 22 1
22 1 1
1 35 1
35 1 1
1 56 1
56 1 1
1 90 1
90 1 1
1 145 1
145 1 1
1 234 1
234 1 1
1 378 1
378 1 1
1 611 1
611 1 1
2 5 1
5 2 1
2 7 1
7 2 1
2 10 1
10 2 1
2 15 1
15 2 1
2 23 1
23 2 1
2 36 1
36 2 1
2 57 1
57 2 1
2 91 1
91 2 1
2 146 1
146 2 1
2 235 1
235 2 1
2 379 1
379 2 1
2 612 1
612 2 1
3 8 1
8 3 1
3 11 1
11 3 1
3 16 1
16 3 1
3 24 1
24 3 1
3 37 1
37 3 1
3 58 1
58 3 1
3 92 1
92 3 1
3 147 1
147 3 1
3 236 1
236 3 1
3 380 1
380 3 1
3 613 1
613 3 1
4 5 1
5 4 1
4 12 1
12 4 1
4 17 1
17 4 1
4 25 1
25 4 1
4 38 1
38 4 1
4 59 1
59 4 1
4 93 1
93 4 1
4 148 1
148 4 1
4 237 1
237 4 1
4 381 1
381 4 1
4 614 1
614 4 1
5 13 1
13 5 1
5 18 1
18 5 1
5 26 1
26 5 1
5 39 1
39 5 1
5 60 1
60 5 1
5 94 1
94 5 1
5 149 1
149 5 1
5 238 1
238 5 1
5 382 1
382 5 1
5 615 1
615 5 1
6 7 1
7 6 1
6 8 1
8 6 1
6 19 1
19 6 1
6 27 1
27 6 1
6 40 1
40 6 1
6 61 1
61 6 1
6 95 1
95 6 1
6 150 1
150 6 1
6 239 1
239 6 1
6 383 1
383 6 1
6 616 1
616 6 1
7 20 1
20 7 1
7 28 1
28 7 1
7 41 1
41 7 1
7 62 1
62 7 1
7 96 1
96 7 1
7 151 1
151 7 1
7 240 1
240 7 1
7 384 1
384 7 1
7 617 1
617 7 1
8 21 1
21 8 1
8 29 1
29 8 1
8 42 1
42 8 1
8 63 1
63 8 1
8 97 1
97 8 1
8 152 1
152 8 1
8 241 1
241 8 1
8 385 1
385 8 1
8 618 1
618 8 1
9 10 1
10 9 1
9 11 1
11 9 1
9 12 1
12 9 1
9 30 1
30 9 1
9 43 1
43 9 1
9 64 1
64 9 1
9 98 1
98 9 1
9 153 1
153 9 1
9 242 1
242 9 1
9 386 1
386 9 1
9 619 1
619 9 1
10 13 1
13 10 1
10 31 1
31 10 1
10 44 1
44 10 1
10 65 1
65 10 1
10 99 1
99 10 1
10 154 1
154 10 1
10 243 1
243 10 1
10 387 1
387 10 1
10 620 1
620 10 1
11 32 1
32 11 1
11 45 1
45 11 1
11 66 1
66 11 1
11 100 1
100 11 1
11 155 1
155 11 1
11 244 1
244 11 1
11 388 1
388 11 1
11 621 1
621 11 1
12 13 1
13 12 1
12 33 1
33 12 1
12 46 1
46 12 1
12 67 1
67 12 1
12 101 1
101 12 1
12 156 1
156 12 1
12 245 1
245 12 1
12 389 1
389 12 1
12 622 1
622 12 1
13 34 1
34 13 1
13 47 1
47 13 1
13 68 1
68 13 1
13 102 1
102 13 1
13 157 1
157 13 1
13 246 1
246 13 1
13 390 1
390 13 1
13 623 1
623 13 1
14 15 1
15 14 1
14 16 1
16 14 1
14 17 1
17 14 1
14 19 1
19 14 1
14 48 1
48 14 1
14 69 1
69 14 1
14 103 1
103 14 1
14 158 1
158 14 1
14 247 1
247 14 1
14 391 1
391 14 1
14 624 1
624 14 1
15 18 1
18 15 1
15 20 1
20 15 1
15 49 1
49 15 1
15 70 1
70 15 1
15 104 1
104 15 1
15 159 1
159 15 1
15 248 1
248 15 1
15 392 1
392 15 1
15 625 1
625 15 1
16 21 1
21 16 1
16 50 1
50 16 1
16 71 1
71 16 1
16 105 1
105 16 1
16 160 1
160 16 1
16 249 1
249 16 1
16 393 1
393 16 1
16 626 1
626 16 1
17 18 1
18 17 1
17 51 1
51 17 1
17 72 1
72 17 1
17 106 1
106 17 1
17 161 1
161 17 1
17 250 1
250 17 1
17 394 1
394 17 1
17 627 1
627 17 1
18 52 1
52 18 1
18 73 1
73 18 1
18 107 1
107 18 1
18 162 1
162 18 1
18 251 1
251 18 1
18 395 1
395 18 1
18 628 1
628 18 1
19 20 1
20 19 1
19 21 1
21 19 1
19 53 1
53 19 1
19 74 1
74 19 1
19 108 1
108 19 1
19 163 1
163 19 1
19 252 1
252 19 1
19 396 1
396 19 1
19 629 1
629 19 1
20 54 1
54 20 1
20 75 1
75 20 1
20 109 1
109 20 1
20 164 1
164 20 1
20 253 1
253 20 1
20 397 1
397 20 1
20 630 1
630 20 1
21 55 1
55 21 1
21 76 1
76 21 1
21 110 1
110 21 1
21 165 1
165 21 1
21 254 1
254 21 1
21 398 1
398 21 1
21 631 1
631 21 1
22 23 1
23 22 1
22 24 1
24 22 1
22 25 1
25 22 1
22 27 1
27 22 1
22 30 1
30 22 1
22 77 1
77 22 1
22 111 1
111 22 1
22 166 1
166 22 1
22 255 1
255 22 1
22 399 1
399 22 1
22 632 1
632 22 1
23 26 1
26 23 1
23 28 1
28 23 1
23 31 1
31 23 1
23 78 1
78 23 1
23 112 1
112 23 1
23 167 1
167 23 1
23 256 1
256 23 1
23 400 1
400 23 1
23 633 1
633 23 1
24 29 1
29 24 1
24 32 1
32 24 1
24 79 1
79 24 1
24 113 1
113 24 1
24 168 1
168 24 1
24 257 1
257 24 1
24 401 1
401 24 1
24 634 1
634 24 1
25 26 1
26 25 1
25 33 1
33 25 1
25 80 1
80 25 1
25 114 1
114 25 1
25 169 1
169 25 1
25 258 1
258 25 1
25 402 1
402 25 1
25 635 1
635 25 1
26 34 1
34 26 1
26 81 1
81 26 1
26 115 1
115 26 1
26 170 1
170 26 1
26 259 1
259 26 1
26 403 1
403 26 1
26 636 1
636 26 1
27 28 1
28 27 1
27 29 1
29 27 1
27 82 1
82 27 1
27 116 1
116 27 1
27 171 1
171 27 1
27 260 1
260 27 1
27 404 1
404 27 1
27 637 1
637 27 1
28 83 1
83 28 1
28 117 1
117 28 1
28 172 1
172 28 1
28 261 1
261 28 1
28 405 1
405 28 1
28 638 1
638 28 1
29 84 1
84 29 1
29 118 1
118 29 1
29 173 1
173 29 1
29 262 1
262 29 1
29 406 1
406 29 1
29 639 1
639 29 1
30 31 1
31 30 1
30 32 1
32 30 1
30 33 1
33 30 1
30 85 1
85 30 1
30 119 1
119 30 1
30 174 1
174 30 1
30 263 1
263 30 1
30 407 1
407 30 1
30 640 1
640 30 1
31 34 1
34 31 1
31 86 1
86 31 1
31 120 1
120 31 1
31 175 1
175 31 1
31 264 1
264 31 1
31 408 1
408 31 1
31 641 1
641 31 1
32 87 1
87 32 1
32 121 1
121 32 1
32 176 1
176 32 1
32 265 1
265 32 1
32 409 1
409 32 1
32 642 1
642 32 1
33 34 1
34 33 1
33 88 1
88 33 1
33 122 1
122 33 1
33 177 1
177 33 1
33 266 1
266 33 1
33 410 1
410 33 1
33 643 1
643 33 1
34 89 1
89 34 1
34 123 1
123 34 1
34 178 1
178 34 1
34 267 1
267 34 1
34 411 1
411 34 1
34 644 1
644 34 1
35 36 1
36 35 1
35 37 1
37 35 1
35 38 1
38 35 1
35 40 1
40 35 1
35 43 1
43 35 1
35 48 1
48 35 1
35 124 1
124 35 1
35 179 1
179 35 1
35 268 1
268 35 1
35 412 1
412 35 1
35 645 1
645 35 1
36 39 1
39 36 1
36 41 1
41 36 1
36 44 1
44 36 1
36 49 1
49 36 1
36 125 1
125 36 1
36 180 1
180 36 1
36 269 1
269 36 1
36 413 1
413 36 1
36 646 1
646 36 1
37 42 1
42 37 1
37 45 1
45 37 1
37 50 1
50 37 1
37 126 1
126 37 1
37 181 1
181 37 1
37 270 1
270 37 1
37 414 1
414 37 1
37 647 1
647 37 1
38 39 1
39 38 1
38 46 1
46 38 1
38 51 1
51 38 1
38 127 1
127 38 1
38 182 1
182 38 1
38 271 1
271 38 1
38 415 1
415 38 1
38 648 1
648 38 1
39 47 1
47 39 1
39 52 1
52 39 1
39 128 1
128 39 1
39 183 1
183 39 1
39 272 1
272 39 1
39 416 1
416 39 1
39 649 1
649 39 1
40 41 1
41 40 1
40 42 1
42 40 1
40 53 1
53 40 1
40 129 1
129 40 1
40 184 1
184 40 1
40 273 1
273 40 1
40 417 1
417 40 1
40 650 1
650 40 1
41 54 1
54 41 1
41 130 1
130 41 1
41 185 1
185 41 1
41 274 1
274 41 1
41 418 1
418 41 1
41 651 1
651 41 1
42 55 1
55 42 1
42 131 1
131 42 1
42 186 1
186 42 1
42 275 1
275 42 1
42 419 1
419 42 1
42 652 1
652 42 1
43 44 1
44 43 1
43 45 1
45 43 1
43 46 1
46 43 1
43 132 1
132 43 1
43 187 1
187 43 1
43 276 1
276 43 1
43 420 1
420 43 1
43 653 1
653 43 1
44 47 1
47 44 1
44 133 1
133 44 1
44 188 1
188 44 1
44 277 1
277 44 1
44 421 1
421 44 1
44 654 1
654 44 1
45 134 1
134 45 1
45 189 1
189 45 1
45 278 1
278 45 1
45 422 1
422 45 1
45 655 1
655 45 1
46 47 1
47 46 1
46 135 1
135 46 1
46 190 1
190 46 1
46 279 1
279 46 1
46 423 1
423 46 1
46 656 1
656 46 1
47 136 1
136 47 1
47 191 1
191 47 1
47 280 1
280 47 1
47 424 1
424 47 1
47 657 1
657 47 1
48 49 1
49 48 1
48 50 1
50 48 1
48 51 1
51 48 1
48 53 1
53 48 1
48 137 1
137 48 1
48 192 1
192 48 1
48 281 1
281 48 1
48 425 1
425 48 1
48 658 1
658 48 1
49 52 1
52 49 1
49 54 1
54 49 1
49 138 1
138 49 1
49 193 1
193 49 1
49 282 1
282 49 1
49 426 1
426 49 1
49 659 1
659 49 1
50 55 1
55 50 1
50 139 1
139 50 1
50 194 1
194 50 1
50 283 1
283 50 1
50 427 1
427 50 1
50 660 1
660 50 1
51 52 1
52 51 1
51 140 1
140 51 1
51 195 1
195 51 1
51 284 1
284 51 1
51 428 1
428 51 1
51 661 1
661 51 1
52 141 1
141 52 1
52 196 1
196 52 1
52 285 1
285 52 1
52 429 1
429 52 1
52 662 1
662 52 1
53 54 1
54 53 1
53 55 1
55 53 1
53 142 1
142 53 1
53 197 1
197 53 1
53 286 1
286 53 1
53 430 1
430 53 1
53 663 1
663 53 1
54 143 1
143 54 1
54 198 1
198 54 1
54 287 1
287 54 1
54 431 1
431 54 1
54 664 1
664 54 1
55 144 1
144 55 1
55 199 1
199 55 1
55 288 1
288 55 1
55 432 1
432 55 1
55 665 1
665 55 1
56 57 1
57 56 1
56 58 1
58 56 1
56 59 1
59 56 1
56 61 1
61 56 1
56 64 1
64 56 1
56 69 1
69 56 1
56 77 1
77 56 1
56 200 1
200 56 1
56 289 1
289 56 1
56 433 1
433 56 1
56 666 1
666 56 1
57 60 1
60 57 1
57 62 1
62 57 1
57 65 1
65 57 1
57 70 1
70 57 1
57 78 1
78 57 1
57 201 1
201 57 1
57 290 1
290 57 1
57 434 1
434 57 1
57 667 1
667 57 1
58 63 1
63 58 1
58 66 1
66 58 1
58 71 1
71 58 1
58 79 1
79 58 1
58 202 1
202 58 1
58 291 1
291 58 1
58 435 1
435 58 1
58 668 1
668 58 1
59 60 1
60 59 1
59 67 1
67 59 1
59 72 1
72 59 1
59 80 1
80 59 1
59 203 1
203 59 1
59 292 1
292 59 1
59 436 1
436 59 1
59 669 1
669 59 1
60 68 1
68 60 1
60 73 1
73 60 1
60 81 1
81 60 1
60 204 1
204 60 1
60 293 1
293 60 1
60 437 1
437 60 1
60 670 1
670 60 1
61 62 1
62 61 1
61 63 1
63 61 1
61 74 1
74 61 1
61 82 1
82 61 1
61 205 1
205 61 1
61 294 1
294 61 1
61 438 1
438 61 1
61 671 1
671 61 1
62 75 1
75 62 1
62 83 1
83 62 1
62 206 1
206 62 1
62 295 1
295 62 1
62 439 1
439 62 1
62 672 1
672 62 1
63 76 1
76 63 1
63 84 1
84 63 1
63 207 1
207 63 1
63 296 1
296 63 1
63 440 1
440 63 1
63 673 1
673 63 1
64 65 1
65 64 1
64 66 1
66 64 1
64 67 1
67 64 1
64 85 1
85 64 1
64 208 1
208 64 1
64 297 1
297 64 1
64 441 1
441 64 1
64 674 1
674 64 1
65 68 1
68 65 1
65 86 1
86 65 1
65 209 1
209 65 1
65 298 1
298 65 1
65 442 1
442 65 1
65 675 1
675 65 1
66 87 1
87 66 1
66 210 1
210 66 1
66 299 1
299 66 1
66 443 1
443 66 1
66 676 1
676 66 1
67 68 1
68 67 1
67 88 1
88 67 1
67 211 1
211 67 1
67 300 1
300 67 1
67 444 1
444 67 1
67 677 1
677 67 1
68 89 1
89 68 1
68 212 1
212 68 1
68 301 1
301 68 1
68 445 1
445 68 1
68 678 1
678 68 1
69 70 1
70 69 1
69 71 1
71 69 1
69 72 1
72 69 1
69 74 1
74 69 1
69 213 1
213 69 1
69 302 1
302 69 1
69 446 1
446 69 1
69 679 1
679 69 1
70 73 1
73 70 1
70 75 1
75 70 1
70 214 1
214 70 1
70 303 1
303 70 1
70 447 1
447 70 1
70 680 1
680 70 1
71 76 1
76 71 1
71 215 1
215 71 1
71 304 1
304 71 1
71 448 1
448 71 1
71 681 1
681 71 1
72 73 1
73 72 1
72 216 1
216 72 1
72 305 1
305 72 1
72 449 1
449 72 1
72 682 1
682 72 1
73 217 1
217 73 1
73 306 1
306 73 1
73 450 1
450 73 1
73 683 1
683 73 1
74 75 1
75 74 1
74 76 1
76 74 1
74 218 1
218 74 1
74 307 1
307 74 1
74 451 1
451 74 1
74 684 1
684 74 1
75 219 1
219 75 1
75 308 1
308 75 1
75 452 1
452 75 1
75 685 1
685 75 1
76 220 1
220 76 1
76 309 1
309 76 1
76 453 1
453 76 1
76 686 1
686 76 1
77 78 1
78 77 1
77 79 1
79 77 1
77 80 1
80 77 1
77 82 1
82 77 1
77 85 1
85 77 1
77 221 1
221 77 1
77 310 1
310 77 1
77 454 1
454 77 1
77 687 1
687 77 1
78 81 1
81 78 1
78 83 1
83 78 1
78 86 1
86 78 1
78 222 1
222 78 1
78 311 1
311 78 1
78 455 1
455 78 1
78 688 1
688 78 1
79 84 1
84 79 1
79 87 1
87 79 1
79 223 1
223 79 1
79 312 1
312 79 1
79 456 1
456 79 1
79 689 1
689 79 1
80 81 1
81 80 1
80 88 1
88 80 1
80 224 1
224 80 1
80 313 1
313 80 1
80 457 1
457 80 1
80 690 1
690 80 1
81 89 1
89 81 1
81 225 1
225 81 1
81 314 1
314 81 1
81 458 1
458 81 1
81 691 1
691 81 1
82 83 1
83 82 1
82 84 1
84 82 1
82 226 1
226 82 1
82 315 1
315 82 1
82 459 1
459 82 1
82 692 1
692 82 1
83 227 1
227 83 1
83 316 1
316 83 1
83 460 1
460 83 1
83 693 1
693 83 1
84 228 1
228 84 1
84 317 1
317 84 1
84 461 1
461 84 1
84 694 1
694 84 1
85 86 1
86 85 1
85 87 1
87 85 1
85 88 1
88 85 1
85 229 1
229 85 1
85 318 1
318 85 1
85 462 1
462 85 1
85 695 1
695 85 1
86 89 1
89 86 1
86 230 1
230 86 1
86 319 1
319 86 1
86 463 1
463 86 1
86 696 1
696 86 1
87 231 1
231 87 1
87 320 1
320 87 1
87 464 1
464 87 1
87 697 1
697 87 1
88 89 1
89 88 1
88 232 1
232 88 1
88 321 1
321 88 1
88 465 1
465 88 1
88 698 1
698 88 1
89 233 1
233 89 1
89 322 1
322 89 1
89 466 1
466 89 1
89 699 1
699 89 1
90 91 1
91 90 1
90 92 1
92 90 1
90 93 1
93 90 1
90 95 1
95 90 1
90 98 1
98 90 1
90 103 1
103 90 1
90 111 1
111 90 1
90 124 1
124 90 1
90 323 1
323 90 1
90 467 1
467 90 1
90 700 1
700 90 1
91 94 1
94 91 1
91 96 1
96 91 1
91 99 1
99 91 1
91 104 1
104 91 1
91 112 1
112 91 1
91 125 1
125 91 1
91 324 1
324 91 1
91 468 1
468 91 1
91 701 1
701 91 1
92 97 1
97 92 1
92 100 1
100 92 1
92 105 1
105 92 1
92 113 1
113 92 1
92 126 1
126 92 1
92 325 1
325 92 1
92 469 1
469 92 1
92 702 1
702 92 1
93 94 1
94 93 1
93 101 1
101 93 1
93 106 1
106 93 1
93 114 1
114 93 1
93 127 1
127 93 1
93 326 1
326 93 1
93 470 1
470 93 1
93 703 1
703 93 1
94 102 1
102 94 1
94 107 1
107 94 1
94 115 1
115 94 1
94 128 1
128 94 1
94 327 1
327 94 1
94 471 1
471 94 1
94 704 1
704 94 1
95 96 1
96 95 1
95 97 1
97 95 1
95 108 1
108 95 1
95 116 1
116 95 1
95 129 1
129 95 1
95 328 1
328 95 1
95 472 1
472 95 1
95 705 1
705 95 1
96 109 1
109 96 1
96 117 1
117 96 1
96 130 1
130 96 1
96 329 1
329 96 1
96 473 1
473 96 1
96 706 1
706 96 1
97 110 1
110 97 1
97 118 1
118 97 1
97 131 1
131 97 1
97 330 1
330 97 1
97 474 1
474 97 1
97 707 1
707 97 1
98 99 1
99 98 1
98 100 1
100 98 1
98 101 1
101 98 1
98 119 1
119 98 1
98 132 1
132 98 1
98 331 1
331 98 1
98 475 1
475 98 1
98 708 1
708 98 1
99 102 1
102 99 1
99 120 1
120 99 1
99 133 1
133 99 1
99 332 1
332 99 1
99 476 1
476 99 1
99 709 1
709 99 1
100 121 1
121 100 1
100 134 1
134 100 1
100 333 1
333 100 1
100 477 1
477 100 1
100 710 1
710 100 1
101 102 1
102 101 1
101 122 1
122 101 1
101 135 1
135 101 1
101 334 1
334 101 1
101 478 1
478 101 1
101 711 1
711 101 1
102 123 1
123 102 1
102 136 1
136 102 1
102 335 1
335 102 1
102 479 1
479 102 1
102 712 1
712 102 1
103 104 1
104 103 1
103 105 1
105 103 1
103 106 1
106 103 1
103 108 1
108 103 1
103 137 1
137 103 1
103 336 1
336 103 1
103 480 1
480 103 1
103 713 1
713 103 1
104 107 1
107 104 1
104 109 1
109 104 1
104 138 1
138 104 1
104 337 1
337 104 1
104 481 1
481 104 1
104 714 1
714 104 1
105 110 1
110 105 1
105 139 1
139 105 1
105 338 1
338 105 1
105 482 1
482 105 1
105 715 1
715 105 1
106 107 1
107 106 1
106 140 1
140 106 1
106 339 1
339 106 1
106 483 1
483 106 1
106 716 1
716 106 1
107 141 1
141 107 1
107 340 1
340 107 1
107 484 1
484 107 1
107 717 1
717 107 1
108 109 1
109 108 1
108 110 1
110 108 1
108 142 1
142 108 1
108 341 1
341 108 1
108 485 1
485 108 1
108 718 1
718 108 1
109 143 1
143 109 1
109 342 1
342 109 1
109 486 1
486 109 1
109 719 1
719 109 1
110 144 1
144 110 1
110 343 1
343 110 1
110 487 1
487 110 1
110 720 1
720 110 1
111 112 1
112 111 1
111 113 1
113 111 1
111 114 1
114 111 1
111 116 1
116 111 1
111 119 1
119 111 1
111 344 1
344 111 1
111 488 1
488 111 1
111 721 1
721 111 1
112 115 1
115 112 1
112 117 1
117 112 1
112 120 1
120 112 1
112 345 1
345 112 1
112 489 1
489 112 1
112 722 1
722 112 1
113 118 1
118 113 1
113 121 1
121 113 1
113 346 1
346 113 1
113 490 1
490 113 1
113 723 1
723 113 1
114 115 1
115 114 1
114 122 1
122 114 1
114 347 1
347 114 1
114 491 1
491 114 1
114 724 1
724 114 1
115 123 1
123 115 1
115 348 1
348 115 1
115 492 1
492 115 1
115 725 1
725 115 1
116 117 1
117 116 1
116 118 1
118 116 1
116 349 1
349 116 1
116 493 1
493 116 1
116 726 1
726 116 1
117 350 1
350 117 1
117 494 1
494 117 1
117 727 1
727 117 1
118 351 1
351 118 1
118 495 1
495 118 1
118 728 1
728 118 1
119 120 1
120 119 1
119 121 1
121 119 1
119 122 1
122 119 1
119 352 1
352 119 1
119 496 1
496 119 1
119 729 1
729 119 1
120 123 1
123 120 1
120 353 1
353 120 1
120 497 1
497 120 1
120 730 1
730 120 1
121 354 1
354 121 1
121 498 1
498 121 1
121 731 1
731 121 1
122 123 1
123 122 1
122 355 1
355 122 1
122 499 1
499 122 1
122 732 1
732 122 1
123 356 1
356 123 1
123 500 1
500 123 1
123 733 1
733 123 1
124 125 1
125 124 1
124 126 1
126 124 1
124 127 1
127 124 1
124 129 1
129 124 1
124 132 1
132 124 1
124 137 1
137 124 1
124 357 1
357 124 1
124 501 1
501 124 1
124 734 1
734 124 1
125 128 1
128 125 1
125 130 1
130 125 1
125 133 1
133 125 1
125 138 1
138 125 1
125 358 1
358 125 1
125 502 1
502 125 1
125 735 1
735 125 1
126 131 1
131 126 1
126 134 1
134 126 1
126 139 1
139 126 1
126 359 1
359 126 1
126 503 1
503 126 1
126 736 1
736 126 1
127 128 1
128 127 1
127 135 1
135 127 1
127 140 1
140 127 1
127 360 1
360 127 1
127 504 1
504 127 1
127 737 1
737 127 1
128 136 1
136 128 1
128 141 1
141 128 1
128 361 1
361 128 1
128 505 1
505 128 1
128 738 1
738 128 1
129 130 1
130 129 1
129 131 1
131 129 1
129 142 1
142 129 1
129 362 1
362 129 1
129 506 1
506 129 1
129 739 1
739 129 1
130 143 1
143 130 1
130 363 1
363 130 1
130 507 1
507 130 1
130 740 1
740 130 1
131 144 1
144 131 1
131 364 1
364 131 1
131 508 1
508 131 1
131 741 1
741 131 1
132 133 1
133 132 1
132 134 1
134 132 1
132 135 1
135 132 1
132 365 1
365 132 1
132 509 1
509 132 1
132 742 1
742 132 1
133 136 1
136 133 1
133 366 1
366 133 1
133 510 1
510 133 1
133 743 1
743 133 1
134 367 1
367 134 1
134 511 1
511 134 1
134 744 1
744 134 1
135 136 1
136 135 1
135 368 1
368 135 1
135 512 1
512 135 1
135 745 1
745 135 1
136 369 1
369 136 1
136 513 1
513 136 1
136 746 1
746 136 1
137 138 1
138 137 1
137 139 1
139 137 1
137 140 1
140 137 1
137 142 1
142 137 1
137 370 1
370 137 1
137 514 1
514 137 1
137 747 1
747 137 1
138 141 1
141 138 1
138 143 1
143 138 1
138 371 1
371 138 1
138 515 1
515 138 1
138 748 1
748 138 1
139 144 1
144 139 1
139 372 1
372 139 1
139 516 1
516 139 1
139 749 1
749 139 1
140 141 1
141 140 1
140 373 1
373 140 1
140 517 1
517 140 1
140 750 1
750 140 1
141 374 1
374 141 1
141 518 1
518 141 1
141 751 1
751 141 1
142 143 1
143 142 1
142 144 1
144 142 1
142 375 1
375 142 1
142 519 1
519 142 1
142 752 1
752 142 1
143 376 1
376 143 1
143 520 1
520 143 1
143 753 1
753 143 1
144 377 1
377 144 1
144 521 1
521 144 1
144 754 1
754 144 1
145 146 1
146 145 1
145 147 1
147 145 1
145 148 1
148 145 1
145 150 1
150 145 1
145 153 1
153 145 1
145 158 1
158 145 1
145 166 1
166 145 1
145 179 1
179 145 1
145 200 1
200 145 1
145 522 1
522 145 1
145 755 1
755 145 1
146 149 1
149 146 1
146 151 1
151 146 1
146 154 1
154 146 1
146 159 1
159 146 1
146 167 1
167 146 1
146 180 1
180 146 1
146 201 1
201 146 1
146 523 1
523 146 1
146 756 1
756 146 1
147 152 1
152 147 1
147 155 1
155 147 1
147 160 1
160 147 1
147 168 1
168 147 1
147 181 1
181 147 1
147 202 1
202 147 1
147 524 1
524 147 1
147 757 1
757 147 1
148 149 1
149 148 1
148 156 1
156 148 1
148 161 1
161 148 1
148 169 1
169 148 1
148 182 1
182 148 1
148 203 1
203 148 1
148 525 1
525 148 1
148 758 1
758 148 1
149 157 1
157 149 1
149 162 1
162 149 1
149 170 1
170 149 1
149 183 1
183 149 1
149 204 1
204 149 1
149 526 1
526 149 1
149 759 1
759 149 1
150 151 1
151 150 1
150 152 1
152 150 1
150 163 1
163 150 1
150 171 1
171 150 1
150 184 1
184 150 1
150 205 1
205 150 1
150 527 1
527 150 1
150 760 1
760 150 1
151 164 1
164 151 1
151 172 1
172 151 1
151 185 1
185 151 1
151 206 1
206 151 1
151 528 1
528 151 1
151 761 1
761 151 1
152 165 1
165 152 1
152 173 1
173 152 1
152 186 1
186 152 1
152 207 1
207 152 1
152 529 1
529 152 1
152 762 1
762 152 1
153 154 1
154 153 1
153 155 1
155 153 1
153 156 1
156 153 1
153 174 1
174 153 1
153 187 1
187 153 1
153 208 1
208 153 1
153 530 1
530 153 1
153 763 1
763 153 1
154 157 1
157 154 1
154 175 1
175 154 1
154 188 1
188 154 1
154 209 1
209 154 1
154 531 1
531 154 1
154 764 1
764 154 1
155 176 1
176 155 1
155 189 1
189 155 1
155 210 1
210 155 1
155 532 1
532 155 1
155 765 1
765 155 1
156 157 1
157 156 1
156 177 1
177 156 1
156 190 1
190 156 1
156 211 1
211 156 1
156 533 1
533 156 1
156 766 1
766 156 1
157 178 1
178 157 1
157 191 1
191 157 1
157 212 1
212 157 1
157 534 1
534 157 1
157 767 1
767 157 1
158 159 1
159 158 1
158 160 1
160 158 1
158 161 1
161 158 1
158 163 1
163 158 1
158 192 1
192 158 1
158 213 1
213 158 1
158 535 1
535 158 1
158 768 1
768 158 1
159 162 1
162 159 1
159 164 1
164 159 1
159 193 1
193 159 1
159 214 1
214 159 1
159 536 1
536 159 1
159 769 1
769 159 1
160 165 1
165 160 1
160 194 1
194 160 1
160 215 1
215 160 1
160 537 1
537 160 1
160 770 1
770 160 1
161 162 1
162 161 1
161 195 1
195 161 1
161 216 1
216 161 1
161 538 1
538 161 1
161 771 1
771 161 1
162 196 1
196 162 1
162 217 1
217 162 1
162 539 1
539 162 1
162 772 1
772 162 1
163 164 1
164 163 1
163 165 1
165 163 1
163 197 1
197 163 1
163 218 1
218 163 1
163 540 1
540 163 1
163 773 1
773 163 1
164 198 1
198 164 1
164 219 1
219 164 1
164 541 1
541 164 1
164 774 1
774 164 1
165 199 1
199 165 1
165 220 1
220 165 1
165 542 1
542 165 1
165 775 1
775 165 1
166 167 1
167 166 1
166 168 1
168 166 1
166 169 1
169 166 1
166 171 1
171 166 1
166 174 1
174 166 1
166 221 1
221 166 1
166 543 1
543 166 1
166 776 1
776 166 1
167 170 1
170 167 1
167 172 1
172 167 1
167 175 1
175 167 1
167 222 1
222 167 1
167 544 1
544 167 1
167 777 1
777 167 1
168 173 1
173 168 1
168 176 1
176 168 1
168 223 1
223 168 1
168 545 1
545 168 1
168 778 1
778 168 1
169 170 1
170 169 1
169 177 1
177 169 1
169 224 1
224 169 1
169 546 1
546 169 1
169 779 1
779 169 1
170 178 1
178 170 1
170 225 1
225 170 1
170 547 1
547 170 1
170 780 1
780 170 1
171 172 1
172 171 1
171 173 1
173 171 1
171 226 1
226 171 1
171 548 1
548 171 1
171 781 1
781 171 1
172 227 1
227 172 1
172 549 1
549 172 1
172 782 1
782 172 1
173 228 1
228 173 1
173 550 1
550 173 1
173 783 1
783 173 1
174 175 1
175 174 1
174 176 1
176 174 1
174 177 1
177 174 1
174 229 1
229 174 1
174 551 1
551 174 1
174 784 1
784 174 1
175 178 1
178 175 1
175 230 1
230 175 1
175 552 1
552 175 1
175 785 1
785 175 1
176 231 1
231 176 1
176 553 1
553 176 1
176 786 1
786 176 1
177 178 1
178 177 1
177 232 1
232 177 1
177 554 1
554 177 1
177 787 1
787 177 1
178 233 1
233 178 1
178 555 1
555 178 1
178 788 1
788 178 1
179 180 1
180 179 1
179 181 1
181 179 1
179 182 1
182 179 1
179 184 1
184 179 1
179 187 1
187 179 1
179 192 1
192 179 1
179 556 1
556 179 1
179 789 1
789 179 1
180 183 1
183 180 1
180 185 1
185 180 1
180 188 1
188 180 1
180 193 1
193 180 1
180 557 1
557 180 1
180 790 1
790 180 1
181 186 1
186 181 1
181 189 1
189 181 1
181 194 1
194 181 1
181 558 1
558 181 1
181 791 1
791 181 1
182 183 1
183 182 1
182 190 1
190 182 1
182 195 1
195 182 1
182 559 1
559 182 1
182 792 1
792 182 1
183 191 1
191 183 1
183 196 1
196 183 1
183 560 1
560 183 1
183 793 1
793 183 1
184 185 1
185 184 1
184 186 1
186 184 1
184 197 1
197 184 1
184 561 1
561 184 1
184 794 1
794 184 1
185 198 1
198 185 1
185 562 1
562 185 1
185 795 1
795 185 1
186 199 1
199 186 1
186 563 1
563 186 1
186 796 1
796 186 1
187 188 1
188 187 1
187 189 1
189 187 1
187 190 1
190 187 1
187 564 1
564 187 1
187 797 1
797 187 1
188 191 1
191 188 1
188 565 1
565 188 1
188 798 1
798 188 1
189 566 1
566 189 1
189 799 1
799 189 1
190 191 1
191 190 1
190 567 1
567 190 1
190 800 1
800 190 1
191 568 1
568 191 1
191 801 1
801 191 1
192 193 1
193 192 1
192 194 1
194 192 1
192 195 1
195 192 1
192 197 1
197 192 1
192 569 1
569 192 1
192 802 1
802 192 1
193 196 1
196 193 1
193 198 1
198 193 1
193 570 1
570 193 1
193 803 1
803 193 1
194 199 1
199 194 1
194 571 1
571 194 1
194 804 1
804 194 1
195 196 1
196 195 1
195 572 1
572 195 1
195 805 1
805 195 1
196 573 1
573 196 1
196 806 1
806 196 1
197 198 1
198 197 1
197 199 1
199 197 1
197 574 1
574 197 1
197 807 1
807 197 1
198 575 1
575 198 1
198 808 1
808 198 1
199 576 1
576 199 1
199 809 1
809 199 1
200 201 1
201 200 1
200 202 1
202 200 1
200 203 1
203 200 1
200 205 1
205 200 1
200 208 1
208 200 1
200 213 1
213 200 1
200 221 1
221 200 1
200 577 1
577 200 1
200 810 1
810 200 1
201 204 1
204 201 1
201 206 1
206 201 1
201 209 1
209 201 1
201 214 1
214 201 1
201 222 1
222 201 1
201 578 1
578 201 1
201 811 1
811 201 1
202 207 1
207 202 1
202 210 1
210 202 1
202 215 1
215 202 1
202 223 1
223 202 1
202 579 1
579 202 1
202 812 1
812 202 1
203 204 1
204 203 1
203 211 1
211 203 1
203 216 1
216 203 1
203 224 1
224 203 1
203 580 1
580 203 1
203 813 1
813 203 1
204 212 1
212 204 1
204 217 1
217 204 1
204 225 1
225 204 1
204 581 1
581 204 1
204 814 1
814 204 1
205 206 1
206 205 1
205 207 1
207 205 1
205 218 1
218 205 1
205 226 1
226 205 1
205 582 1
582 205 1
205 815 1
815 205 1
206 219 1
219 206 1
206 227 1
227 206 1
206 583 1
583 206 1
206 816 1
816 206 1
207 220 1
220 207 1
207 228 1
228 207 1
207 584 1
584 207 1
207 817 1
817 207 1
208 209 1
209 208 1
208 210 1
210 208 1
208 211 1
211 208 1
208 229 1
229 208 1
208 585 1
585 208 1
208 818 1
818 208 1
209 212 1
212 209 1
209 230 1
230 209 1
209 586 1
586 209 1
209 819 1
819 209 1
210 231 1
231 210 1
210 587 1
587 210 1
210 820 1
820 210 1
211 212 1
212 211 1
211 232 1
232 211 1
211 588 1
588 211 1
211 821 1
821 211 1
212 233 1
233 212 1
212 589 1
589 212 1
212 822 1
822 212 1
213 214 1
214 213 1
213 215 1
215 213 1
213 216 1
216 213 1
213 218 1
218 213 1
213 590 1
590 213 1
213 823 1
823 213 1
214 217 1
217 214 1
214 219 1
219 214 1
214 591 1
591 214 1
214 824 1
824 214 1
215 220 1
220 215 1
215 592 1
592 215 1
215 825 1
825 215 1
216 217 1
217 216 1
216 593 1
593 216 1
216 826 1
826 216 1
217 594 1
594 217 1
217 827 1
827 217 1
218 219 1
219 218 1
218 220 1
220 218 1
218 595 1
595 218 1
218 828 1
828 218 1
219 596 1
596 219 1
219 829 1
829 219 1
220 597 1
597 220 1
220 830 1
830 220 1
221 222 1
222 221 1
221 223 1
223 221 1
221 224 1
224 221 1
221 226 1
226 221 1
221 229 1
229 221 1
221 598 1
598 221 1
221 831 1
831 221 1
222 225 1
225 222 1
222 227 1
227 222 1
222 230 1
230 222 1
222 599 1
599 222 1
222 832 1
832 222 1
223 228 1
228 223 1
223 231 1
231 223 1
223 600 1
600 223 1
223 833 1
833 223 1
224 225 1
225 224 1
224 232 1
232 224 1
224 601 1
601 224 1
224 834 1
834 224 1
225 233 1
233 225 1
225 602 1
602 225 1
225 835 1
835 225 1
226 227 1
227 226 1
226 228 1
228 226 1
226 603 1
603 226 1
226 836 1
836 226 1
227 604 1
604 227 1
227 837 1
837 227 1
228 605 1
605 228 1
228 838 1
838 228 1
229 230 1
230 229 1
229 231 1
231 229 1
229 232 1
232 229 1
229 606 1
606 229 1
229 839 1
839 229 1
230 233 1
233 230 1
230 607 1
607 230 1
230 840 1
840 230 1
231 608 1
608 231 1
231 841 1
841 231 1
232 233 1
233 232 1
232 609 1
609 232 1
232 842 1
842 232 1
233 610 1
610 233 1
233 843 1
843 233 1
234 235 1
235 234 1
234 236 1
236 234 1
234 237 1
237 234 1
234 239 1
239 234 1
234 242 1
242 234 1
234 247 1
247 234 1
234 255 1
255 234 1
234 268 1
268 234 1
234 289 1
289 234 1
234 323 1
323 234 1
234 844 1
844 234 1
235 238 1
238 235 1
235 240 1
240 235 1
235 243 1
243 235 1
235 248 1
248 235 1
235 256 1
256 235 1
235 269 1
269 235 1
235 290 1
290 235 1
235 324 1
324 235 1
235 845 1
845 235 1
236 241 1
241 236 1
236 244 1
244 236 1
236 249 1
249 236 1
236 257 1
257 236 1
236 270 1
270 236 1
236 291 1
291 236 1
236 325 1
325 236 1
236 846 1
846 236 1
237 238 1
238 237 1
237 245 1
245 237 1
237 250 1
250 237 1
237 258 1
258 237 1
237 271 1
271 237 1
237 292 1
292 237 1
237 326 1
326 237 1
237 847 1
847 237 1
238 246 1
246 238 1
238 251 1
251 238 1
238 259 1
259 238 1
238 272 1
272 238 1
238 293 1
293 238 1
238 327 1
327 238 1
238 848 1
848 238 1
239 240 1
240 239 1
239 241 1
241 239 1
239 252 1
252 239 1
239 260 1
260 239 1
239 273 1
273 239 1
239 294 1
294 239 1
239 328 1
328 239 1
239 849 1
849 239 1
240 253 1
253 240 1
240 261 1
261 240 1
240 274 1
274 240 1
240 295 1
295 240 1
240 329 1
329 240 1
240 850 1
850 240 1
241 254 1
254 241 1
241 262 1
262 241 1
241 275 1
275 241 1
241 296 1
296 241 1
241 330 1
330 241 1
241 851 1
851 241 1
242 243 1
243 242 1
242 244 1
244 242 1
242 245 1
245 242 1
242 263 1
263 242 1
242 276 1
276 242 1
242 297 1
297 242 1
242 331 1
331 242 1
242 852 1
852 242 1
243 246 1
246 243 1
243 264 1
264 243 1
243 277 1
277 243 1
243 298 1
298 243 1
243 332 1
332 243 1
243 853 1
853 243 1
244 265 1
265 244 1
244 278 1
278 244 1
244 299 1
299 244 1
244 333 1
333 244 1
244 854 1
854 244 1
245 246 1
246 245 1
245 266 1
266 245 1
245 279 1
279 245 1
245 300 1
300 245 1
245 334 1
334 245 1
245 855 1
855 245 1
246 267 1
267 246 1
246 280 1
280 246 1
246 301 1
301 246 1
246 335 1
335 246 1
246 856 1
856 246 1
247 248 1
248 247 1
247 249 1
249 247 1
247 250 1
250 247 1
247 252 1
252 247 1
247 281 1
281 247 1
247 302 1
302 247 1
247 336 1
336 247 1
247 857 1
857 247 1
248 251 1
251 248 1
248 253 1
253 248 1
248 282 1
282 248 1
248 303 1
303 248 1
248 337 1
337 248 1
248 858 1
858 248 1
249 254 1
254 249 1
249 283 1
283 249 1
249 304 1
304 249 1
249 338 1
338 249 1
249 859 1
859 249 1
250 251 1
251 250 1
250 284 1
284 250 1
250 305 1
305 250 1
250 339 1
339 250 1
250 860 1
860 250 1
251 285 1
285 251 1
251 306 1
306 251 1
251 340 1
340 251 1
251 861 1
861 251 1
252 253 1
253 252 1
252 254 1
254 252 1
252 286 1
286 252 1
252 307 1
307 252 1
252 341 1
341 252 1
252 862 1
862 252 1
253 287 1
287 253 1
253 308 1
308 253 1
253 342 1
342 253 1
253 863 1
863 253 1
254 288 1
288 254 1
254 309 1
309 254 1
254 343 1
343 254 1
254 864 1
864 254 1
255 256 1
256 255 1
255 257 1
257 255 1
255 258 1
258 255 1
255 260 1
260 255 1
255 263 1
263 255 1
255 310 1
310 255 1
255 344 1
344 255 1
255 865 1
865 255 1
256 259 1
259 256 1
256 261 1
261 256 1
256 264 1
264 256 1
256 311 1
311 256 1
256 345 1
345 256 1
256 866 1
866 256 1
257 262 1
262 257 1
257 265 1
265 257 1
257 312 1
312 257 1
257 346 1
346 257 1
257 867 1
867 257 1
258 259 1
259 258 1
258 266 1
266 258 1
258 313 1
313 258 1
258 347 1
347 258 1
258 868 1
868 258 1
259 267 1
267 259 1
259 314 1
314 259 1
259 348 1
348 259 1
259 869 1
869 259 1
260 261 1
261 260 1
260 262 1
262 260 1
260 315 1
315 260 1
260 349 1
349 260 1
260 870 1
870 260 1
261 316 1
316 261 1
261 350 1
350 261 1
261 871 1
871 261 1
262 317 1
317 262 1
262 351 1
351 262 1
262 872 1
872 262 1
263 264 1
264 263 1
263 265 1
265 263 1
263 266 1
266 263 1
263 318 1
318 263 1
263 352 1
352 263 1
263 873 1
873 263 1
264 267 1
267 264 1
264 319 1
319 264 1
264 353 1
353 264 1
264 874 1
874 264 1
265 320 1
320 265 1
265 354 1
354 265 1
265 875 1
875 265 1
266 267 1
267 266 1
266 321 1
321 266 1
266 355 1
355 266 1
266 876 1
876 266 1
267 322 1
322 267 1
267 356 1
356 267 1
267 877 1
877 267 1
268 269 1
269 268 1
268 270 1
270 268 1
268 271 1
271 268 1
268 273 1
273 268 1
268 276 1
276 268 1
268 281 1
281 268 1
268 357 1
357 268 1
268 878 1
878 268 1
269 272 1
272 269 1
269 274 1
274 269 1
269 277 1
277 269 1
269 282 1
282 269 1
269 358 1
358 269 1
269 879 1
879 269 1
270 275 1
275 270 1
270 278 1
278 270 1
270 283 1
283 270 1
270 359 1
359 270 1
270 880 1
880 270 1
271 272 1
272 271 1
271 279 1
279 271 1
271 284 1
284 271 1
271 360 1
360 271 1
271 881 1
881 271 1
272 280 1
280 272 1
272 285 1
285 272 1
272 361 1
361 272 1
272 882 1
882 272 1
273 274 1
274 273 1
273 275 1
275 273 1
273 286 1
286 273 1
273 362 1
362 273 1
273 883 1
883 273 1
274 287 1
287 274 1
274 363 1
363 274 1
274 884 1
884 274 1
275 288 1
288 275 1
275 364 1
364 275 1
275 885 1
885 275 1
276 277 1
277 276 1
276 278 1
278 276 1
276 279 1
279 276 1
276 365 1
365 276 1
276 886 1
886 276 1
277 280 1
280 277 1
277 366 1
366 277 1
277 887 1
887 277 1
278 367 1
367 278 1
278 888 1
888 278 1
279 280 1
280 279 1
279 368 1
368 279 1
279 889 1
889 279 1
280 369 1
369 280 1
280 890 1
890 280 1
281 282 1
282 281 1
281 283 1
283 281 1
281 284 1
284 281 1
281 286 1
286 281 1
281 370 1
370 281 1
281 891 1
891 281 1
282 285 1
285 282 1
282 287 1
287 282 1
282 371 1
371 282 1
282 892 1
892 282 1
283 288 1
288 283 1
283 372 1
372 283 1
283 893 1
893 283 1
284 285 1
285 284 1
284 373 1
373 284 1
284 894 1
894 284 1
285 374 1
374 285 1
285 895 1
895 285 1
286 287 1
287 286 1
286 288 1
288 286 1
286 375 1
375 286 1
286 896 1
896 286 1
287 376 1
376 287 1
287 897 1
897 287 1
288 377 1
377 288 1
288 898 1
898 288 1
289 290 1
290 289 1
289 291 1
291 289 1
289 292 1
292 289 1
289 294 1
294 289 1
289 297 1
297 289 1
289 302 1
302 289 1
289 310 1
310 289 1
289 899 1
899 289 1
290 293 1
293 290 1
290 295 1
295 290 1
290 298 1
298 290 1
290 303 1
303 290 1
290 311 1
311 290 1
290 900 1
900 290 1
291 296 1
296 291 1
291 299 1
299 291 1
291 304 1
304 291 1
291 312 1
312 291 1
291 901 1
901 291 1
292 293 1
293 292 1
292 300 1
300 292 1
292 305 1
305 292 1
292 313 1
313 292 1
292 902 1
902 292 1
293 301 1
301 293 1
293 306 1
306 293 1
293 314 1
314 293 1
293 903 1
903 293 1
294 295 1
295 294 1
294 296 1
296 294 1
294 307 1
307 294 1
294 315 1
315 294 1
294 904 1
904 294 1
295 308 1
308 295 1
295 316 1
316 295 1
295 905 1
905 295 1
296 309 1
309 296 1
296 317 1
317 296 1
296 906 1
906 296 1
297 298 1
298 297 1
297 299 1
299 297 1
297 300 1
300 297 1
297 318 1
318 297 1
297 907 1
907 297 1
298 301 1
301 298 1
298 319 1
319 298 1
298 908 1
908 298 1
299 320 1
320 299 1
299 909 1
909 299 1
300 301 1
301 300 1
300 321 1
321 300 1
300 910 1
910 300 1
301 322 1
322 301 1
301 911 1
911 301 1
302 303 1
303 302 1
302 304 1
304 302 1
302 305 1
305 302 1
302 307 1
307 302 1
302 912 1
912 302 1
303 306 1
306 303 1
303 308 1
308 303 1
303 913 1
913 303 1
304 309 1
309 304 1
304 914 1
914 304 1
305 306 1
306 305 1
305 915 1
915 305 1
306 916 1
916 306 1
307 308 1
308 307 1
307 309 1
309 307 1
307 917 1
917 307 1
308 918 1
918 308 1
309 919 1
919 309 1
310 311 1
311 310 1
310 312 1
312 310 1
310 313 1
313 310 1
310 315 1
315 310 1
310 318 1
318 310 1
310 920 1
920 310 1
311 314 1
314 311 1
311 316 1
316 311 1
311 319 1
319 311 1
311 921 1
921 311 1
312 317 1
317 312 1
312 320 1
320 312 1
312 922 1
922 312 1
313 314 1
314 313 1
313 321 1
321 313 1
313 923 1
923 313 1
314 322 1
322 314 1
314 924 1
924 314 1
315 316 1
316 315 1
315 317 1
317 315 1
315 925 1
925 315 1
316 926 1
926 316 1
317 927 1
927 317 1
318 319 1
319 318 1
318 320 1
320 318 1
318 321 1
321 318 1
318 928 1
928 318 1
319 322 1
322 319 1
319 929 1
929 319 1
320 930 1
930 320 1
321 322 1
322 321 1
321 931 1
931 321 1
322 932 1
932 322 1
323 324 1
324 323 1
323 325 1
325 323 1
323 326 1
326 323 1
323 328 1
328 323 1
323 331 1
331 323 1
323 336 1
336 323 1
323 344 1
344 323 1
323 357 1
357 323 1
323 933 1
933 323 1
324 327 1
327 324 1
324 329 1
329 324 1
324 332 1
332 324 1
324 337 1
337 324 1
324 345 1
345 324 1
324 358 1
358 324 1
324 934 1
934 324 1
325 330 1
330 325 1
325 333 1
333 325 1
325 338 1
338 325 1
325 346 1
346 325 1
325 359 1
359 325 1
325 935 1
935 325 1
326 327 1
327 326 1
326 334 1
334 326 1
326 339 1
339 326 1
326 347 1
347 326 1
326 360 1
360 326 1
326 936 1
936 326 1
327 335 1
335 327 1
327 340 1
340 327 1
327 348 1
348 327 1
327 361 1
361 327 1
327 937 1
937 327 1
328 329 1
329 328 1
328 330 1
330 328 1
328 341 1
341 328 1
328 349 1
349 328 1
328 362 1
362 328 1
328 938 1
938 328 1
329 342 1
342 329 1
329 350 1
350 329 1
329 363 1
363 329 1
329 939 1
939 329 1
330 343 1
343 330 1
330 351 1
351 330 1
330 364 1
364 330 1
330 940 1
940 330 1
331 332 1
332 331 1
331 333 1
333 331 1
331 334 1
334 331 1
331 352 1
352 331 1
331 365 1
365 331 1
331 941 1
941 331 1
332 335 1
335 332 1
332 353 1
353 332 1
332 366 1
366 332 1
332 942 1
942 332 1
333 354 1
354 333 1
333 367 1
367 333 1
333 943 1
943 333 1
334 335 1
335 334 1
334 355 1
355 334 1
334 368 1
368 334 1
334 944 1
944 334 1
335 356 1
356 335 1
335 369 1
369 335 1
335 945 1
945 335 1
336 337 1
337 336 1
336 338 1
338 336 1
336 339 1
339 336 1
336 341 1
341 336 1
336 370 1
370 336 1
336 946 1
946 336 1
337 340 1
340 337 1
337 342 1
342 337 1
337 371 1
371 337 1
337 947 1
947 337 1
338 343 1
343 338 1
338 372 1
372 338 1
338 948 1
948 338 1
339 340 1
340 339 1
339 373 1
373 339 1
339 949 1
949 339 1
340 374 1
374 340 1
340 950 1
950 340 1
341 342 1
342 341 1
341 343 1
343 341 1
341 375 1
375 341 1
341 951 1
951 341 1
342 376 1
376 342 1
342 952 1
952 342 1
343 377 1
377 343 1
343 953 1
953 343 1
344 345 1
345 344 1
344 346 1
346 344 1
344 347 1
347 344 1
344 349 1
349 344 1
344 352 1
352 344 1
344 954 1
954 344 1
345 348 1
348 345 1
345 350 1
350 345 1
345 353 1
353 345 1
345 955 1
955 345 1
346 351 1
351 346 1
346 354 1
354 346 1
346 956 1
956 346 1
347 348 1
348 347 1
347 355 1
355 347 1
347 957 1
957 347 1
348 356 1
356 348 1
348 958 1
958 348 1
349 350 1
350 349 1
349 351 1
351 349 1
349 959 1
959 349 1
350 960 1
960 350 1
351 961 1
961 351 1
352 353 1
353 352 1
352 354 1
354 352 1
352 355 1
355 352 1
352 962 1
962 352 1
353 356 1
356 353 1
353 963 1
963 353 1
354 964 1
964 354 1
355 356 1
356 355 1
355 965 1
965 355 1
356 966 1
966 356 1
357 358 1
358 357 1
357 359 1
359 357 1
357 360 1
360 357 1
357 362 1
362 357 1
357 365 1
365 357 1
357 370 1
370 357 1
357 967 1
967 357 1
358 361 1
361 358 1
358 363 1
363 358 1
358 366 1
366 358 1
358 371 1
371 358 1
358 968 1
968 358 1
359 364 1
364 359 1
359 367 1
367 359 1
359 372 1
372 359 1
359 969 1
969 359 1
360 361 1
361 360 1
360 368 1
368 360 1
360 373 1
373 360 1
360 970 1
970 360 1
361 369 1
369 361 1
361 374 1
374 361 1
361 971 1
971 361 1
362 363 1
363 362 1
362 364 1
364 362 1
362 375 1
375 362 1
362 972 1
972 362 1
363 376 1
376 363 1
363 973 1
973 363 1
364 377 1
377 364 1
364 974 1
974 364 1
365 366 1
366 365 1
365 367 1
367 365 1
365 368 1
368 365 1
365 975 1
975 365 1
366 369 1
369 366 1
366 976 1
976 366 1
367 977 1
977 367 1
368 369 1
369 368 1
368 978 1
978 368 1
369 979 1
979 369 1
370 371 1
371 370 1
370 372 1
372 370 1
370 373 1
373 370 1
370 375 1
375 370 1
370 980 1
980 370 1
371 374 1
374 371 1
371 376 1
376 371 1
371 981 1
981 371 1
372 377 1
377 372 1
372 982 1
982 372 1
373 374 1
374 373 1
373 983 1
983 373 1
374 984 1
984 374 1
375 376 1
376 375 1
375 377 1
377 375 1
375 985 1
985 375 1
376 986 1
986 376 1
377 987 1
987 377 1
378 379 1
379 378 1
378 380 1
380 378 1
378 381 1
381 378 1
378 383 1
383 378 1
378 386 1
386 378 1
378 391 1
391 378 1
378 399 1
399 378 1
378 412 1
412 378 1
378 433 1
433 378 1
378 467 1
467 378 1
378 522 1
522 378 1
379 382 1
382 379 1
379 384 1
384 379 1
379 387 1
387 379 1
379 392 1
392 379 1
379 400 1
400 379 1
379 413 1
413 379 1
379 434 1
434 379 1
379 468 1
468 379 1
379 523 1
523 379 1
380 385 1
385 380 1
380 388 1
388 380 1
380 393 1
393 380 1
380 401 1
401 380 1
380 414 1
414 380 1
380 435 1
435 380 1
380 469 1
469 380 1
380 524 1
524 380 1
381 382 1
382 381 1
381 389 1
389 381 1
381 394 1
394 381 1
381 402 1
402 381 1
381 415 1
415 381 1
381 436 1
436 381 1
381 470 1
470 381 1
381 525 1
525 381 1
382 390 1
390 382 1
382 395 1
395 382 1
382 403 1
403 382 1
382 416 1
416 382 1
382 437 1
437 382 1
382 471 1
471 382 1
382 526 1
526 382 1
383 384 1
384 383 1
383 385 1
385 383 1
383 396 1
396 383 1
383 404 1
404 383 1
383 417 1
417 383 1
383 438 1
438 383 1
383 472 1
472 383 1
383 527 1
527 383 1
384 397 1
397 384 1
384 405 1
405 384 1
384 418 1
418 384 1
384 439 1
439 384 1
384 473 1
473 384 1
384 528 1
528 384 1
385 398 1
398 385 1
385 406 1
406 385 1
385 419 1
419 385 1
385 440 1
440 385 1
385 474 1
474 385 1
385 529 1
529 385 1
386 387 1
387 386 1
386 388 1
388 386 1
386 389 1
389 386 1
386 407 1
407 386 1
386 420 1
420 386 1
386 441 1
441 386 1
386 475 1
475 386 1
386 530 1
530 386 1
387 390 1
390 387 1
387 408 1
408 387 1
387 421 1
421 387 1
387 442 1
442 387 1
387 476 1
476 387 1
387 531 1
531 387 1
388 409 1
409 388 1
388 422 1
422 388 1
388 443 1
443 388 1
388 477 1
477 388 1
388 532 1
532 388 1
389 390 1
390 389 1
389 410 1
410 389 1
389 423 1
423 389 1
389 444 1
444 389 1
389 478 1
478 389 1
389 533 1
533 389 1
390 411 1
411 390 1
390 424 1
424 390 1
390 445 1
445 390 1
390 479 1
479 390 1
390 534 1
534 390 1
391 392 1
392 391 1
391 393 1
393 391 1
391 394 1
394 391 1
391 396 1
396 391 1
391 425 1
425 391 1
391 446 1
446 391 1
391 480 1
480 391 1
391 535 1
535 391 1
392 395 1
395 392 1
392 397 1
397 392 1
392 426 1
426 392 1
392 447 1
447 392 1
392 481 1
481 392 1
392 536 1
536 392 1
393 398 1
398 393 1
393 427 1
427 393 1
393 448 1
448 393 1
393 482 1
482 393 1
393 537 1
537 393 1
394 395 1
395 394 1
394 428 1
428 394 1
394 449 1
449 394 1
394 483 1
483 394 1
394 538 1
538 394 1
395 429 1
429 395 1
395 450 1
450 395 1
395 484 1
484 395 1
395 539 1
539 395 1
396 397 1
397 396 1
396 398 1
398 396 1
396 430 1
430 396 1
396 451 1
451 396 1
396 485 1
485 396 1
396 540 1
540 396 1
397 431 1
431 397 1
397 452 1
452 397 1
397 486 1
486 397 1
397 541 1
541 397 1
398 432 1
432 398 1
398 453 1
453 398 1
398 487 1
487 398 1
398 542 1
542 398 1
399 400 1
400 399 1
399 401 1
401 399 1
399 402 1
402 399 1
399 404 1
404 399 1
399 407 1
407 399 1
399 454 1
454 399 1
399 488 1
488 399 1
399 543 1
543 399 1
400 403 1
403 400 1
400 405 1
405 400 1
400 408 1
408 400 1
400 455 1
455 400 1
400 489 1
489 400 1
400 544 1
544 400 1
401 406 1
406 401 1
401 409 1
409 401 1
401 456 1
456 401 1
401 490 1
490 401 1
401 545 1
545 401 1
402 403 1
403 402 1
402 410 1
410 402 1
402 457 1
457 402 1
402 491 1
491 402 1
402 546 1
546 402 1
403 411 1
411 403 1
403 458 1
458 403 1
403 492 1
492 403 1
403 547 1
547 403 1
404 405 1
405 404 1
404 406 1
406 404 1
404 459 1
459 404 1
404 493 1
493 404 1
404 548 1
548 404 1
405 460 1
460 405 1
405 494 1
494 405 1
405 549 1
549 405 1
406 461 1
461 406 1
406 495 1
495 406 1
406 550 1
550 406 1
407 408 1
408 407 1
407 409 1
409 407 1
407 410 1
410 407 1
407 462 1
462 407 1
407 496 1
496 407 1
407 551 1
551 407 1
408 411 1
411 408 1
408 463 1
463 408 1
408 497 1
497 408 1
408 552 1
552 408 1
409 464 1
464 409 1
409 498 1
498 409 1
409 553 1
553 409 1
410 411 1
411 410 1
410 465 1
465 410 1
410 499 1
499 410 1
410 554 1
554 410 1
411 466 1
466 411 1
411 500 1
500 411 1
411 555 1
555 411 1
412 413 1
413 412 1
412 414 1
414 412 1
412 415 1
415 412 1
412 417 1
417 412 1
412 420 1
420 412 1
412 425 1
425 412 1
412 501 1
501 412 1
412 556 1
556 412 1
413 416 1
416 413 1
413 418 1
418 413 1
413 421 1
421 413 1
413 426 1
426 413 1
413 502 1
502 413 1
413 557 1
557 413 1
414 419 1
419 414 1
414 422 1
422 414 1
414 427 1
427 414 1
414 503 1
503 414 1
414 558 1
558 414 1
415 416 1
416 415 1
415 423 1
423 415 1
415 428 1
428 415 1
415 504 1
504 415 1
415 559 1
559 415 1
416 424 1
424 416 1
416 429 1
429 416 1
416 505 1
505 416 1
416 560 1
560 416 1
417 418 1
418 417 1
417 419 1
419 417 1
417 430 1
430 417 1
417 506 1
506 417 1
417 561 1
561 417 1
418 431 1
431 418 1
418 507 1
507 418 1
418 562 1
562 418 1
419 432 1
432 419 1
419 508 1
508 419 1
419 563 1
563 419 1
420 421 1
421 420 1
420 422 1
422 420 1
420 423 1
423 420 1
420 509 1
509 420 1
420 564 1
564 420 1
421 424 1
424 421 1
421 510 1
510 421 1
421 565 1
565 421 1
422 511 1
511 422 1
422 566 1
566 422 1
423 424 1
424 423 1
423 512 1
512 423 1
423 567 1
567 423 1
424 513 1
513 424 1
424 568 1
568 424 1
425 426 1
426 425 1
425 427 1
427 425 1
425 428 1
428 425 1
425 430 1
430 425 1
425 514 1
514 425 1
425 569 1
569 425 1
426 429 1
429 426 1
426 431 1
431 426 1
426 515 1
515 426 1
426 570 1
570 426 1
427 432 1
432 427 1
427 516 1
516 427 1
427 571 1
571 427 1
428 429 1
429 428 1
428 517 1
517 428 1
428 572 1
572 428 1
429 518 1
518 429 1
429 573 1
573 429 1
430 431 1
431 430 1
430 432 1
432 430 1
430 519 1
519 430 1
430 574 1
574 430 1
431 520 1
520 431 1
431 575 1
575 431 1
432 521 1
521 432 1
432 576 1
576 432 1
433 434 1
434 433 1
433 435 1
435 433 1
433 436 1
436 433 1
433 438 1
438 433 1
433 441 1
441 433 1
433 446 1
446 433 1
433 454 1
454 433 1
433 577 1
577 433 1
434 437 1
437 434 1
434 439 1
439 434 1
434 442 1
442 434 1
434 447 1
447 434 1
434 455 1
455 434 1
434 578 1
578 434 1
435 440 1
440 435 1
435 443 1
443 435 1
435 448 1
448 435 1
435 456 1
456 435 1
435 579 1
579 435 1
436 437 1
437 436 1
436 444 1
444 436 1
436 449 1
449 436 1
436 457 1
457 436 1
436 580 1
580 436 1
437 445 1
445 437 1
437 450 1
450 437 1
437 458 1
458 437 1
437 581 1
581 437 1
438 439 1
439 438 1
438 440 1
440 438 1
438 451 1
451 438 1
438 459 1
459 438 1
438 582 1
582 438 1
439 452 1
452 439 1
439 460 1
460 439 1
439 583 1
583 439 1
440 453 1
453 440 1
440 461 1
461 440 1
440 584 1
584 440 1
441 442 1
442 441 1
441 443 1
443 441 1
441 444 1
444 441 1
441 462 1
462 441 1
441 585 1
585 441 1
442 445 1
445 442 1
442 463 1
463 442 1
442 586 1
586 442 1
443 464 1
464 443 1
443 587 1
587 443 1
444 445 1
445 444 1
444 465 1
465 444 1
444 588 1
588 444 1
445 466 1
466 445 1
445 589 1
589 445 1
446 447 1
447 446 1
446 448 1
448 446 1
446 449 1
449 446 1
446 451 1
451 446 1
446 590 1
590 446 1
447 450 1
450 447 1
447 452 1
452 447 1
447 591 1
591 447 1
448 453 1
453 448 1
448 592 1
592 448 1
449 450 1
450 449 1
449 593 1
593 449 1
450 594 1
594 450 1
451 452 1
452 451 1
451 453 1
453 451 1
451 595 1
595 451 1
452 596 1
596 452 1
453 597 1
597 453 1
454 455 1
455 454 1
454 456 1
456 454 1
454 457 1
457 454 1
454 459 1
459 454 1
454 462 1
462 454 1
454 598 1
598 454 1
455 458 1
458 455 1
455 460 1
460 455 1
455 463 1
463 455 1
455 599 1
599 455 1
456 461 1
461 456 1
456 464 1
464 456 1
456 600 1
600 456 1
457 458 1
458 457 1
457 465 1
465 457 1
457 601 1
601 457 1
458 466 1
466 458 1
458 602 1
602 458 1
459 460 1
460 459 1
459 461 1
461 459 1
459 603 1
603 459 1
460 604 1
604 460 1
461 605 1
605 461 1
462 463 1
463 462 1
462 464 1
464 462 1
462 465 1
465 462 1
462 606 1
606 462 1
463 466 1
466 463 1
463 607 1
607 463 1
464 608 1
608 464 1
465 466 1
466 465 1
465 609 1
609 465 1
466 610 1
610 466 1
467 468 1
468 467 1
467 469 1
469 467 1
467 470 1
470 467 1
467 472 1
472 467 1
467 475 1
475 467 1
467 480 1
480 467 1
467 488 1
488 467 1
467 501 1
501 467 1
468 471 1
471 468 1
468 473 1
473 468 1
468 476 1
476 468 1
468 481 1
481 468 1
468 489 1
489 468 1
468 502 1
502 468 1
469 474 1
474 469 1
469 477 1
477 469 1
469 482 1
482 469 1
469 490 1
490 469 1
469 503 1
503 469 1
470 471 1
471 470 1
470 478 1
478 470 1
470 483 1
483 470 1
470 491 1
491 470 1
470 504 1
504 470 1
471 479 1
479 471 1
471 484 1
484 471 1
471 492 1
492 471 1
471 505 1
505 471 1
472 473 1
473 472 1
472 474 1
474 472 1
472 485 1
485 472 1
472 493 1
493 472 1
472 506 1
506 472 1
473 486 1
486 473 1
473 494 1
494 473 1
473 507 1
507 473 1
474 487 1
487 474 1
474 495 1
495 474 1
474 508 1
508 474 1
475 476 1
476 475 1
475 477 1
477 475 1
475 478 1
478 475 1
475 496 1
496 475 1
475 509 1
509 475 1
476 479 1
479 476 1
476 497 1
497 476 1
476 510 1
510 476 1
477 498 1
498 477 1
477 511 1
511 477 1
478 479 1
479 478 1
478 499 1
499 478 1
478 512 1
512 478 1
479 500 1
500 479 1
479 513 1
513 479 1
480 481 1
481 480 1
480 482 1
482 480 1
480 483 1
483 480 1
480 485 1
485 480 1
480 514 1
514 480 1
481 484 1
484 481 1
481 486 1
486 481 1
481 515 1
515 481 1
482 487 1
487 482 1
482 516 1
516 482 1
483 484 1
484 483 1
483 517 1
517 483 1
484 518 1
518 484 1
485 486 1
486 485 1
485 487 1
487 485 1
485 519 1
519 485 1
486 520 1
520 486 1
487 521 1
521 487 1
488 489 1
489 488 1
488 490 1
490 488 1
488 491 1
491 488 1
488 493 1
493 488 1
488 496 1
496 488 1
489 492 1
492 489 1
489 494 1
494 489 1
489 497 1
497 489 1
490 495 1
495 490 1
490 498 1
498 490 1
491 492 1
492 491 1
491 499 1
499 491 1
492 500 1
500 492 1
493 494 1
494 493 1
493 495 1
495 493 1
496 497 1
497 496 1
496 498 1
498 496 1
496 499 1
499 496 1
497 500 1
500 497 1
499 500 1
500 499 1
501 502 1
502 501 1
501 503 1
503 501 1
501 504 1
504 501 1
501 506 1
506 501 1
501 509 1
509 501 1
501 514 1
514 501 1
502 505 1
505 502 1
502 507 1
507 502 1
502 510 1
510 502 1
502 515 1
515 502 1
503 508 1
508 503 1
503 511 1
511 503 1
503 516 1
516 503 1
504 505 1
505 504 1
504 512 1
512 504 1
504 517 1
517 504 1
505 513 1
513 505 1
505 518 1
518 505 1
506 507 1
507 506 1
506 508 1
508 506 1
506 519 1
519 506 1
507 520 1
520 507 1
508 521 1
521 508 1
509 510 1
510 509 1
509 511 1
511 509 1
509 512 1
512 509 1
510 513 1
513 510 1
512 513 1
513 512 1
514 515 1
515 514 1
514 516 1
516 514 1
514 517 1
517 514 1
514 519 1
519 514 1
515 518 1
518 515 1
515 520 1
520 515 1
516 521 1
521 516 1
517 518 1
518 517 1
519 520 1
520 519 1
519 521 1
521 519 1
522 523 1
523 522 1
522 524 1
524 522 1
522 525 1
525 522 1
522 527 1
527 522 1
522 530 1
530 522 1
522 535 1
535 522 1
522 543 1
543 522 1
522 556 1
556 522 1
522 577 1
577 522 1
523 526 1
526 523 1
523 528 1
528 523 1
523 531 1
531 523 1
523 536 1
536 523 1
523 544 1
544 523 1
523 557 1
557 523 1
523 578 1
578 523 1
524 529 1
529 524 1
524 532 1
532 524 1
524 537 1
537 524 1
524 545 1
545 524 1
524 558 1
558 524 1
524 579 1
579 524 1
525 526 1
526 525 1
525 533 1
533 525 1
525 538 1
538 525 1
525 546 1
546 525 1
525 559 1
559 525 1
525 580 1
580 525 1
526 534 1
534 526 1
526 539 1
539 526 1
526 547 1
547 526 1
526 560 1
560 526 1
526 581 1
581 526 1
527 528 1
528 527 1
527 529 1
529 527 1
527 540 1
540 527 1
527 548 1
548 527 1
527 561 1
561 527 1
527 582 1
582 527 1
528 541 1
541 528 1
528 549 1
549 528 1
528 562 1
562 528 1
528 583 1
583 528 1
529 542 1
542 529 1
529 550 1
550 529 1
529 563 1
563 529 1
529 584 1
584 529 1
530 531 1
531 530 1
530 532 1
532 530 1
530 533 1
533 530 1
530 551 1
551 530 1
530 564 1
564 530 1
530 585 1
585 530 1
531 534 1
534 531 1
531 552 1
552 531 1
531 565 1
565 531 1
531 586 1
586 531 1
532 553 1
553 532 1
532 566 1
566 532 1
532 587 1
587 532 1
533 534 1
534 533 1
533 554 1
554 533 1
533 567 1
567 533 1
533 588 1
588 533 1
534 555 1
555 534 1
534 568 1
568 534 1
534 589 1
589 534 1
535 536 1
536 535 1
535 537 1
537 535 1
535 538 1
538 535 1
535 540 1
540 535 1
535 569 1
569 535 1
535 590 1
590 535 1
536 539 1
539 536 1
536 541 1
541 536 1
536 570 1
570 536 1
536 591 1
591 536 1
537 542 1
542 537 1
537 571 1
571 537 1
537 592 1
592 537 1
538 539 1
539 538 1
538 572 1
572 538 1
538 593 1
593 538 1
539 573 1
573 539 1
539 594 1
594 539 1
540 541 1
541 540 1
540 542 1
542 540 1
540 574 1
574 540 1
540 595 1
595 540 1
541 575 1
575 541 1
541 596 1
596 541 1
542 576 1
576 542 1
542 597 1
597 542 1
543 544 1
544 543 1
543 545 1
545 543 1
543 546 1
546 543 1
543 548 1
548 543 1
543 551 1
551 543 1
543 598 1
598 543 1
544 547 1
547 544 1
544 549 1
549 544 1
544 552 1
552 544 1
544 599 1
599 544 1
545 550 1
550 545 1
545 553 1
553 545 1
545 600 1
600 545 1
546 547 1
547 546 1
546 554 1
554 546 1
546 601 1
601 546 1
547 555 1
555 547 1
547 602 1
602 547 1
548 549 1
549 548 1
548 550 1
550 548 1
548 603 1
603 548 1
549 604 1
604 549 1
550 605 1
605 550 1
551 552 1
552 551 1
551 553 1
553 551 1
551 554 1
554 551 1
551 606 1
606 551 1
552 555 1
555 552 1
552 607 1
607 552 1
553 608 1
608 553 1
554 555 1
555 554 1
554 609 1
609 554 1
555 610 1
610 555 1
556 557 1
557 556 1
556 558 1
558 556 1
556 559 1
559 556 1
556 561 1
561 556 1
556 564 1
564 556 1
556 569 1
569 556 1
557 560 1
560 557 1
557 562 1
562 557 1
557 565 1
565 557 1
557 570 1
570 557 1
558 563 1
563 558 1
558 566 1
566 558 1
558 571 1
571 558 1
559 560 1
560 559 1
559 567 1
567 559 1
559 572 1
572 559 1
560 568 1
568 560 1
560 573 1
573 560 1
561 562 1
562 561 1
561 563 1
563 561 1
561 574 1
574 561 1
562 575 1
575 562 1
563 576 1
576 563 1
564 565 1
565 564 1
564 566 1
566 564 1
564 567 1
567 564 1
565 568 1
568 565 1
567 568 1
568 567 1
569 570 1
570 569 1
569 571 1
571 569 1
569 572 1
572 569 1
569 574 1
574 569 1
570 573 1
573 570 1
570 575 1
575 570 1
571 576 1
576 571 1
572 573 1
573 572 1
574 575 1
575 574 1
574 576 1
576 574 1
577 578 1
578 577 1
577 579 1
579 577 1
577 580 1
580 577 1
577 582 1
582 577 1
577 585 1
585 577 1
577 590 1
590 577 1
577 598 1
598 577 1
578 581 1
581 578 1
578 583 1
583 578 1
578 586 1
586 578 1
578 591 1
591 578 1
578 599 1
599 578 1
579 584 1
584 579 1
579 587 1
587 579 1
579 592 1
592 579 1
579 600 1
600 579 1
580 581 1
581 580 1
580 588 1
588 580 1
580 593 1
593 580 1
580 601 1
601 580 1
581 589 1
589 581 1
581 594 1
594 581 1
581 602 1
602 581 1
582 583 1
583 582 1
582 584 1
584 582 1
582 595 1
595 582 1
582 603 1
603 582 1
583 596 1
596 583 1
583 604 1
604 583 1
584 597 1
597 584 1
584 605 1
605 584 1
585 586 1
586 585 1
585 587 1
587 585 1
585 588 1
588 585 1
585 606 1
606 585 1
586 589 1
589 586 1
586 607 1
607 586 1
587 608 1
608 587 1
588 589 1
589 588 1
588 609 1
609 588 1
589 610 1
610 589 1
590 591 1
591 590 1
590 592 1
592 590 1
590 593 1
593 590 1
590 595 1
595 590 1
591 594 1
594 591 1
591 596 1
596 591 1
592 597 1
597 592 1
593 594 1
594 593 1
595 596 1
596 595 1
595 597 1
597 595 1
598 599 1
599 598 1
598 600 1
600 598 1
598 601 1
601 598 1
598 603 1
603 598 1
598 606 1
606 598 1
599 602 1
602 599 1
599 604 1
604 599 1
599 607 1
607 599 1
600 605 1
605 600 1
600 608 1
608 600 1
601 602 1
602 601 1
601 609 1
609 601 1
602 610 1
610 602 1
603 604 1
604 603 1
603 605 1
605 603 1
606 607 1
607 606 1
606 608 1
608 606 1
606 609 1
609 606 1
607 610 1
610 607 1
609 610 1
610 609 1
611 612 1
612 611 1
611 613 1
613 611 1
611 614 1
614 611 1
611 616 1
616 611 1
611 619 1
619 611 1
611 624 1
624 611 1
611 632 1
632 611 1
611 645 1
645 611 1
611 666 1
666 611 1
611 700 1
700 611 1
611 755 1
755 611 1
611 844 1
844 611 1
612 615 1
615 612 1
612 617 1
617 612 1
612 620 1
620 612 1
612 625 1
625 612 1
612 633 1
633 612 1
612 646 1
646 612 1
612 667 1
667 612 1
612 701 1
701 612 1
612 756 1
756 612 1
612 845 1
845 612 1
613 618 1
618 613 1
613 621 1
621 613 1
613 626 1
626 613 1
613 634 1
634 613 1
613 647 1
647 613 1
613 668 1
668 613 1
613 702 1
702 613 1
613 757 1
757 613 1
613 846 1
846 613 1
614 615 1
615 614 1
614 622 1
622 614 1
614 627 1
627 614 1
614 635 1
635 614 1
614 648 1
648 614 1
614 669 1
669 614 1
614 703 1
703 614 1
614 758 1
758 614 1
614 847 1
847 614 1
615 623 1
623 615 1
615 628 1
628 615 1
615 636 1
636 615 1
615 649 1
649 615 1
615 670 1
670 615 1
615 704 1
704 615 1
615 759 1
759 615 1
615 848 1
848 615 1
616 617 1
617 616 1
616 618 1
618 616 1
616 629 1
629 616 1
616 637 1
637 616 1
616 650 1
650 616 1
616 671 1
671 616 1
616 705 1
705 616 1
616 760 1
760 616 1
616 849 1
849 616 1
617 630 1
630 617 1
617 638 1
638 617 1
617 651 1
651 617 1
617 672 1
672 617 1
617 706 1
706 617 1
617 761 1
761 617 1
617 850 1
850 617 1
618 631 1
631 618 1
618 639 1
639 618 1
618 652 1
652 618 1
618 673 1
673 618 1
618 707 1
707 618 1
618 762 1
762 618 1
618 851 1
851 618 1
619 620 1
620 619 1
619 621 1
621 619 1
619 622 1
622 619 1
619 640 1
640 619 1
619 653 1
653 619 1
619 674 1
674 619 1
619 708 1
708 619 1
619 763 1
763 619 1
619 852 1
852 619 1
620 623 1
623 620 1
620 641 1
641 620 1
620 654 1
654 620 1
620 675 1
675 620 1
620 709 1
709 620 1
620 764 1
764 620 1
620 853 1
853 620 1
621 642 1
642 621 1
621 655 1
655 621 1
621 676 1
676 621 1
621 710 1
710 621 1
621 765 1
765 621 1
621 854 1
854 621 1
622 623 1
623 622 1
622 643 1
643 622 1
622 656 1
656 622 1
622 677 1
677 622 1
622 711 1
711 622 1
622 766 1
766 622 1
622 855 1
855 622 1
623 644 1
644 623 1
623 657 1
657 623 1
623 678 1
678 623 1
623 712 1
712 623 1
623 767 1
767 623 1
623 856 1
856 623 1
624 625 1
625 624 1
624 626 1
626 624 1
624 627 1
627 624 1
624 629 1
629 624 1
624 658 1
658 624 1
624 679 1
679 624 1
624 713 1
713 624 1
624 768 1
768 624 1
624 857 1
857 624 1
625 628 1
628 625 1
625 630 1
630 625 1
625 659 1
659 625 1
625 680 1
680 625 1
625 714 1
714 625 1
625 769 1
769 625 1
625 858 1
858 625 1
626 631 1
631 626 1
626 660 1
660 626 1
626 681 1
681 626 1
626 715 1
715 626 1
626 770 1
770 626 1
626 859 1
859 626 1
627 628 1
628 627 1
627 661 1
661 627 1
627 682 1
682 627 1
627 716 1
716 627 1
627 771 1
771 627 1
627 860 1
860 627 1
628 662 1
662 628 1
628 683 1
683 628 1
628 717 1
717 628 1
628 772 1
772 628 1
628 861 1
861 628 1
629 630 1
630 629 1
629 631 1
631 629 1
629 663 1
663 629 1
629 684 1
684 629 1
629 718 1
718 629 1
629 773 1
773 629 1
629 862 1
862 629 1
630 664 1
664 630 1
630 685 1
685 630 1
630 719 1
719 630 1
630 774 1
774 630 1
630 863 1
863 630 1
631 665 1
665 631 1
631 686 1
686 631 1
631 720 1
720 631 1
631 775 1
775 631 1
631 864 1
864 631 1
632 633 1
633 632 1
632 634 1
634 632 1
632 635 1
635 632 1
632 637 1
637 632 1
632 640 1
640 632 1
632 687 1
687 632 1
632 721 1
721 632 1
632 776 1
776 632 1
632 865 1
865 632 1
633 636 1
636 633 1
633 638 1
638 633 1
633 641 1
641 633 1
633 688 1
688 633 1
633 722 1
722 633 1
633 777 1
777 633 1
633 866 1
866 633 1
634 639 1
639 634 1
634 642 1
642 634 1
634 689 1
689 634 1
634 723 1
723 634 1
634 778 1
778 634 1
634 867 1
867 634 1
635 636 1
636 635 1
635 643 1
643 635 1
635 690 1
690 635 1
635 724 1
724 635 1
635 779 1
779 635 1
635 868 1
868 635 1
636 644 1
644 636 1
636 691 1
691 636 1
636 725 1
725 636 1
636 780 1
780 636 1
636 869 1
869 636 1
637 638 1
638 637 1
637 639 1
639 637 1
637 692 1
692 637 1
637 726 1
726 637 1
637 781 1
781 637 1
637 870 1
870 637 1
638 693 1
693 638 1
638 727 1
727 638 1
638 782 1
782 638 1
638 871 1
871 638 1
639 694 1
694 639 1
639 728 1
728 639 1
639 783 1
783 639 1
639 872 1
872 639 1
640 641 1
641 640 1
640 642 1
642 640 1
640 643 1
643 640 1
640 695 1
695 640 1
640 729 1
729 640 1
640 784 1
784 640 1
640 873 1
873 640 1
641 644 1
644 641 1
641 696 1
696 641 1
641 730 1
730 641 1
641 785 1
785 641 1
641 874 1
874 641 1
642 697 1
697 642 1
642 731 1
731 642 1
642 786 1
786 642 1
642 875 1
875 642 1
643 644 1
644 643 1
643 698 1
698 643 1
643 732 1
732 643 1
643 787 1
787 643 1
643 876 1
876 643 1
644 699 1
699 644 1
644 733 1
733 644 1
644 788 1
788 644 1
644 877 1
877 644 1
645 646 1
646 645 1
645 647 1
647 645 1
645 648 1
648 645 1
645 650 1
650 645 1
645 653 1
653 645 1
645 658 1
658 645 1
645 734 1
734 645 1
645 789 1
789 645 1
645 878 1
878 645 1
646 649 1
649 646 1
646 651 1
651 646 1
646 654 1
654 646 1
646 659 1
659 646 1
646 735 1
735 646 1
646 790 1
790 646 1
646 879 1
879 646 1
647 652 1
652 647 1
647 655 1
655 647 1
647 660 1
660 647 1
647 736 1
736 647 1
647 791 1
791 647 1
647 880 1
880 647 1
648 649 1
649 648 1
648 656 1
656 648 1
648 661 1
661 648 1
648 737 1
737 648 1
648 792 1
792 648 1
648 881 1
881 648 1
649 657 1
657 649 1
649 662 1
662 649 1
649 738 1
738 649 1
649 793 1
793 649 1
649 882 1
882 649 1
650 651 1
651 650 1
650 652 1
652 650 1
650 663 1
663 650 1
650 739 1
739 650 1
650 794 1
794 650 1
650 883 1
883 650 1
651 664 1
664 651 1
651 740 1
740 651 1
651 795 1
795 651 1
651 884 1
884 651 1
652 665 1
665 652 1
652 741 1
741 652 1
652 796 1
796 652 1
652 885 1
885 652 1
653 654 1
654 653 1
653 655 1
655 653 1
653 656 1
656 653 1
653 742 1
742 653 1
653 797 1
797 653 1
653 886 1
886 653 1
654 657 1
657 654 1
654 743 1
743 654 1
654 798 1
798 654 1
654 887 1
887 654 1
655 744 1
744 655 1
655 799 1
799 655 1
655 888 1
888 655 1
656 657 1
657 656 1
656 745 1
745 656 1
656 800 1
800 656 1
656 889 1
889 656 1
657 746 1
746 657 1
657 801 1
801 657 1
657 890 1
890 657 1
658 659 1
659 658 1
658 660 1
660 658 1
658 661 1
661 658 1
658 663 1
663 658 1
658 747 1
747 658 1
658 802 1
802 658 1
658 891 1
891 658 1
659 662 1
662 659 1
659 664 1
664 659 1
659 748 1
748 659 1
659 803 1
803 659 1
659 892 1
892 659 1
660 665 1
665 660 1
660 749 1
749 660 1
660 804 1
804 660 1
660 893 1
893 660 1
661 662 1
662 661 1
661 750 1
750 661 1
661 805 1
805 661 1
661 894 1
894 661 1
662 751 1
751 662 1
662 806 1
806 662 1
662 895 1
895 662 1
663 664 1
664 663 1
663 665 1
665 663 1
663 752 1
752 663 1
663 807 1
807 663 1
663 896 1
896 663 1
664 753 1
753 664 1
664 808 1
808 664 1
664 897 1
897 664 1
665 754 1
754 665 1
665 809 1
809 665 1
665 898 1
898 665 1
666 667 1
667 666 1
666 668 1
668 666 1
666 669 1
669 666 1
666 671 1
671 666 1
666 674 1
674 666 1
666 679 1
679 666 1
666 687 1
687 666 1
666 810 1
810 666 1
666 899 1
899 666 1
667 670 1
670 667 1
667 672 1
672 667 1
667 675 1
675 667 1
667 680 1
680 667 1
667 688 1
688 667 1
667 811 1
811 667 1
667 900 1
900 667 1
668 673 1
673 668 1
668 676 1
676 668 1
668 681 1
681 668 1
668 689 1
689 668 1
668 812 1
812 668 1
668 901 1
901 668 1
669 670 1
670 669 1
669 677 1
677 669 1
669 682 1
682 669 1
669 690 1
690 669 1
669 813 1
813 669 1
669 902 1
902 669 1
670 678 1
678 670 1
670 683 1
683 670 1
670 691 1
691 670 1
670 814 1
814 670 1
670 903 1
903 670 1
671 672 1
672 671 1
671 673 1
673 671 1
671 684 1
684 671 1
671 692 1
692 671 1
671 815 1
815 671 1
671 904 1
904 671 1
672 685 1
685 672 1
672 693 1
693 672 1
672 816 1
816 672 1
672 905 1
905 672 1
673 686 1
686 673 1
673 694 1
694 673 1
673 817 1
817 673 1
673 906 1
906 673 1
674 675 1
675 674 1
674 676 1
676 674 1
674 677 1
677 674 1
674 695 1
695 674 1
674 818 1
818 674 1
674 907 1
907 674 1
675 678 1
678 675 1
675 696 1
696 675 1
675 819 1
819 675 1
675 908 1
908 675 1
676 697 1
697 676 1
676 820 1
820 676 1
676 909 1
909 676 1
677 678 1
678 677 1
677 698 1
698 677 1
677 821 1
821 677 1
677 910 1
910 677 1
678 699 1
699 678 1
678 822 1
822 678 1
678 911 1
911 678 1
679 680 1
680 679 1
679 681 1
681 679 1
679 682 1
682 679 1
679 684 1
684 679 1
679 823 1
823 679 1
679 912 1
912 679 1
680 683 1
683 680 1
680 685 1
685 680 1
680 824 1
824 680 1
680 913 1
913 680 1
681 686 1
686 681 1
681 825 1
825 681 1
681 914 1
914 681 1
682 683 1
683 682 1
682 826 1
826 682 1
682 915 1
915 682 1
683 827 1
827 683 1
683 916 1
916 683 1
684 685 1
685 684 1
684 686 1
686 684 1
684 828 1
828 684 1
684 917 1
917 684 1
685 829 1
829 685 1
685 918 1
918 685 1
686 830 1
830 686 1
686 919 1
919 686 1
687 688 1
688 687 1
687 689 1
689 687 1
687 690 1
690 687 1
687 692 1
692 687 1
687 695 1
695 687 1
687 831 1
831 687 1
687 920 1
920 687 1
688 691 1
691 688 1
688 693 1
693 688 1
688 696 1
696 688 1
688 832 1
832 688 1
688 921 1
921 688 1
689 694 1
694 689 1
689 697 1
697 689 1
689 833 1
833 689 1
689 922 1
922 689 1
690 691 1
691 690 1
690 698 1
698 690 1
690 834 1
834 690 1
690 923 1
923 690 1
691 699 1
699 691 1
691 835 1
835 691 1
691 924 1
924 691 1
692 693 1
693 692 1
692 694 1
694 692 1
692 836 1
836 692 1
692 925 1
925 692 1
693 837 1
837 693 1
693 926 1
926 693 1
694 838 1
838 694 1
694 927 1
927 694 1
695 696 1
696 695 1
695 697 1
697 695 1
695 698 1
698 695 1
695 839 1
839 695 1
695 928 1
928 695 1
696 699 1
699 696 1
696 840 1
840 696 1
696 929 1
929 696 1
697 841 1
841 697 1
697 930 1
930 697 1
698 699 1
699 698 1
698 842 1
842 698 1
698 931 1
931 698 1
699 843 1
843 699 1
699 932 1
932 699 1
700 701 1
701 700 1
700 702 1
702 700 1
700 703 1
703 700 1
700 705 1
705 700 1
700 708 1
708 700 1
700 713 1
713 700 1
700 721 1
721 700 1
700 734 1
734 700 1
700 933 1
933 700 1
701 704 1
704 701 1
701 706 1
706 701 1
701 709 1
709 701 1
701 714 1
714 701 1
701 722 1
722 701 1
701 735 1
735 701 1
701 934 1
934 701 1
702 707 1
707 702 1
702 710 1
710 702 1
702 715 1
715 702 1
702 723 1
723 702 1
702 736 1
736 702 1
702 935 1
935 702 1
703 704 1
704 703 1
703 711 1
711 703 1
703 716 1
716 703 1
703 724 1
724 703 1
703 737 1
737 703 1
703 936 1
936 703 1
704 712 1
712 704 1
704 717 1
717 704 1
704 725 1
725 704 1
704 738 1
738 704 1
704 937 1
937 704 1
705 706 1
706 705 1
705 707 1
707 705 1
705 718 1
718 705 1
705 726 1
726 705 1
705 739 1
739 705 1
705 938 1
938 705 1
706 719 1
719 706 1
706 727 1
727 706 1
706 740 1
740 706 1
706 939 1
939 706 1
707 720 1
720 707 1
707 728 1
728 707 1
707 741 1
741 707 1
707 940 1
940 707 1
708 709 1
709 708 1
708 710 1
710 708 1
708 711 1
711 708 1
708 729 1
729 708 1
708 742 1
742 708 1
708 941 1
941 708 1
709 712 1
712 709 1
709 730 1
730 709 1
709 743 1
743 709 1
709 942 1
942 709 1
710 731 1
731 710 1
710 744 1
744 710 1
710 943 1
943 710 1
711 712 1
712 711 1
711 732 1
732 711 1
711 745 1
745 711 1
711 944 1
944 711 1
712 733 1
733 712 1
712 746 1
746 712 1
712 945 1
945 712 1
713 714 1
714 713 1
713 715 1
715 713 1
713 716 1
716 713 1
713 718 1
718 713 1
713 747 1
747 713 1
713 946 1
946 713 1
714 717 1
717 714 1
714 719 1
719 714 1
714 748 1
748 714 1
714 947 1
947 714 1
715 720 1
720 715 1
715 749 1
749 715 1
715 948 1
948 715 1
716 717 1
717 716 1
716 750 1
750 716 1
716 949 1
949 716 1
717 751 1
751 717 1
717 950 1
950 717 1
718 719 1
719 718 1
718 720 1
720 718 1
718 752 1
752 718 1
718 951 1
951 718 1
719 753 1
753 719 1
719 952 1
952 719 1
720 754 1
754 720 1
720 953 1
953 720 1
721 722 1
722 721 1
721 723 1
723 721 1
721 724 1
724 721 1
721 726 1
726 721 1
721 729 1
729 721 1
721 954 1
954 721 1
722 725 1
725 722 1
722 727 1
727 722 1
722 730 1
730 722 1
722 955 1
955 722 1
723 728 1
728 723 1
723 731 1
731 723 1
723 956 1
956 723 1
724 725 1
725 724 1
724 732 1
732 724 1
724 957 1
957 724 1
725 733 1
733 725 1
725 958 1
958 725 1
726 727 1
727 726 1
726 728 1
728 726 1
726 959 1
959 726 1
727 960 1
960 727 1
728 961 1
961 728 1
729 730 1
730 729 1
729 731 1
731 729 1
729 732 1
732 729 1
729 962 1
962 729 1
730 733 1
733 730 1
730 963 1
963 730 1
731 964 1
964 731 1
732 733 1
733 732 1
732 965 1
965 732 1
733 966 1
966 733 1
734 735 1
735 734 1
734 736 1
736 734 1
734 737 1
737 734 1
734 739 1
739 734 1
734 742 1
742 734 1
734 747 1
747 734 1
734 967 1
967 734 1
735 738 1
738 735 1
735 740 1
740 735 1
735 743 1
743 735 1
735 748 1
748 735 1
735 968 1
968 735 1
736 741 1
741 736 1
736 744 1
744 736 1
736 749 1
749 736 1
736 969 1
969 736 1
737 738 1
738 737 1
737 745 1
745 737 1
737 750 1
750 737 1
737 970 1
970 737 1
738 746 1
746 738 1
738 751 1
751 738 1
738 971 1
971 738 1
739 740 1
740 739 1
739 741 1
741 739 1
739 752 1
752 739 1
739 972 1
972 739 1
740 753 1
753 740 1
740 973 1
973 740 1
741 754 1
754 741 1
741 974 1
974 741 1
742 743 1
743 742 1
742 744 1
744 742 1
742 745 1
745 742 1
742 975 1
975 742 1
743 746 1
746 743 1
743 976 1
976 743 1
744 977 1
977 744 1
745 746 1
746 745 1
745 978 1
978 745 1
746 979 1
979 746 1
747 748 1
748 747 1
747 749 1
749 747 1
747 750 1
750 747 1
747 752 1
752 747 1
747 980 1
980 747 1
748 751 1
751 748 1
748 753 1
753 748 1
748 981 1
981 748 1
749 754 1
754 749 1
749 982 1
982 749 1
750 751 1
751 750 1
750 983 1
983 750 1
751 984 1
984 751 1
752 753 1
753 752 1
752 754 1
754 752 1
752 985 1
985 752 1
753 986 1
986 753 1
754 987 1
987 754 1
755 756 1
756 755 1
755 757 1
757 755 1
755 758 1
758 755 1
755 760 1
760 755 1
755 763 1
763 755 1
755 768 1
768 755 1
755 776 1
776 755 1
755 789 1
789 755 1
755 810 1
810 755 1
756 759 1
759 756 1
756 761 1
761 756 1
756 764 1
764 756 1
756 769 1
769 756 1
756 777 1
777 756 1
756 790 1
790 756 1
756 811 1
811 756 1
757 762 1
762 757 1
757 765 1
765 757 1
757 770 1
770 757 1
757 778 1
778 757 1
757 791 1
791 757 1
757 812 1
812 757 1
758 759 1
759 758 1
758 766 1
766 758 1
758 771 1
771 758 1
758 779 1
779 758 1
758 792 1
792 758 1
758 813 1
813 758 1
759 767 1
767 759 1
759 772 1
772 759 1
759 780 1
780 759 1
759 793 1
793 759 1
759 814 1
814 759 1
760 761 1
761 760 1
760 762 1
762 760 1
760 773 1
773 760 1
760 781 1
781 760 1
760 794 1
794 760 1
760 815 1
815 760 1
761 774 1
774 761 1
761 782 1
782 761 1
761 795 1
795 761 1
761 816 1
816 761 1
762 775 1
775 762 1
762 783 1
783 762 1
762 796 1
796 762 1
762 817 1
817 762 1
763 764 1
764 763 1
763 765 1
765 763 1
763 766 1
766 763 1
763 784 1
784 763 1
763 797 1
797 763 1
763 818 1
818 763 1
764 767 1
767 764 1
764 785 1
785 764 1
764 798 1
798 764 1
764 819 1
819 764 1
765 786 1
786 765 1
765 799 1
799 765 1
765 820 1
820 765 1
766 767 1
767 766 1
766 787 1
787 766 1
766 800 1
800 766 1
766 821 1
821 766 1
767 788 1
788 767 1
767 801 1
801 767 1
767 822 1
822 767 1
768 769 1
769 768 1
768 770 1
770 768 1
768 771 1
771 768 1
768 773 1
773 768 1
768 802 1
802 768 1
768 823 1
823 768 1
769 772 1
772 769 1
769 774 1
774 769 1
769 803 1
803 769 1
769 824 1
824 769 1
770 775 1
775 770 1
770 804 1
804 770 1
770 825 1
825 770 1
771 772 1
772 771 1
771 805 1
805 771 1
771 826 1
826 771 1
772 806 1
806 772 1
772 827 1
827 772 1
773 774 1
774 773 1
773 775 1
775 773 1
773 807 1
807 773 1
773 828 1
828 773 1
774 808 1
808 774 1
774 829 1
829 774 1
775 809 1
809 775 1
775 830 1
830 775 1
776 777 1
777 776 1
776 778 1
778 776 1
776 779 1
779 776 1
776 781 1
781 776 1
776 784 1
784 776 1
776 831 1
831 776 1
777 780 1
780 777 1
777 782 1
782 777 1
777 785 1
785 777 1
777 832 1
832 777 1
778 783 1
783 778 1
778 786 1
786 778 1
778 833 1
833 778 1
779 780 1
780 779 1
779 787 1
787 779 1
779 834 1
834 779 1
780 788 1
788 780 1
780 835 1
835 780 1
781 782 1
782 781 1
781 783 1
783 781 1
781 836 1
836 781 1
782 837 1
837 782 1
783 838 1
838 783 1
784 785 1
785 784 1
784 786 1
786 784 1
784 787 1
787 784 1
784 839 1
839 784 1
785 788 1
788 785 1
785 840 1
840 785 1
786 841 1
841 786 1
787 788 1
788 787 1
787 842 1
842 787 1
788 843 1
843 788 1
789 790 1
790 789 1
789 791 1
791 789 1
789 792 1
792 789 1
789 794 1
794 789 1
789 797 1
797 789 1
789 802 1
802 789 1
790 793 1
793 790 1
790 795 1
795 790 1
790 798 1
798 790 1
790 803 1
803 790 1
791 796 1
796 791 1
791 799 1
799 791 1
791 804 1
804 791 1
792 793 1
793 792 1
792 800 1
800 792 1
792 805 1
805 792 1
793 801 1
801 793 1
793 806 1
806 793 1
794 795 1
795 794 1
794 796 1
796 794 1
794 807 1
807 794 1
795 808 1
808 795 1
796 809 1
809 796 1
797 798 1
798 797 1
797 799 1
799 797 1
797 800 1
800 797 1
798 801 1
801 798 1
800 801 1
801 800 1
802 803 1
803 802 1
802 804 1
804 802 1
802 805 1
805 802 1
802 807 1
807 802 1
803 806 1
806 803 1
803 808 1
808 803 1
804 809 1
809 804 1
805 806 1
806 805 1
807 808 1
808 807 1
807 809 1
809 807 1
810 811 1
811 810 1
810 812 1
812 810 1
810 813 1
813 810 1
810 815 1
815 810 1
810 818 1
818 810 1
810 823 1
823 810 1
810 831 1
831 810 1
811 814 1
814 811 1
811 816 1
816 811 1
811 819 1
819 811 1
811 824 1
824 811 1
811 832 1
832 811 1
812 817 1
817 812 1
812 820 1
820 812 1
812 825 1
825 812 1
812 833 1
833 812 1
813 814 1
814 813 1
813 821 1
821 813 1
813 826 1
826 813 1
813 834 1
834 813 1
814 822 1
822 814 1
814 827 1
827 814 1
814 835 1
835 814 1
815 816 1
816 815 1
815 817 1
817 815 1
815 828 1
828 815 1
815 836 1
836 815 1
816 829 1
829 816 1
816 837 1
837 816 1
817 830 1
830 817 1
817 838 1
838 817 1
818 819 1
819 818 1
818 820 1
820 818 1
818 821 1
821 818 1
818 839 1
839 818 1
819 822 1
822 819 1
819 840 1
840 819 1
820 841 1
841 820 1
821 822 1
822 821 1
821 842 1
842 821 1
822 843 1
843 822 1
823 824 1
824 823 1
823 825 1
825 823 1
823 826 1
826 823 1
823 828 1
828 823 1
824 827 1
827 824 1
824 829 1
829 824 1
825 830 1
830 825 1
826 827 1
827 826 1
828 829 1
829 828 1
828 830 1
830 828 1
831 832 1
832 831 1
831 833 1
833 831 1
831 834 1
834 831 1
831 836 1
836 831 1
831 839 1
839 831 1
832 835 1
835 832 1
832 837 1
837 832 1
832 840 1
840 832 1
833 838 1
838 833 1
833 841 1
841 833 1
834 835 1
835 834 1
834 842 1
842 834 1
835 843 1
843 835 1
836 837 1
837 836 1
836 838 1
838 836 1
839 840 1
840 839 1
839 841 1
841 839 1
839 842 1
842 839 1
840 843 1
843 840 1
842 843 1
843 842 1
844 845 1
845 844 1
844 846 1
846 844 1
844 847 1
847 844 1
844 849 1
849 844 1
844 852 1
852 844 1
844 857 1
857 844 1
844 865 1
865 844 1
844 878 1
878 844 1
844 899 1
899 844 1
844 933 1
933 844 1
845 848 1
848 845 1
845 850 1
850 845 1
845 853 1
853 845 1
845 858 1
858 845 1
845 866 1
866 845 1
845 879 1
879 845 1
845 900 1
900 845 1
845 934 1
934 845 1
846 851 1
851 846 1
846 854 1
854 846 1
846 859 1
859 846 1
846 867 1
867 846 1
846 880 1
880 846 1
846 901 1
901 846 1
846 935 1
935 846 1
847 848 1
848 847 1
847 855 1
855 847 1
847 860 1
860 847 1
847 868 1
868 847 1
847 881 1
881 847 1
847 902 1
902 847 1
847 936 1
936 847 1
848 856 1
856 848 1
848 861 1
861 848 1
848 869 1
869 848 1
848 882 1
882 848 1
848 903 1
903 848 1
848 937 1
937 848 1
849 850 1
850 849 1
849 851 1
851 849 1
849 862 1
862 849 1
849 870 1
870 849 1
849 883 1
883 849 1
849 904 1
904 849 1
849 938 1
938 849 1
850 863 1
863 850 1
850 871 1
871 850 1
850 884 1
884 850 1
850 905 1
905 850 1
850 939 1
939 850 1
851 864 1
864 851 1
851 872 1
872 851 1
851 885 1
885 851 1
851 906 1
906 851 1
851 940 1
940 851 1
852 853 1
853 852 1
852 854 1
854 852 1
852 855 1
855 852 1
852 873 1
873 852 1
852 886 1
886 852 1
852 907 1
907 852 1
852 941 1
941 852 1
853 856 1
856 853 1
853 874 1
874 853 1
853 887 1
887 853 1
853 908 1
908 853 1
853 942 1
942 853 1
854 875 1
875 854 1
854 888 1
888 854 1
854 909 1
909 854 1
854 943 1
943 854 1
855 856 1
856 855 1
855 876 1
876 855 1
855 889 1
889 855 1
855 910 1
910 855 1
855 944 1
944 855 1
856 877 1
877 856 1
856 890 1
890 856 1
856 911 1
911 856 1
856 945 1
945 856 1
857 858 1
858 857 1
857 859 1
859 857 1
857 860 1
860 857 1
857 862 1
862 857 1
857 891 1
891 857 1
857 912 1
912 857 1
857 946 1
946 857 1
858 861 1
861 858 1
858 863 1
863 858 1
858 892 1
892 858 1
858 913 1
913 858 1
858 947 1
947 858 1
859 864 1
864 859 1
859 893 1
893 859 1
859 914 1
914 859 1
859 948 1
948 859 1
860 861 1
861 860 1
860 894 1
894 860 1
860 915 1
915 860 1
860 949 1
949 860 1
861 895 1
895 861 1
861 916 1
916 861 1
861 950 1
950 861 1
862 863 1
863 862 1
862 864 1
864 862 1
862 896 1
896 862 1
862 917 1
917 862 1
862 951 1
951 862 1
863 897 1
897 863 1
863 918 1
918 863 1
863 952 1
952 863 1
864 898 1
898 864 1
864 919 1
919 864 1
864 953 1
953 864 1
865 866 1
866 865 1
865 867 1
867 865 1
865 868 1
868 865 1
865 870 1
870 865 1
865 873 1
873 865 1
865 920 1
920 865 1
865 954 1
954 865 1
866 869 1
869 866 1
866 871 1
871 866 1
866 874 1
874 866 1
866 921 1
921 866 1
866 955 1
955 866 1
867 872 1
872 867 1
867 875 1
875 867 1
867 922 1
922 867 1
867 956 1
956 867 1
868 869 1
869 868 1
868 876 1
876 868 1
868 923 1
923 868 1
868 957 1
957 868 1
869 877 1
877 869 1
869 924 1
924 869 1
869 958 1
958 869 1
870 871 1
871 870 1
870 872 1
872 870 1
870 925 1
925 870 1
870 959 1
959 870 1
871 926 1
926 871 1
871 960 1
960 871 1
872 927 1
927 872 1
872 961 1
961 872 1
873 874 1
874 873 1
873 875 1
875 873 1
873 876 1
876 873 1
873 928 1
928 873 1
873 962 1
962 873 1
874 877 1
877 874 1
874 929 1
929 874 1
874 963 1
963 874 1
875 930 1
930 875 1
875 964 1
964 875 1
876 877 1
877 876 1
876 931 1
931 876 1
876 965 1
965 876 1
877 932 1
932 877 1
877 966 1
966 877 1
878 879 1
879 878 1
878 880 1
880 878 1
878 881 1
881 878 1
878 883 1
883 878 1
878 886 1
886 878 1
878 891 1
891 878 1
878 967 1
967 878 1
879 882 1
882 879 1
879 884 1
884 879 1
879 887 1
887 879 1
879 892 1
892 879 1
879 968 1
968 879 1
880 885 1
885 880 1
880 888 1
888 880 1
880 893 1
893 880 1
880 969 1
969 880 1
881 882 1
882 881 1
881 889 1
889 881 1
881 894 1
894 881 1
881 970 1
970 881 1
882 890 1
890 882 1
882 895 1
895 882 1
882 971 1
971 882 1
883 884 1
884 883 1
883 885 1
885 883 1
883 896 1
896 883 1
883 972 1
972 883 1
884 897 1
897 884 1
884 973 1
973 884 1
885 898 1
898 885 1
885 974 1
974 885 1
886 887 1
887 886 1
886 888 1
888 886 1
886 889 1
889 886 1
886 975 1
975 886 1
887 890 1
890 887 1
887 976 1
976 887 1
888 977 1
977 888 1
889 890 1
890 889 1
889 978 1
978 889 1
890 979 1
979 890 1
891 892 1
892 891 1
891 893 1
893 891 1
891 894 1
894 891 1
891 896 1
896 891 1
891 980 1
980 891 1
892 895 1
895 892 1
892 897 1
897 892 1
892 981 1
981 892 1
893 898 1
898 893 1
893 982 1
982 893 1
894 895 1
895 894 1
894 983 1
983 894 1
895 984 1
984 895 1
896 897 1
897 896 1
896 898 1
898 896 1
896 985 1
985 896 1
897 986 1
986 897 1
898 987 1
987 898 1
899 900 1
900 899 1
899 901 1
901 899 1
899 902 1
902 899 1
899 904 1
904 899 1
899 907 1
907 899 1
899 912 1
912 899 1
899 920 1
920 899 1
900 903 1
903 900 1
900 905 1
905 900 1
900 908 1
908 900 1
900 913 1
913 900 1
900 921 1
921 900 1
901 906 1
906 901 1
901 909 1
909 901 1
901 914 1
914 901 1
901 922 1
922 901 1
902 903 1
903 902 1
902 910 1
910 902 1
902 915 1
915 902 1
902 923 1
923 902 1
903 911 1
911 903 1
903 916 1
916 903 1
903 924 1
924 903 1
904 905 1
905 904 1
904 906 1
906 904 1
904 917 1
917 904 1
904 925 1
925 904 1
905 918 1
918 905 1
905 926 1
926 905 1
906 919 1
919 906 1
906 927 1
927 906 1
907 908 1
908 907 1
907 909 1
909 907 1
907 910 1
910 907 1
907 928 1
928 907 1
908 911 1
911 908 1
908 929 1
929 908 1
909 930 1
930 909 1
910 911 1
911 910 1
910 931 1
931 910 1
911 932 1
932 911 1
912 913 1
913 912 1
912 914 1
914 912 1
912 915 1
915 912 1
912 917 1
917 912 1
913 916 1
916 913 1
913 918 1
918 913 1
914 919 1
919 914 1
915 916 1
916 915 1
917 918 1
918 917 1
917 919 1
919 917 1
920 921 1
921 920 1
920 922 1
922 920 1
920 923 1
923 920 1
920 925 1
925 920 1
920 928 1
928 920 1
921 924 1
924 921 1
921 926 1
926 921 1
921 929 1
929 921 1
922 927 1
927 922 1
922 930 1
930 922 1
923 924 1
924 923 1
923 931 1
931 923 1
924 932 1
932 924 1
925 926 1
926 925 1
925 927 1
927 925 1
928 929 1
929 928 1
928 930 1
930 928 1
928 931 1
931 928 1
929 932 1
932 929 1
931 932 1
932 931 1
933 934 1
934 933 1
933 935 1
935 933 1
933 936 1
936 933 1
933 938 1
938 933 1
933 941 1
941 933 1
933 946 1
946 933 1
933 954 1
954 933 1
933 967 1
967 933 1
934 937 1
937 934 1
934 939 1
939 934 1
934 942 1
942 934 1
934 947 1
947 934 1
934 955 1
955 934 1
934 968 1
968 934 1
935 940 1
940 935 1
935 943 1
943 935 1
935 948 1
948 935 1
935 956 1
956 935 1
935 969 1
969 935 1
936 937 1
937 936 1
936 944 1
944 936 1
936 949 1
949 936 1
936 957 1
957 936 1
936 970 1
970 936 1
937 945 1
945 937 1
937 950 1
950 937 1
937 958 1
958 937 1
937 971 1
971 937 1
938 939 1
939 938 1
938 940 1
940 938 1
938 951 1
951 938 1
938 959 1
959 938 1
938 972 1
972 938 1
939 952 1
952 939 1
939 960 1
960 939 1
939 973 1
973 939 1
940 953 1
953 940 1
940 961 1
961 940 1
940 974 1
974 940 1
941 942 1
942 941 1
941 943 1
943 941 1
941 944 1
944 941 1
941 962 1
962 941 1
941 975 1
975 941 1
942 945 1
945 942 1
942 963 1
963 942 1
942 976 1
976 942 1
943 964 1
964 943 1
943 977 1
977 943 1
944 945 1
945 944 1
944 965 1
965 944 1
944 978 1
978 944 1
945 966 1
966 945 1
945 979 1
979 945 1
946 947 1
947 946 1
946 948 1
948 946 1
946 949 1
949 946 1
946 951 1
951 946 1
946 980 1
980 946 1
947 950 1
950 947 1
947 952 1
952 947 1
947 981 1
981 947 1
948 953 1
953 948 1
948 982 1
982 948 1
949 950 1
950 949 1
949 983 1
983 949 1
950 984 1
984 950 1
951 952 1
952 951 1
951 953 1
953 951 1
951 985 1
985 951 1
952 986 1
986 952 1
953 987 1
987 953 1
954 955 1
955 954 1
954 956 1
956 954 1
954 957 1
957 954 1
954 959 1
959 954 1
954 962 1
962 954 1
955 958 1
958 955 1
955 960 1
960 955 1
955 963 1
963 955 1
956 961 1
961 956 1
956 964 1
964 956 1
957 958 1
958 957 1
957 965 1
965 957 1
958 966 1
966 958 1
959 960 1
960 959 1
959 961 1
961 959 1
962 963 1
963 962 1
962 964 1
964 962 1
962 965 1
965 962 1
963 966 1
966 963 1
965 966 1
966 965 1
967 968 1
968 967 1
967 969 1
969 967 1
967 970 1
970 967 1
967 972 1
972 967 1
967 975 1
975 967 1
967 980 1
980 967 1
968 971 1
971 968 1
968 973 1
973 968 1
968 976 1
976 968 1
968 981 1
981 968 1
969 974 1
974 969 1
969 977 1
977 969 1
969 982 1
982 969 1
970 971 1
971 970 1
970 978 1
978 970 1
970 983 1
983 970 1
971 979 1
979 971 1
971 984 1
984 971 1
972 973 1
973 972 1
972 974 1
974 972 1
972 985 1
985 972 1
973 986 1
986 973 1
974 987 1
987 974 1
975 976 1
976 975 1
975 977 1
977 975 1
975 978 1
978 975 1
976 979 1
979 976 1
978 979 1
979 978 1
980 981 1
981 980 1
980 982 1
982 980 1
980 983 1
983 980 1
980 985 1
985 980 1
981 984 1
984 981 1
981 986 1
986 981 1
982 987 1
987 982 1
983 984 1
984 983 1
985 986 1
986 985 1
985 987 1
987 985 1
