%%MatrixMarket matrix coordinate integer general
% Cubo de Fibonacci Gamma_8 | 55 vertices | 260 arestas
55 55 260
1 2 1
2 1 1
1 3 1
3 1 1
1 4 1
4 1 1
1 6 1
6 1 1
1 9 1
9 1 1
1 14 1
14 1 1
1 22 1
22 1 1
1 35 1
35 1 1
2 5 1
5 2 1
2 7 1
7 2 1
2 10 1
10 2 1
2 15 1
15 2 1
2 23 1
23 2 1
2 36 1
36 2 1
3 8 1
8 3 1
3 11 1
11 3 1
3 16 1
16 3 1
3 24 1
24 3 1
3 37 1
37 3 1
4 5 1
5 4 1
4 12 1
12 4 1
4 17 1
17 4 1
4 25 1
25 4 1
4 38 1
38 4 1
5 13 1
13 5 1
5 18 1
18 5 1
5 26 1
26 5 1
5 39 1
39 5 1
6 7 1
7 6 1
6 8 1
8 6 1
6 19 1
19 6 1
6 27 1
27 6 1
6 40 1
40 6 1
7 20 1
20 7 1
7 28 1
28 7 1
7 41 1
41 7 1
8 21 1
21 8 1
8 29 1
29 8 1
8 42 1
42 8 1
9 10 1
10 9 1
9 11 1
11 9 1
9 12 1
12 9 1
9 30 1
30 9 1
9 43 1
43 9 1
10 13 1
13 10 1
10 31 1
31 10 1
10 44 1
44 10 1
11 32 1
32 11 1
11 45 1
45 11 1
12 13 1
13 12 1
12 33 1
33 12 1
12 46 1
46 12 1
13 34 1
34 13 1
13 47 1
47 13 1
14 15 1
15 14 1
14 16 1
16 14 1
14 17 1
17 14 1
14 19 1
19 14 1
14 48 1
48 14 1
15 18 1
18 15 1
15 20 1
20 15 1
15 49 1
49 15 1
16 21 1
21 16 1
16 50 1
50 16 1
17 18 1
18 17 1
17 51 1
51 17 1
18 52 1
52 18 1
19 20 1
20 19 1
19 21 1
21 19 1
19 53 1
53 19 1
20 54 1
54 20 1
21 55 1
55 21 1
22 23 1
23 22 1
22 24 1
24 22 1
22 25 1
25 22 1
22 27 1
27 22 1
22 30 1
30 22 1
23 26 1
26 23 1
23 28 1
28 23 1
23 31 1
31 23 1
24 29 1
29 24 1
24 32 1
32 24 1
25 26 1
26 25 1
25 33 1
33 25 1
26 34 1
34 26 1
27 28 1
28 27 1
27 29 1
29 27 1
30 31 1
31 30 1
30 32 1
32 30 1
30 33 1
33 30 1
31 34 1
34 31 1
33 34 1
34 33 1
35 36 1
36 35 1
35 37 1
37 35 1
35 38 1
38 35 1
35 40 1
40 35 1
35 43 1
43 35 1
35 48 1
48 35 1
36 39 1
39 36 1
36 41 1
41 36 1
36 44 1
44 36 1
36 49 1
49 36 1
37 42 1
42 37 1
37 45 1
45 37 1
37 50 1
50 37 1
38 39 1
39 38 1
38 46 1
46 38 1
38 51 1
51 38 1
39 47 1
47 39 1
39 52 1
52 39 1
40 41 1
41 40 1
40 42 1
42 40 1
40 53 1
53 40 1
41 54 1
54 41 1
42 55 1
55 42 1
43 44 1
44 43 1
43 45 1
45 43 1
43 46 1
46 43 1
44 47 1
47 44 1
46 47 1
47 46 1
48 49 1
49 48 1
48 50 1
50 48 1
48 51 1
51 48 1
48 53 1
53 48 1
49 52 1
52 49 1
49 54 1
54 49 1
50 55 1
55 50 1
51 52 1
52 51 1
53 54 1
54 53 1
53 55 1
55 53 1
