%%MatrixMarket matrix coordinate integer general
% Cubo de Fibonacci Gamma_9 | 89 vertices | 470 arestas
89 89 470
1 2 1
2 1 1
1 3 1
3 1 1
1 4 1
4 1 1
1 6 1
6 1 1
1 9 1
9 1 1
1 14 1
14 1 1
1 22 1
22 1 1
1 35 1
35 1 1
1 56 1
56 1 1
2 5 1
5 2 1
2 7 1
7 2 1
2 10 1
10 2 1
2 15 1
15 2 1
2 23 1
23 2 1
2 36 1
36 2 1
2 57 1
57 2 1
3 8 1
8 3 1
3 11 1
11 3 1
3 16 1
16 3 1
3 24 1
24 3 1
3 37 1
37 3 1
3 58 1
58 3 1
4 5 1
5 4 1
4 12 1
12 4 1
4 17 1
17 4 1
4 25 1
25 4 1
4 38 1
38 4 1
4 59 1
59 4 1
5 13 1
13 5 1
5 18 1
18 5 1
5 26 1
26 5 1
5 39 1
39 5 1
5 60 1
60 5 1
6 7 1
7 6 1
6 8 1
8 6 1
6 19 1
19 6 1
6 27 1
27 6 1
6 40 1
40 6 1
6 61 1
61 6 1
7 20 1
20 7 1
7 28 1
28 7 1
7 41 1
41 7 1
7 62 1
62 7 1
8 21 1
21 8 1
8 29 1
29 8 1
8 42 1
42 8 1
8 63 1
63 8 1
9 10 1
10 9 1
9 11 1
11 9 1
9 12 1
12 9 1
9 30 1
30 9 1
9 43 1
43 9 1
9 64 1
64 9 1
10 13 1
13 10 1
10 31 1
31 10 1
10 44 1
44 10 1
10 65 1
65 10 1
11 32 1
32 11 1
11 45 1
45 11 1
11 66 1
66 11 1
12 13 1
13 12 1
12 33 1
33 12 1
12 46 1
46 12 1
12 67 1
67 12 1
13 34 1
34 13 1
13 47 1
47 13 1
13 68 1
68 13 1
14 15 1
15 14 1
14 16 1
16 14 1
14 17 1
17 14 1
14 19 1
19 14 1
14 48 1
48 14 1
14 69 1
69 14 1
15 18 1
18 15 1
15 20 1
20 15 1
15 49 1
49 15 1
15 70 1
70 15 1
16 21 1
21 16 1
16 50 1
50 16 1
16 71 1
71 16 1
17 18 1
18 17 1
17 51 1
51 17 1
17 72 1
72 17 1
18 52 1
52 18 1
18 73 1
73 18 1
19 20 1
20 19 1
19 21 1
21 19 1
19 53 1
53 19 1
19 74 1
74 19 1
20 54 1
54 20 1
20 75 1
75 20 1
21 55 1
55 21 1
21 76 1
76 21 1
22 23 1
23 22 1
22 24 1
24 22 1
22 25 1
25 22 1
22 27 1
27 22 1
22 30 1
30 22 1
22 77 1
77 22 1
23 26 1
26 23 1
23 28 1
28 23 1
23 31 1
31 23 1
23 78 1
78 23 1
24 29 1
29 24 1
24 32 1
32 24 1
24 79 1
79 24 1
25 26 1
26 25 1
25 33 1
33 25 1
25 80 1
80 25 1
26 34 1
34 26 1
26 81 1
81 26 1
27 28 1
28 27 1
27 29 1
29 27 1
27 82 1
82 27 1
28 83 1
83 28 1
29 84 1
84 29 1
30 31 1
31 30 1
30 32 1
32 30 1
30 33 1
33 30 1
30 85 1
85 30 1
31 34 1
34 31 1
31 86 1
86 31 1
32 87 1
87 32 1
33 34 1
34 33 1
33 88 1
88 33 1
34 89 1
89 34 1
35 36 1
36 35 1
35 37 1
37 35 1
35 38 1
38 35 1
35 40 1
40 35 1
35 43 1
43 35 1
35 48 1
48 35 1
36 39 1
39 36 1
36 41 1
41 36 1
36 44 1
44 36 1
36 49 1
49 36 1
37 42 1
42 37 1
37 45 1
45 37 1
37 50 1
50 37 1
38 39 1
39 38 1
38 46 1
46 38 1
38 51 1
51 38 1
39 47 1
47 39 1
39 52 1
52 39 1
40 41 1
41 40 1
40 42 1
42 40 1
40 53 1
53 40 1
41 54 1
54 41 1
42 55 1
55 42 1
43 44 1
44 43 1
43 45 1
45 43 1
43 46 1
46 43 1
44 47 1
47 44 1
46 47 1
47 46 1
48 49 1
49 48 1
48 50 1
50 48 1
48 51 1
51 48 1
48 53 1
53 48 1
49 52 1
52 49 1
49 54 1
54 49 1
50 55 1
55 50 1
51 52 1
52 51 1
53 54 1
54 53 1
53 55 1
55 53 1
56 57 1
57 56 1
56 58 1
58 56 1
56 59 1
59 56 1
56 61 1
61 56 1
56 64 1
64 56 1
56 69 1
69 56 1
56 77 1
77 56 1
57 60 1
60 57 1
57 62 1
62 57 1
57 65 1
65 57 1
57 70 1
70 57 1
57 78 1
78 57 1
58 63 1
63 58 1
58 66 1
66 58 1
58 71 1
71 58 1
58 79 1
79 58 1
59 60 1
60 59 1
59 67 1
67 59 1
59 72 1
72 59 1
59 80 1
80 59 1
60 68 1
68 60 1
60 73 1
73 60 1
60 81 1
81 60 1
61 62 1
62 61 1
61 63 1
63 61 1
61 74 1
74 61 1
61 82 1
82 61 1
62 75 1
75 62 1
62 83 1
83 62 1
63 76 1
76 63 1
63 84 1
84 63 1
64 65 1
65 64 1
64 66 1
66 64 1
64 67 1
67 64 1
64 85 1
85 64 1
65 68 1
68 65 1
65 86 1
86 65 1
66 87 1
87 66 1
67 68 1
68 67 1
67 88 1
88 67 1
68 89 1
89 68 1
69 70 1
70 69 1
69 71 1
71 69 1
69 72 1
72 69 1
69 74 1
74 69 1
70 73 1
73 70 1
70 75 1
75 70 1
71 76 1
76 71 1
72 73 1
73 72 1
74 75 1
75 74 1
74 76 1
76 74 1
77 78 1
78 77 1
77 79 1
79 77 1
77 80 1
80 77 1
77 82 1
82 77 1
77 85 1
85 77 1
78 81 1
81 78 1
78 83 1
83 78 1
78 86 1
86 78 1
79 84 1
84 79 1
79 87 1
87 79 1
80 81 1
81 80 1
80 88 1
88 80 1
81 89 1
89 81 1
82 83 1
83 82 1
82 84 1
84 82 1
85 86 1
86 85 1
85 87 1
87 85 1
85 88 1
88 85 1
86 89 1
89 86 1
88 89 1
89 88 1
