%%MatrixMarket matrix coordinate integer general
% Cubo de Fibonacci Gamma_12 | 377 vertices | 2616 arestas
377 377 2616
1 2 1
2 1 1
1 3 1
3 1 1
1 4 1
4 1 1
1 6 1
6 1 1
1 9 1
9 1 1
1 14 1
14 1 1
1 22 1
22 1 1
1 35 1
35 1 1
1 56 1
56 1 1
1 90 1
90 1 1
1 145 1
145 1 1
1 234 1
234 1 1
2 5 1
5 2 1
2 7 1
7 2 1
2 10 1
10 2 1
2 15 1
15 2 1
2 23 1
23 2 1
2 36 1
36 2 1
2 57 1
57 2 1
2 91 1
91 2 1
2 146 1
146 2 1
2 235 1
235 2 1
3 8 1
8 3 1
3 11 1
11 3 1
3 16 1
16 3 1
3 24 1
24 3 1
3 37 1
37 3 1
3 58 1
58 3 1
3 92 1
92 3 1
3 147 1
147 3 1
3 236 1
236 3 1
4 5 1
5 4 1
4 12 1
12 4 1
4 17 1
17 4 1
4 25 1
25 4 1
4 38 1
38 4 1
4 59 1
59 4 1
4 93 1
93 4 1
4 148 1
148 4 1
4 237 1
237 4 1
5 13 1
13 5 1
5 18 1
18 5 1
5 26 1
26 5 1
5 39 1
39 5 1
5 60 1
60 5 1
5 94 1
94 5 1
5 149 1
149 5 1
5 238 1
238 5 1
6 7 1
7 6 1
6 8 1
8 6 1
6 19 1
19 6 1
6 27 1
27 6 1
6 40 1
40 6 1
6 61 1
61 6 1
6 95 1
95 6 1
6 150 1
150 6 1
6 239 1
239 6 1
7 20 1
20 7 1
7 28 1
28 7 1
7 41 1
41 7 1
7 62 1
62 7 1
7 96 1
96 7 1
7 151 1
151 7 1
7 240 1
240 7 1
8 21 1
21 8 1
8 29 1
29 8 1
8 42 1
42 8 1
8 63 1
63 8 1
8 97 1
97 8 1
8 152 1
152 8 1
8 241 1
241 8 1
9 10 1
10 9 1
9 11 1
11 9 1
9 12 1
12 9 1
9 30 1
30 9 1
9 43 1
43 9 1
9 64 1
64 9 1
9 98 1
98 9 1
9 153 1
153 9 1
9 242 1
242 9 1
10 13 1
13 10 1
10 31 1
31 10 1
10 44 1
44 10 1
10 65 1
65 10 1
10 99 1
99 10 1
10 154 1
154 10 1
10 243 1
243 10 1
11 32 1
32 11 1
11 45 1
45 11 1
11 66 1
66 11 1
11 100 1
100 11 1
11 155 1
155 11 1
11 244 1
244 11 1
12 13 1
13 12 1
12 33 1
33 12 1
12 46 1
46 12 1
12 67 1
67 12 1
12 101 1
101 12 1
12 156 1
156 12 1
12 245 1
245 12 1
13 34 1
34 13 1
13 47 1
47 13 1
13 68 1
68 13 1
13 102 1
102 13 1
13 157 1
157 13 1
13 246 1
246 13 1
14 15 1
15 14 1
14 16 1
16 14 1
14 17 1
17 14 1
14 19 1
19 14 1
14 48 1
48 14 1
14 69 1
69 14 1
14 103 1
103 14 1
14 158 1
158 14 1
14 247 1
247 14 1
15 18 1
18 15 1
15 20 1
20 15 1
15 49 1
49 15 1
15 70 1
70 15 1
15 104 1
104 15 1
15 159 1
159 15 1
15 248 1
248 15 1
16 21 1
21 16 1
16 50 1
50 16 1
16 71 1
71 16 1
16 105 1
105 16 1
16 160 1
160 16 1
16 249 1
249 16 1
17 18 1
18 17 1
17 51 1
51 17 1
17 72 1
72 17 1
17 106 1
106 17 1
17 161 1
161 17 1
17 250 1
250 17 1
18 52 1
52 18 1
18 73 1
73 18 1
18 107 1
107 18 1
18 162 1
162 18 1
18 251 1
251 18 1
19 20 1
20 19 1
19 21 1
21 19 1
19 53 1
53 19 1
19 74 1
74 19 1
19 108 1
108 19 1
19 163 1
163 19 1
19 252 1
252 19 1
20 54 1
54 20 1
20 75 1
75 20 1
20 109 1
109 20 1
20 164 1
164 20 1
20 253 1
253 20 1
21 55 1
55 21 1
21 76 1
76 21 1
21 110 1
110 21 1
21 165 1
165 21 1
21 254 1
254 21 1
22 23 1
23 22 1
22 24 1
24 22 1
22 25 1
25 22 1
22 27 1
27 22 1
22 30 1
30 22 1
22 77 1
77 22 1
22 111 1
111 22 1
22 166 1
166 22 1
22 255 1
255 22 1
23 26 1
26 23 1
23 28 1
28 23 1
23 31 1
31 23 1
23 78 1
78 23 1
23 112 1
112 23 1
23 167 1
167 23 1
23 256 1
256 23 1
24 29 1
29 24 1
24 32 1
32 24 1
24 79 1
79 24 1
24 113 1
113 24 1
24 168 1
168 24 1
24 257 1
257 24 1
25 26 1
26 25 1
25 33 1
33 25 1
25 80 1
80 25 1
25 114 1
114 25 1
25 169 1
169 25 1
25 258 1
258 25 1
26 34 1
34 26 1
26 81 1
81 26 1
26 115 1
115 26 1
26 170 1
170 26 1
26 259 1
259 26 1
27 28 1
28 27 1
27 29 1
29 27 1
27 82 1
82 27 1
27 116 1
116 27 1
27 171 1
171 27 1
27 260 1
260 27 1
28 83 1
83 28 1
28 117 1
117 28 1
28 172 1
172 28 1
28 261 1
261 28 1
29 84 1
84 29 1
29 118 1
118 29 1
29 173 1
173 29 1
29 262 1
262 29 1
30 31 1
31 30 1
30 32 1
32 30 1
30 33 1
33 30 1
30 85 1
85 30 1
30 119 1
119 30 1
30 174 1
174 30 1
30 263 1
263 30 1
31 34 1
34 31 1
31 86 1
86 31 1
31 120 1
120 31 1
31 175 1
175 31 1
31 264 1
264 31 1
32 87 1
87 32 1
32 121 1
121 32 1
32 176 1
176 32 1
32 265 1
265 32 1
33 34 1
34 33 1
33 88 1
88 33 1
33 122 1
122 33 1
33 177 1
177 33 1
33 266 1
266 33 1
34 89 1
89 34 1
34 123 1
123 34 1
34 178 1
178 34 1
34 267 1
267 34 1
35 36 1
36 35 1
35 37 1
37 35 1
35 38 1
38 35 1
35 40 1
40 35 1
35 43 1
43 35 1
35 48 1
48 35 1
35 124 1
124 35 1
35 179 1
179 35 1
35 268 1
268 35 1
36 39 1
39 36 1
36 41 1
41 36 1
36 44 1
44 36 1
36 49 1
49 36 1
36 125 1
125 36 1
36 180 1
180 36 1
36 269 1
269 36 1
37 42 1
42 37 1
37 45 1
45 37 1
37 50 1
50 37 1
37 126 1
126 37 1
37 181 1
181 37 1
37 270 1
270 37 1
38 39 1
39 38 1
38 46 1
46 38 1
38 51 1
51 38 1
38 127 1
127 38 1
38 182 1
182 38 1
38 271 1
271 38 1
39 47 1
47 39 1
39 52 1
52 39 1
39 128 1
128 39 1
39 183 1
183 39 1
39 272 1
272 39 1
40 41 1
41 40 1
40 42 1
42 40 1
40 53 1
53 40 1
40 129 1
129 40 1
40 184 1
184 40 1
40 273 1
273 40 1
41 54 1
54 41 1
41 130 1
130 41 1
41 185 1
185 41 1
41 274 1
274 41 1
42 55 1
55 42 1
42 131 1
131 42 1
42 186 1
186 42 1
42 275 1
275 42 1
43 44 1
44 43 1
43 45 1
45 43 1
43 46 1
46 43 1
43 132 1
132 43 1
43 187 1
187 43 1
43 276 1
276 43 1
44 47 1
47 44 1
44 133 1
133 44 1
44 188 1
188 44 1
44 277 1
277 44 1
45 134 1
134 45 1
45 189 1
189 45 1
45 278 1
278 45 1
46 47 1
47 46 1
46 135 1
135 46 1
46 190 1
190 46 1
46 279 1
279 46 1
47 136 1
136 47 1
47 191 1
191 47 1
47 280 1
280 47 1
48 49 1
49 48 1
48 50 1
50 48 1
48 51 1
51 48 1
48 53 1
53 48 1
48 137 1
137 48 1
48 192 1
192 48 1
48 281 1
281 48 1
49 52 1
52 49 1
49 54 1
54 49 1
49 138 1
138 49 1
49 193 1
193 49 1
49 282 1
282 49 1
50 55 1
55 50 1
50 139 1
139 50 1
50 194 1
194 50 1
50 283 1
283 50 1
51 52 1
52 51 1
51 140 1
140 51 1
51 195 1
195 51 1
51 284 1
284 51 1
52 141 1
141 52 1
52 196 1
196 52 1
52 285 1
285 52 1
53 54 1
54 53 1
53 55 1
55 53 1
53 142 1
142 53 1
53 197 1
197 53 1
53 286 1
286 53 1
54 143 1
143 54 1
54 198 1
198 54 1
54 287 1
287 54 1
55 144 1
144 55 1
55 199 1
199 55 1
55 288 1
288 55 1
56 57 1
57 56 1
56 58 1
58 56 1
56 59 1
59 56 1
56 61 1
61 56 1
56 64 1
64 56 1
56 69 1
69 56 1
56 77 1
77 56 1
56 200 1
200 56 1
56 289 1
289 56 1
57 60 1
60 57 1
57 62 1
62 57 1
57 65 1
65 57 1
57 70 1
70 57 1
57 78 1
78 57 1
57 201 1
201 57 1
57 290 1
290 57 1
58 63 1
63 58 1
58 66 1
66 58 1
58 71 1
71 58 1
58 79 1
79 58 1
58 202 1
202 58 1
58 291 1
291 58 1
59 60 1
60 59 1
59 67 1
67 59 1
59 72 1
72 59 1
59 80 1
80 59 1
59 203 1
203 59 1
59 292 1
292 59 1
60 68 1
68 60 1
60 73 1
73 60 1
60 81 1
81 60 1
60 204 1
204 60 1
60 293 1
293 60 1
61 62 1
62 61 1
61 63 1
63 61 1
61 74 1
74 61 1
61 82 1
82 61 1
61 205 1
205 61 1
61 294 1
294 61 1
62 75 1
75 62 1
62 83 1
83 62 1
62 206 1
206 62 1
62 295 1
295 62 1
63 76 1
76 63 1
63 84 1
84 63 1
63 207 1
207 63 1
63 296 1
296 63 1
64 65 1
65 64 1
64 66 1
66 64 1
64 67 1
67 64 1
64 85 1
85 64 1
64 208 1
208 64 1
64 297 1
297 64 1
65 68 1
68 65 1
65 86 1
86 65 1
65 209 1
209 65 1
65 298 1
298 65 1
66 87 1
87 66 1
66 210 1
210 66 1
66 299 1
299 66 1
67 68 1
68 67 1
67 88 1
88 67 1
67 211 1
211 67 1
67 300 1
300 67 1
68 89 1
89 68 1
68 212 1
212 68 1
68 301 1
301 68 1
69 70 1
70 69 1
69 71 1
71 69 1
69 72 1
72 69 1
69 74 1
74 69 1
69 213 1
213 69 1
69 302 1
302 69 1
70 73 1
73 70 1
70 75 1
75 70 1
70 214 1
214 70 1
70 303 1
303 70 1
71 76 1
76 71 1
71 215 1
215 71 1
71 304 1
304 71 1
72 73 1
73 72 1
72 216 1
216 72 1
72 305 1
305 72 1
73 217 1
217 73 1
73 306 1
306 73 1
74 75 1
75 74 1
74 76 1
76 74 1
74 218 1
218 74 1
74 307 1
307 74 1
75 219 1
219 75 1
75 308 1
308 75 1
76 220 1
220 76 1
76 309 1
309 76 1
77 78 1
78 77 1
77 79 1
79 77 1
77 80 1
80 77 1
77 82 1
82 77 1
77 85 1
85 77 1
77 221 1
221 77 1
77 310 1
310 77 1
78 81 1
81 78 1
78 83 1
83 78 1
78 86 1
86 78 1
78 222 1
222 78 1
78 311 1
311 78 1
79 84 1
84 79 1
79 87 1
87 79 1
79 223 1
223 79 1
79 312 1
312 79 1
80 81 1
81 80 1
80 88 1
88 80 1
80 224 1
224 80 1
80 313 1
313 80 1
81 89 1
89 81 1
81 225 1
225 81 1
81 314 1
314 81 1
82 83 1
83 82 1
82 84 1
84 82 1
82 226 1
226 82 1
82 315 1
315 82 1
83 227 1
227 83 1
83 316 1
316 83 1
84 228 1
228 84 1
84 317 1
317 84 1
85 86 1
86 85 1
85 87 1
87 85 1
85 88 1
88 85 1
85 229 1
229 85 1
85 318 1
318 85 1
86 89 1
89 86 1
86 230 1
230 86 1
86 319 1
319 86 1
87 231 1
231 87 1
87 320 1
320 87 1
88 89 1
89 88 1
88 232 1
232 88 1
88 321 1
321 88 1
89 233 1
233 89 1
89 322 1
322 89 1
90 91 1
91 90 1
90 92 1
92 90 1
90 93 1
93 90 1
90 95 1
95 90 1
90 98 1
98 90 1
90 103 1
103 90 1
90 111 1
111 90 1
90 124 1
124 90 1
90 323 1
323 90 1
91 94 1
94 91 1
91 96 1
96 91 1
91 99 1
99 91 1
91 104 1
104 91 1
91 112 1
112 91 1
91 125 1
125 91 1
91 324 1
324 91 1
92 97 1
97 92 1
92 100 1
100 92 1
92 105 1
105 92 1
92 113 1
113 92 1
92 126 1
126 92 1
92 325 1
325 92 1
93 94 1
94 93 1
93 101 1
101 93 1
93 106 1
106 93 1
93 114 1
114 93 1
93 127 1
127 93 1
93 326 1
326 93 1
94 102 1
102 94 1
94 107 1
107 94 1
94 115 1
115 94 1
94 128 1
128 94 1
94 327 1
327 94 1
95 96 1
96 95 1
95 97 1
97 95 1
95 108 1
108 95 1
95 116 1
116 95 1
95 129 1
129 95 1
95 328 1
328 95 1
96 109 1
109 96 1
96 117 1
117 96 1
96 130 1
130 96 1
96 329 1
329 96 1
97 110 1
110 97 1
97 118 1
118 97 1
97 131 1
131 97 1
97 330 1
330 97 1
98 99 1
99 98 1
98 100 1
100 98 1
98 101 1
101 98 1
98 119 1
119 98 1
98 132 1
132 98 1
98 331 1
331 98 1
99 102 1
102 99 1
99 120 1
120 99 1
99 133 1
133 99 1
99 332 1
332 99 1
100 121 1
121 100 1
100 134 1
134 100 1
100 333 1
333 100 1
101 102 1
102 101 1
101 122 1
122 101 1
101 135 1
135 101 1
101 334 1
334 101 1
102 123 1
123 102 1
102 136 1
136 102 1
102 335 1
335 102 1
103 104 1
104 103 1
103 105 1
105 103 1
103 106 1
106 103 1
103 108 1
108 103 1
103 137 1
137 103 1
103 336 1
336 103 1
104 107 1
107 104 1
104 109 1
109 104 1
104 138 1
138 104 1
104 337 1
337 104 1
105 110 1
110 105 1
105 139 1
139 105 1
105 338 1
338 105 1
106 107 1
107 106 1
106 140 1
140 106 1
106 339 1
339 106 1
107 141 1
141 107 1
107 340 1
340 107 1
108 109 1
109 108 1
108 110 1
110 108 1
108 142 1
142 108 1
108 341 1
341 108 1
109 143 1
143 109 1
109 342 1
342 109 1
110 144 1
144 110 1
110 343 1
343 110 1
111 112 1
112 111 1
111 113 1
113 111 1
111 114 1
114 111 1
111 116 1
116 111 1
111 119 1
119 111 1
111 344 1
344 111 1
112 115 1
115 112 1
112 117 1
117 112 1
112 120 1
120 112 1
112 345 1
345 112 1
113 118 1
118 113 1
113 121 1
121 113 1
113 346 1
346 113 1
114 115 1
115 114 1
114 122 1
122 114 1
114 347 1
347 114 1
115 123 1
123 115 1
115 348 1
348 115 1
116 117 1
117 116 1
116 118 1
118 116 1
116 349 1
349 116 1
117 350 1
350 117 1
118 351 1
351 118 1
119 120 1
120 119 1
119 121 1
121 119 1
119 122 1
122 119 1
119 352 1
352 119 1
120 123 1
123 120 1
120 353 1
353 120 1
121 354 1
354 121 1
122 123 1
123 122 1
122 355 1
355 122 1
123 356 1
356 123 1
124 125 1
125 124 1
124 126 1
126 124 1
124 127 1
127 124 1
124 129 1
129 124 1
124 132 1
132 124 1
124 137 1
137 124 1
124 357 1
357 124 1
125 128 1
128 125 1
125 130 1
130 125 1
125 133 1
133 125 1
125 138 1
138 125 1
125 358 1
358 125 1
126 131 1
131 126 1
126 134 1
134 126 1
126 139 1
139 126 1
126 359 1
359 126 1
127 128 1
128 127 1
127 135 1
135 127 1
127 140 1
140 127 1
127 360 1
360 127 1
128 136 1
136 128 1
128 141 1
141 128 1
128 361 1
361 128 1
129 130 1
130 129 1
129 131 1
131 129 1
129 142 1
142 129 1
129 362 1
362 129 1
130 143 1
143 130 1
130 363 1
363 130 1
131 144 1
144 131 1
131 364 1
364 131 1
132 133 1
133 132 1
132 134 1
134 132 1
132 135 1
135 132 1
132 365 1
365 132 1
133 136 1
136 133 1
133 366 1
366 133 1
134 367 1
367 134 1
135 136 1
136 135 1
135 368 1
368 135 1
136 369 1
369 136 1
137 138 1
138 137 1
137 139 1
139 137 1
137 140 1
140 137 1
137 142 1
142 137 1
137 370 1
370 137 1
138 141 1
141 138 1
138 143 1
143 138 1
138 371 1
371 138 1
139 144 1
144 139 1
139 372 1
372 139 1
140 141 1
141 140 1
140 373 1
373 140 1
141 374 1
374 141 1
142 143 1
143 142 1
142 144 1
144 142 1
142 375 1
375 142 1
143 376 1
376 143 1
144 377 1
377 144 1
145 146 1
146 145 1
145 147 1
147 145 1
145 148 1
148 145 1
145 150 1
150 145 1
145 153 1
153 145 1
145 158 1
158 145 1
145 166 1
166 145 1
145 179 1
179 145 1
145 200 1
200 145 1
146 149 1
149 146 1
146 151 1
151 146 1
146 154 1
154 146 1
146 159 1
159 146 1
146 167 1
167 146 1
146 180 1
180 146 1
146 201 1
201 146 1
147 152 1
152 147 1
147 155 1
155 147 1
147 160 1
160 147 1
147 168 1
168 147 1
147 181 1
181 147 1
147 202 1
202 147 1
148 149 1
149 148 1
148 156 1
156 148 1
148 161 1
161 148 1
148 169 1
169 148 1
148 182 1
182 148 1
148 203 1
203 148 1
149 157 1
157 149 1
149 162 1
162 149 1
149 170 1
170 149 1
149 183 1
183 149 1
149 204 1
204 149 1
150 151 1
151 150 1
150 152 1
152 150 1
150 163 1
163 150 1
150 171 1
171 150 1
150 184 1
184 150 1
150 205 1
205 150 1
151 164 1
164 151 1
151 172 1
172 151 1
151 185 1
185 151 1
151 206 1
206 151 1
152 165 1
165 152 1
152 173 1
173 152 1
152 186 1
186 152 1
152 207 1
207 152 1
153 154 1
154 153 1
153 155 1
155 153 1
153 156 1
156 153 1
153 174 1
174 153 1
153 187 1
187 153 1
153 208 1
208 153 1
154 157 1
157 154 1
154 175 1
175 154 1
154 188 1
188 154 1
154 209 1
209 154 1
155 176 1
176 155 1
155 189 1
189 155 1
155 210 1
210 155 1
156 157 1
157 156 1
156 177 1
177 156 1
156 190 1
190 156 1
156 211 1
211 156 1
157 178 1
178 157 1
157 191 1
191 157 1
157 212 1
212 157 1
158 159 1
159 158 1
158 160 1
160 158 1
158 161 1
161 158 1
158 163 1
163 158 1
158 192 1
192 158 1
158 213 1
213 158 1
159 162 1
162 159 1
159 164 1
164 159 1
159 193 1
193 159 1
159 214 1
214 159 1
160 165 1
165 160 1
160 194 1
194 160 1
160 215 1
215 160 1
161 162 1
162 161 1
161 195 1
195 161 1
161 216 1
216 161 1
162 196 1
196 162 1
162 217 1
217 162 1
163 164 1
164 163 1
163 165 1
165 163 1
163 197 1
197 163 1
163 218 1
218 163 1
164 198 1
198 164 1
164 219 1
219 164 1
165 199 1
199 165 1
165 220 1
220 165 1
166 167 1
167 166 1
166 168 1
168 166 1
166 169 1
169 166 1
166 171 1
171 166 1
166 174 1
174 166 1
166 221 1
221 166 1
167 170 1
170 167 1
167 172 1
172 167 1
167 175 1
175 167 1
167 222 1
222 167 1
168 173 1
173 168 1
168 176 1
176 168 1
168 223 1
223 168 1
169 170 1
170 169 1
169 177 1
177 169 1
169 224 1
224 169 1
170 178 1
178 170 1
170 225 1
225 170 1
171 172 1
172 171 1
171 173 1
173 171 1
171 226 1
226 171 1
172 227 1
227 172 1
173 228 1
228 173 1
174 175 1
175 174 1
174 176 1
176 174 1
174 177 1
177 174 1
174 229 1
229 174 1
175 178 1
178 175 1
175 230 1
230 175 1
176 231 1
231 176 1
177 178 1
178 177 1
177 232 1
232 177 1
178 233 1
233 178 1
179 180 1
180 179 1
179 181 1
181 179 1
179 182 1
182 179 1
179 184 1
184 179 1
179 187 1
187 179 1
179 192 1
192 179 1
180 183 1
183 180 1
180 185 1
185 180 1
180 188 1
188 180 1
180 193 1
193 180 1
181 186 1
186 181 1
181 189 1
189 181 1
181 194 1
194 181 1
182 183 1
183 182 1
182 190 1
190 182 1
182 195 1
195 182 1
183 191 1
191 183 1
183 196 1
196 183 1
184 185 1
185 184 1
184 186 1
186 184 1
184 197 1
197 184 1
185 198 1
198 185 1
186 199 1
199 186 1
187 188 1
188 187 1
187 189 1
189 187 1
187 190 1
190 187 1
188 191 1
191 188 1
190 191 1
191 190 1
192 193 1
193 192 1
192 194 1
194 192 1
192 195 1
195 192 1
192 197 1
197 192 1
193 196 1
196 193 1
193 198 1
198 193 1
194 199 1
199 194 1
195 196 1
196 195 1
197 198 1
198 197 1
197 199 1
199 197 1
200 201 1
201 200 1
200 202 1
202 200 1
200 203 1
203 200 1
200 205 1
205 200 1
200 208 1
208 200 1
200 213 1
213 200 1
200 221 1
221 200 1
201 204 1
204 201 1
201 206 1
206 201 1
201 209 1
209 201 1
201 214 1
214 201 1
201 222 1
222 201 1
202 207 1
207 202 1
202 210 1
210 202 1
202 215 1
215 202 1
202 223 1
223 202 1
203 204 1
204 203 1
203 211 1
211 203 1
203 216 1
216 203 1
203 224 1
224 203 1
204 212 1
212 204 1
204 217 1
217 204 1
204 225 1
225 204 1
205 206 1
206 205 1
205 207 1
207 205 1
205 218 1
218 205 1
205 226 1
226 205 1
206 219 1
219 206 1
206 227 1
227 206 1
207 220 1
220 207 1
207 228 1
228 207 1
208 209 1
209 208 1
208 210 1
210 208 1
208 211 1
211 208 1
208 229 1
229 208 1
209 212 1
212 209 1
209 230 1
230 209 1
210 231 1
231 210 1
211 212 1
212 211 1
211 232 1
232 211 1
212 233 1
233 212 1
213 214 1
214 213 1
213 215 1
215 213 1
213 216 1
216 213 1
213 218 1
218 213 1
214 217 1
217 214 1
214 219 1
219 214 1
215 220 1
220 215 1
216 217 1
217 216 1
218 219 1
219 218 1
218 220 1
220 218 1
221 222 1
222 221 1
221 223 1
223 221 1
221 224 1
224 221 1
221 226 1
226 221 1
221 229 1
229 221 1
222 225 1
225 222 1
222 227 1
227 222 1
222 230 1
230 222 1
223 228 1
228 223 1
223 231 1
231 223 1
224 225 1
225 224 1
224 232 1
232 224 1
225 233 1
233 225 1
226 227 1
227 226 1
226 228 1
228 226 1
229 230 1
230 229 1
229 231 1
231 229 1
229 232 1
232 229 1
230 233 1
233 230 1
232 233 1
233 232 1
234 235 1
235 234 1
234 236 1
236 234 1
234 237 1
237 234 1
234 239 1
239 234 1
234 242 1
242 234 1
234 247 1
247 234 1
234 255 1
255 234 1
234 268 1
268 234 1
234 289 1
289 234 1
234 323 1
323 234 1
235 238 1
238 235 1
235 240 1
240 235 1
235 243 1
243 235 1
235 248 1
248 235 1
235 256 1
256 235 1
235 269 1
269 235 1
235 290 1
290 235 1
235 324 1
324 235 1
236 241 1
241 236 1
236 244 1
244 236 1
236 249 1
249 236 1
236 257 1
257 236 1
236 270 1
270 236 1
236 291 1
291 236 1
236 325 1
325 236 1
237 238 1
238 237 1
237 245 1
245 237 1
237 250 1
250 237 1
237 258 1
258 237 1
237 271 1
271 237 1
237 292 1
292 237 1
237 326 1
326 237 1
238 246 1
246 238 1
238 251 1
251 238 1
238 259 1
259 238 1
238 272 1
272 238 1
238 293 1
293 238 1
238 327 1
327 238 1
239 240 1
240 239 1
239 241 1
241 239 1
239 252 1
252 239 1
239 260 1
260 239 1
239 273 1
273 239 1
239 294 1
294 239 1
239 328 1
328 239 1
240 253 1
253 240 1
240 261 1
261 240 1
240 274 1
274 240 1
240 295 1
295 240 1
240 329 1
329 240 1
241 254 1
254 241 1
241 262 1
262 241 1
241 275 1
275 241 1
241 296 1
296 241 1
241 330 1
330 241 1
242 243 1
243 242 1
242 244 1
244 242 1
242 245 1
245 242 1
242 263 1
263 242 1
242 276 1
276 242 1
242 297 1
297 242 1
242 331 1
331 242 1
243 246 1
246 243 1
243 264 1
264 243 1
243 277 1
277 243 1
243 298 1
298 243 1
243 332 1
332 243 1
244 265 1
265 244 1
244 278 1
278 244 1
244 299 1
299 244 1
244 333 1
333 244 1
245 246 1
246 245 1
245 266 1
266 245 1
245 279 1
279 245 1
245 300 1
300 245 1
245 334 1
334 245 1
246 267 1
267 246 1
246 280 1
280 246 1
246 301 1
301 246 1
246 335 1
335 246 1
247 248 1
248 247 1
247 249 1
249 247 1
247 250 1
250 247 1
247 252 1
252 247 1
247 281 1
281 247 1
247 302 1
302 247 1
247 336 1
336 247 1
248 251 1
251 248 1
248 253 1
253 248 1
248 282 1
282 248 1
248 303 1
303 248 1
248 337 1
337 248 1
249 254 1
254 249 1
249 283 1
283 249 1
249 304 1
304 249 1
249 338 1
338 249 1
250 251 1
251 250 1
250 284 1
284 250 1
250 305 1
305 250 1
250 339 1
339 250 1
251 285 1
285 251 1
251 306 1
306 251 1
251 340 1
340 251 1
252 253 1
253 252 1
252 254 1
254 252 1
252 286 1
286 252 1
252 307 1
307 252 1
252 341 1
341 252 1
253 287 1
287 253 1
253 308 1
308 253 1
253 342 1
342 253 1
254 288 1
288 254 1
254 309 1
309 254 1
254 343 1
343 254 1
255 256 1
256 255 1
255 257 1
257 255 1
255 258 1
258 255 1
255 260 1
260 255 1
255 263 1
263 255 1
255 310 1
310 255 1
255 344 1
344 255 1
256 259 1
259 256 1
256 261 1
261 256 1
256 264 1
264 256 1
256 311 1
311 256 1
256 345 1
345 256 1
257 262 1
262 257 1
257 265 1
265 257 1
257 312 1
312 257 1
257 346 1
346 257 1
258 259 1
259 258 1
258 266 1
266 258 1
258 313 1
313 258 1
258 347 1
347 258 1
259 267 1
267 259 1
259 314 1
314 259 1
259 348 1
348 259 1
260 261 1
261 260 1
260 262 1
262 260 1
260 315 1
315 260 1
260 349 1
349 260 1
261 316 1
316 261 1
261 350 1
350 261 1
262 317 1
317 262 1
262 351 1
351 262 1
263 264 1
264 263 1
263 265 1
265 263 1
263 266 1
266 263 1
263 318 1
318 263 1
263 352 1
352 263 1
264 267 1
267 264 1
264 319 1
319 264 1
264 353 1
353 264 1
265 320 1
320 265 1
265 354 1
354 265 1
266 267 1
267 266 1
266 321 1
321 266 1
266 355 1
355 266 1
267 322 1
322 267 1
267 356 1
356 267 1
268 269 1
269 268 1
268 270 1
270 268 1
268 271 1
271 268 1
268 273 1
273 268 1
268 276 1
276 268 1
268 281 1
281 268 1
268 357 1
357 268 1
269 272 1
272 269 1
269 274 1
274 269 1
269 277 1
277 269 1
269 282 1
282 269 1
269 358 1
358 269 1
270 275 1
275 270 1
270 278 1
278 270 1
270 283 1
283 270 1
270 359 1
359 270 1
271 272 1
272 271 1
271 279 1
279 271 1
271 284 1
284 271 1
271 360 1
360 271 1
272 280 1
280 272 1
272 285 1
285 272 1
272 361 1
361 272 1
273 274 1
274 273 1
273 275 1
275 273 1
273 286 1
286 273 1
273 362 1
362 273 1
274 287 1
287 274 1
274 363 1
363 274 1
275 288 1
288 275 1
275 364 1
364 275 1
276 277 1
277 276 1
276 278 1
278 276 1
276 279 1
279 276 1
276 365 1
365 276 1
277 280 1
280 277 1
277 366 1
366 277 1
278 367 1
367 278 1
279 280 1
280 279 1
279 368 1
368 279 1
280 369 1
369 280 1
281 282 1
282 281 1
281 283 1
283 281 1
281 284 1
284 281 1
281 286 1
286 281 1
281 370 1
370 281 1
282 285 1
285 282 1
282 287 1
287 282 1
282 371 1
371 282 1
283 288 1
288 283 1
283 372 1
372 283 1
284 285 1
285 284 1
284 373 1
373 284 1
285 374 1
374 285 1
286 287 1
287 286 1
286 288 1
288 286 1
286 375 1
375 286 1
287 376 1
376 287 1
288 377 1
377 288 1
289 290 1
290 289 1
289 291 1
291 289 1
289 292 1
292 289 1
289 294 1
294 289 1
289 297 1
297 289 1
289 302 1
302 289 1
289 310 1
310 289 1
290 293 1
293 290 1
290 295 1
295 290 1
290 298 1
298 290 1
290 303 1
303 290 1
290 311 1
311 290 1
291 296 1
296 291 1
291 299 1
299 291 1
291 304 1
304 291 1
291 312 1
312 291 1
292 293 1
293 292 1
292 300 1
300 292 1
292 305 1
305 292 1
292 313 1
313 292 1
293 301 1
301 293 1
293 306 1
306 293 1
293 314 1
314 293 1
294 295 1
295 294 1
294 296 1
296 294 1
294 307 1
307 294 1
294 315 1
315 294 1
295 308 1
308 295 1
295 316 1
316 295 1
296 309 1
309 296 1
296 317 1
317 296 1
297 298 1
298 297 1
297 299 1
299 297 1
297 300 1
300 297 1
297 318 1
318 297 1
298 301 1
301 298 1
298 319 1
319 298 1
299 320 1
320 299 1
300 301 1
301 300 1
300 321 1
321 300 1
301 322 1
322 301 1
302 303 1
303 302 1
302 304 1
304 302 1
302 305 1
305 302 1
302 307 1
307 302 1
303 306 1
306 303 1
303 308 1
308 303 1
304 309 1
309 304 1
305 306 1
306 305 1
307 308 1
308 307 1
307 309 1
309 307 1
310 311 1
311 310 1
310 312 1
312 310 1
310 313 1
313 310 1
310 315 1
315 310 1
310 318 1
318 310 1
311 314 1
314 311 1
311 316 1
316 311 1
311 319 1
319 311 1
312 317 1
317 312 1
312 320 1
320 312 1
313 314 1
314 313 1
313 321 1
321 313 1
314 322 1
322 314 1
315 316 1
316 315 1
315 317 1
317 315 1
318 319 1
319 318 1
318 320 1
320 318 1
318 321 1
321 318 1
319 322 1
322 319 1
321 322 1
322 321 1
323 324 1
324 323 1
323 325 1
325 323 1
323 326 1
326 323 1
323 328 1
328 323 1
323 331 1
331 323 1
323 336 1
336 323 1
323 344 1
344 323 1
323 357 1
357 323 1
324 327 1
327 324 1
324 329 1
329 324 1
324 332 1
332 324 1
324 337 1
337 324 1
324 345 1
345 324 1
324 358 1
358 324 1
325 330 1
330 325 1
325 333 1
333 325 1
325 338 1
338 325 1
325 346 1
346 325 1
325 359 1
359 325 1
326 327 1
327 326 1
326 334 1
334 326 1
326 339 1
339 326 1
326 347 1
347 326 1
326 360 1
360 326 1
327 335 1
335 327 1
327 340 1
340 327 1
327 348 1
348 327 1
327 361 1
361 327 1
328 329 1
329 328 1
328 330 1
330 328 1
328 341 1
341 328 1
328 349 1
349 328 1
328 362 1
362 328 1
329 342 1
342 329 1
329 350 1
350 329 1
329 363 1
363 329 1
330 343 1
343 330 1
330 351 1
351 330 1
330 364 1
364 330 1
331 332 1
332 331 1
331 333 1
333 331 1
331 334 1
334 331 1
331 352 1
352 331 1
331 365 1
365 331 1
332 335 1
335 332 1
332 353 1
353 332 1
332 366 1
366 332 1
333 354 1
354 333 1
333 367 1
367 333 1
334 335 1
335 334 1
334 355 1
355 334 1
334 368 1
368 334 1
335 356 1
356 335 1
335 369 1
369 335 1
336 337 1
337 336 1
336 338 1
338 336 1
336 339 1
339 336 1
336 341 1
341 336 1
336 370 1
370 336 1
337 340 1
340 337 1
337 342 1
342 337 1
337 371 1
371 337 1
338 343 1
343 338 1
338 372 1
372 338 1
339 340 1
340 339 1
339 373 1
373 339 1
340 374 1
374 340 1
341 342 1
342 341 1
341 343 1
343 341 1
341 375 1
375 341 1
342 376 1
376 342 1
343 377 1
377 343 1
344 345 1
345 344 1
344 346 1
346 344 1
344 347 1
347 344 1
344 349 1
349 344 1
344 352 1
352 344 1
345 348 1
348 345 1
345 350 1
350 345 1
345 353 1
353 345 1
346 351 1
351 346 1
346 354 1
354 346 1
347 348 1
348 347 1
347 355 1
355 347 1
348 356 1
356 348 1
349 350 1
350 349 1
349 351 1
351 349 1
352 353 1
353 352 1
352 354 1
354 352 1
352 355 1
355 352 1
353 356 1
356 353 1
355 356 1
356 355 1
357 358 1
358 357 1
357 359 1
359 357 1
357 360 1
360 357 1
357 362 1
362 357 1
357 365 1
365 357 1
357 370 1
370 357 1
358 361 1
361 358 1
358 363 1
363 358 1
358 366 1
366 358 1
358 371 1
371 358 1
359 364 1
364 359 1
359 367 1
367 359 1
359 372 1
372 359 1
360 361 1
361 360 1
360 368 1
368 360 1
360 373 1
373 360 1
361 369 1
369 361 1
361 374 1
374 361 1
362 363 1
363 362 1
362 364 1
364 362 1
362 375 1
375 362 1
363 376 1
376 363 1
364 377 1
377 364 1
365 366 1
366 365 1
365 367 1
367 365 1
365 368 1
368 365 1
366 369 1
369 366 1
368 369 1
369 368 1
370 371 1
371 370 1
370 372 1
372 370 1
370 373 1
373 370 1
370 375 1
375 370 1
371 374 1
374 371 1
371 376 1
376 371 1
372 377 1
377 372 1
373 374 1
374 373 1
375 376 1
376 375 1
375 377 1
377 375 1
