%%MatrixMarket matrix coordinate integer general
% Cubo de Fibonacci Gamma_6 | 21 vertices | 76 arestas
21 21 76
1 2 1
2 1 1
1 3 1
3 1 1
1 4 1
4 1 1
1 6 1
6 1 1
1 9 1
9 1 1
1 14 1
14 1 1
2 5 1
5 2 1
2 7 1
7 2 1
2 10 1
10 2 1
2 15 1
15 2 1
3 8 1
8 3 1
3 11 1
11 3 1
3 16 1
16 3 1
4 5 1
5 4 1
4 12 1
12 4 1
4 17 1
17 4 1
5 13 1
13 5 1
5 18 1
18 5 1
6 7 1
7 6 1
6 8 1
8 6 1
6 19 1
19 6 1
7 20 1
20 7 1
8 21 1
21 8 1
9 10 1
10 9 1
9 11 1
11 9 1
9 12 1
12 9 1
10 13 1
13 10 1
12 13 1
13 12 1
14 15 1
15 14 1
14 16 1
16 14 1
14 17 1
17 14 1
14 19 1
19 14 1
15 18 1
18 15 1
15 20 1
20 15 1
16 21 1
21 16 1
17 18 1
18 17 1
19 20 1
20 19 1
19 21 1
21 19 1
