%%MatrixMarket matrix coordinate integer general
% Cubo de Fibonacci Gamma_16 | 2584 vertices | 23644 arestas
2584 2584 23644
1 2 1
2 1 1
1 3 1
3 1 1
1 4 1
4 1 1
1 6 1
6 1 1
1 9 1
9 1 1
1 14 1
14 1 1
1 22 1
22 1 1
1 35 1
35 1 1
1 56 1
56 1 1
1 90 1
90 1 1
1 145 1
145 1 1
1 234 1
234 1 1
1 378 1
378 1 1
1 611 1
611 1 1
1 988 1
988 1 1
1 1598 1
1598 1 1
2 5 1
5 2 1
2 7 1
7 2 1
2 10 1
10 2 1
2 15 1
15 2 1
2 23 1
23 2 1
2 36 1
36 2 1
2 57 1
57 2 1
2 91 1
91 2 1
2 146 1
146 2 1
2 235 1
235 2 1
2 379 1
379 2 1
2 612 1
612 2 1
2 989 1
989 2 1
2 1599 1
1599 2 1
3 8 1
8 3 1
3 11 1
11 3 1
3 16 1
16 3 1
3 24 1
24 3 1
3 37 1
37 3 1
3 58 1
58 3 1
3 92 1
92 3 1
3 147 1
147 3 1
3 236 1
236 3 1
3 380 1
380 3 1
3 613 1
613 3 1
3 990 1
990 3 1
3 1600 1
1600 3 1
4 5 1
5 4 1
4 12 1
12 4 1
4 17 1
17 4 1
4 25 1
25 4 1
4 38 1
38 4 1
4 59 1
59 4 1
4 93 1
93 4 1
4 148 1
148 4 1
4 237 1
237 4 1
4 381 1
381 4 1
4 614 1
614 4 1
4 991 1
991 4 1
4 1601 1
1601 4 1
5 13 1
13 5 1
5 18 1
18 5 1
5 26 1
26 5 1
5 39 1
39 5 1
5 60 1
60 5 1
5 94 1
94 5 1
5 149 1
149 5 1
5 238 1
238 5 1
5 382 1
382 5 1
5 615 1
615 5 1
5 992 1
992 5 1
5 1602 1
1602 5 1
6 7 1
7 6 1
6 8 1
8 6 1
6 19 1
19 6 1
6 27 1
27 6 1
6 40 1
40 6 1
6 61 1
61 6 1
6 95 1
95 6 1
6 150 1
150 6 1
6 239 1
239 6 1
6 383 1
383 6 1
6 616 1
616 6 1
6 993 1
993 6 1
6 1603 1
1603 6 1
7 20 1
20 7 1
7 28 1
28 7 1
7 41 1
41 7 1
7 62 1
62 7 1
7 96 1
96 7 1
7 151 1
151 7 1
7 240 1
240 7 1
7 384 1
384 7 1
7 617 1
617 7 1
7 994 1
994 7 1
7 1604 1
1604 7 1
8 21 1
21 8 1
8 29 1
29 8 1
8 42 1
42 8 1
8 63 1
63 8 1
8 97 1
97 8 1
8 152 1
152 8 1
8 241 1
241 8 1
8 385 1
385 8 1
8 618 1
618 8 1
8 995 1
995 8 1
8 1605 1
1605 8 1
9 10 1
10 9 1
9 11 1
11 9 1
9 12 1
12 9 1
9 30 1
30 9 1
9 43 1
43 9 1
9 64 1
64 9 1
9 98 1
98 9 1
9 153 1
153 9 1
9 242 1
242 9 1
9 386 1
386 9 1
9 619 1
619 9 1
9 996 1
996 9 1
9 1606 1
1606 9 1
10 13 1
13 10 1
10 31 1
31 10 1
10 44 1
44 10 1
10 65 1
65 10 1
10 99 1
99 10 1
10 154 1
154 10 1
10 243 1
243 10 1
10 387 1
387 10 1
10 620 1
620 10 1
10 997 1
997 10 1
10 1607 1
1607 10 1
11 32 1
32 11 1
11 45 1
45 11 1
11 66 1
66 11 1
11 100 1
100 11 1
11 155 1
155 11 1
11 244 1
244 11 1
11 388 1
388 11 1
11 621 1
621 11 1
11 998 1
998 11 1
11 1608 1
1608 11 1
12 13 1
13 12 1
12 33 1
33 12 1
12 46 1
46 12 1
12 67 1
67 12 1
12 101 1
101 12 1
12 156 1
156 12 1
12 245 1
245 12 1
12 389 1
389 12 1
12 622 1
622 12 1
12 999 1
999 12 1
12 1609 1
1609 12 1
13 34 1
34 13 1
13 47 1
47 13 1
13 68 1
68 13 1
13 102 1
102 13 1
13 157 1
157 13 1
13 246 1
246 13 1
13 390 1
390 13 1
13 623 1
623 13 1
13 1000 1
1000 13 1
13 1610 1
1610 13 1
14 15 1
15 14 1
14 16 1
16 14 1
14 17 1
17 14 1
14 19 1
19 14 1
14 48 1
48 14 1
14 69 1
69 14 1
14 103 1
103 14 1
14 158 1
158 14 1
14 247 1
247 14 1
14 391 1
391 14 1
14 624 1
624 14 1
14 1001 1
1001 14 1
14 1611 1
1611 14 1
15 18 1
18 15 1
15 20 1
20 15 1
15 49 1
49 15 1
15 70 1
70 15 1
15 104 1
104 15 1
15 159 1
159 15 1
15 248 1
248 15 1
15 392 1
392 15 1
15 625 1
625 15 1
15 1002 1
1002 15 1
15 1612 1
1612 15 1
16 21 1
21 16 1
16 50 1
50 16 1
16 71 1
71 16 1
16 105 1
105 16 1
16 160 1
160 16 1
16 249 1
249 16 1
16 393 1
393 16 1
16 626 1
626 16 1
16 1003 1
1003 16 1
16 1613 1
1613 16 1
17 18 1
18 17 1
17 51 1
51 17 1
17 72 1
72 17 1
17 106 1
106 17 1
17 161 1
161 17 1
17 250 1
250 17 1
17 394 1
394 17 1
17 627 1
627 17 1
17 1004 1
1004 17 1
17 1614 1
1614 17 1
18 52 1
52 18 1
18 73 1
73 18 1
18 107 1
107 18 1
18 162 1
162 18 1
18 251 1
251 18 1
18 395 1
395 18 1
18 628 1
628 18 1
18 1005 1
1005 18 1
18 1615 1
1615 18 1
19 20 1
20 19 1
19 21 1
21 19 1
19 53 1
53 19 1
19 74 1
74 19 1
19 108 1
108 19 1
19 163 1
163 19 1
19 252 1
252 19 1
19 396 1
396 19 1
19 629 1
629 19 1
19 1006 1
1006 19 1
19 1616 1
1616 19 1
20 54 1
54 20 1
20 75 1
75 20 1
20 109 1
109 20 1
20 164 1
164 20 1
20 253 1
253 20 1
20 397 1
397 20 1
20 630 1
630 20 1
20 1007 1
1007 20 1
20 1617 1
1617 20 1
21 55 1
55 21 1
21 76 1
76 21 1
21 110 1
110 21 1
21 165 1
165 21 1
21 254 1
254 21 1
21 398 1
398 21 1
21 631 1
631 21 1
21 1008 1
1008 21 1
21 1618 1
1618 21 1
22 23 1
23 22 1
22 24 1
24 22 1
22 25 1
25 22 1
22 27 1
27 22 1
22 30 1
30 22 1
22 77 1
77 22 1
22 111 1
111 22 1
22 166 1
166 22 1
22 255 1
255 22 1
22 399 1
399 22 1
22 632 1
632 22 1
22 1009 1
1009 22 1
22 1619 1
1619 22 1
23 26 1
26 23 1
23 28 1
28 23 1
23 31 1
31 23 1
23 78 1
78 23 1
23 112 1
112 23 1
23 167 1
167 23 1
23 256 1
256 23 1
23 400 1
400 23 1
23 633 1
633 23 1
23 1010 1
1010 23 1
23 1620 1
1620 23 1
24 29 1
29 24 1
24 32 1
32 24 1
24 79 1
79 24 1
24 113 1
113 24 1
24 168 1
168 24 1
24 257 1
257 24 1
24 401 1
401 24 1
24 634 1
634 24 1
24 1011 1
1011 24 1
24 1621 1
1621 24 1
25 26 1
26 25 1
25 33 1
33 25 1
25 80 1
80 25 1
25 114 1
114 25 1
25 169 1
169 25 1
25 258 1
258 25 1
25 402 1
402 25 1
25 635 1
635 25 1
25 1012 1
1012 25 1
25 1622 1
1622 25 1
26 34 1
34 26 1
26 81 1
81 26 1
26 115 1
115 26 1
26 170 1
170 26 1
26 259 1
259 26 1
26 403 1
403 26 1
26 636 1
636 26 1
26 1013 1
1013 26 1
26 1623 1
1623 26 1
27 28 1
28 27 1
27 29 1
29 27 1
27 82 1
82 27 1
27 116 1
116 27 1
27 171 1
171 27 1
27 260 1
260 27 1
27 404 1
404 27 1
27 637 1
637 27 1
27 1014 1
1014 27 1
27 1624 1
1624 27 1
28 83 1
83 28 1
28 117 1
117 28 1
28 172 1
172 28 1
28 261 1
261 28 1
28 405 1
405 28 1
28 638 1
638 28 1
28 1015 1
1015 28 1
28 1625 1
1625 28 1
29 84 1
84 29 1
29 118 1
118 29 1
29 173 1
173 29 1
29 262 1
262 29 1
29 406 1
406 29 1
29 639 1
639 29 1
29 1016 1
1016 29 1
29 1626 1
1626 29 1
30 31 1
31 30 1
30 32 1
32 30 1
30 33 1
33 30 1
30 85 1
85 30 1
30 119 1
119 30 1
30 174 1
174 30 1
30 263 1
263 30 1
30 407 1
407 30 1
30 640 1
640 30 1
30 1017 1
1017 30 1
30 1627 1
1627 30 1
31 34 1
34 31 1
31 86 1
86 31 1
31 120 1
120 31 1
31 175 1
175 31 1
31 264 1
264 31 1
31 408 1
408 31 1
31 641 1
641 31 1
31 1018 1
1018 31 1
31 1628 1
1628 31 1
32 87 1
87 32 1
32 121 1
121 32 1
32 176 1
176 32 1
32 265 1
265 32 1
32 409 1
409 32 1
32 642 1
642 32 1
32 1019 1
1019 32 1
32 1629 1
1629 32 1
33 34 1
34 33 1
33 88 1
88 33 1
33 122 1
122 33 1
33 177 1
177 33 1
33 266 1
266 33 1
33 410 1
410 33 1
33 643 1
643 33 1
33 1020 1
1020 33 1
33 1630 1
1630 33 1
34 89 1
89 34 1
34 123 1
123 34 1
34 178 1
178 34 1
34 267 1
267 34 1
34 411 1
411 34 1
34 644 1
644 34 1
34 1021 1
1021 34 1
34 1631 1
1631 34 1
35 36 1
36 35 1
35 37 1
37 35 1
35 38 1
38 35 1
35 40 1
40 35 1
35 43 1
43 35 1
35 48 1
48 35 1
35 124 1
124 35 1
35 179 1
179 35 1
35 268 1
268 35 1
35 412 1
412 35 1
35 645 1
645 35 1
35 1022 1
1022 35 1
35 1632 1
1632 35 1
36 39 1
39 36 1
36 41 1
41 36 1
36 44 1
44 36 1
36 49 1
49 36 1
36 125 1
125 36 1
36 180 1
180 36 1
36 269 1
269 36 1
36 413 1
413 36 1
36 646 1
646 36 1
36 1023 1
1023 36 1
36 1633 1
1633 36 1
37 42 1
42 37 1
37 45 1
45 37 1
37 50 1
50 37 1
37 126 1
126 37 1
37 181 1
181 37 1
37 270 1
270 37 1
37 414 1
414 37 1
37 647 1
647 37 1
37 1024 1
1024 37 1
37 1634 1
1634 37 1
38 39 1
39 38 1
38 46 1
46 38 1
38 51 1
51 38 1
38 127 1
127 38 1
38 182 1
182 38 1
38 271 1
271 38 1
38 415 1
415 38 1
38 648 1
648 38 1
38 1025 1
1025 38 1
38 1635 1
1635 38 1
39 47 1
47 39 1
39 52 1
52 39 1
39 128 1
128 39 1
39 183 1
183 39 1
39 272 1
272 39 1
39 416 1
416 39 1
39 649 1
649 39 1
39 1026 1
1026 39 1
39 1636 1
1636 39 1
40 41 1
41 40 1
40 42 1
42 40 1
40 53 1
53 40 1
40 129 1
129 40 1
40 184 1
184 40 1
40 273 1
273 40 1
40 417 1
417 40 1
40 650 1
650 40 1
40 1027 1
1027 40 1
40 1637 1
1637 40 1
41 54 1
54 41 1
41 130 1
130 41 1
41 185 1
185 41 1
41 274 1
274 41 1
41 418 1
418 41 1
41 651 1
651 41 1
41 1028 1
1028 41 1
41 1638 1
1638 41 1
42 55 1
55 42 1
42 131 1
131 42 1
42 186 1
186 42 1
42 275 1
275 42 1
42 419 1
419 42 1
42 652 1
652 42 1
42 1029 1
1029 42 1
42 1639 1
1639 42 1
43 44 1
44 43 1
43 45 1
45 43 1
43 46 1
46 43 1
43 132 1
132 43 1
43 187 1
187 43 1
43 276 1
276 43 1
43 420 1
420 43 1
43 653 1
653 43 1
43 1030 1
1030 43 1
43 1640 1
1640 43 1
44 47 1
47 44 1
44 133 1
133 44 1
44 188 1
188 44 1
44 277 1
277 44 1
44 421 1
421 44 1
44 654 1
654 44 1
44 1031 1
1031 44 1
44 1641 1
1641 44 1
45 134 1
134 45 1
45 189 1
189 45 1
45 278 1
278 45 1
45 422 1
422 45 1
45 655 1
655 45 1
45 1032 1
1032 45 1
45 1642 1
1642 45 1
46 47 1
47 46 1
46 135 1
135 46 1
46 190 1
190 46 1
46 279 1
279 46 1
46 423 1
423 46 1
46 656 1
656 46 1
46 1033 1
1033 46 1
46 1643 1
1643 46 1
47 136 1
136 47 1
47 191 1
191 47 1
47 280 1
280 47 1
47 424 1
424 47 1
47 657 1
657 47 1
47 1034 1
1034 47 1
47 1644 1
1644 47 1
48 49 1
49 48 1
48 50 1
50 48 1
48 51 1
51 48 1
48 53 1
53 48 1
48 137 1
137 48 1
48 192 1
192 48 1
48 281 1
281 48 1
48 425 1
425 48 1
48 658 1
658 48 1
48 1035 1
1035 48 1
48 1645 1
1645 48 1
49 52 1
52 49 1
49 54 1
54 49 1
49 138 1
138 49 1
49 193 1
193 49 1
49 282 1
282 49 1
49 426 1
426 49 1
49 659 1
659 49 1
49 1036 1
1036 49 1
49 1646 1
1646 49 1
50 55 1
55 50 1
50 139 1
139 50 1
50 194 1
194 50 1
50 283 1
283 50 1
50 427 1
427 50 1
50 660 1
660 50 1
50 1037 1
1037 50 1
50 1647 1
1647 50 1
51 52 1
52 51 1
51 140 1
140 51 1
51 195 1
195 51 1
51 284 1
284 51 1
51 428 1
428 51 1
51 661 1
661 51 1
51 1038 1
1038 51 1
51 1648 1
1648 51 1
52 141 1
141 52 1
52 196 1
196 52 1
52 285 1
285 52 1
52 429 1
429 52 1
52 662 1
662 52 1
52 1039 1
1039 52 1
52 1649 1
1649 52 1
53 54 1
54 53 1
53 55 1
55 53 1
53 142 1
142 53 1
53 197 1
197 53 1
53 286 1
286 53 1
53 430 1
430 53 1
53 663 1
663 53 1
53 1040 1
1040 53 1
53 1650 1
1650 53 1
54 143 1
143 54 1
54 198 1
198 54 1
54 287 1
287 54 1
54 431 1
431 54 1
54 664 1
664 54 1
54 1041 1
1041 54 1
54 1651 1
1651 54 1
55 144 1
144 55 1
55 199 1
199 55 1
55 288 1
288 55 1
55 432 1
432 55 1
55 665 1
665 55 1
55 1042 1
1042 55 1
55 1652 1
1652 55 1
56 57 1
57 56 1
56 58 1
58 56 1
56 59 1
59 56 1
56 61 1
61 56 1
56 64 1
64 56 1
56 69 1
69 56 1
56 77 1
77 56 1
56 200 1
200 56 1
56 289 1
289 56 1
56 433 1
433 56 1
56 666 1
666 56 1
56 1043 1
1043 56 1
56 1653 1
1653 56 1
57 60 1
60 57 1
57 62 1
62 57 1
57 65 1
65 57 1
57 70 1
70 57 1
57 78 1
78 57 1
57 201 1
201 57 1
57 290 1
290 57 1
57 434 1
434 57 1
57 667 1
667 57 1
57 1044 1
1044 57 1
57 1654 1
1654 57 1
58 63 1
63 58 1
58 66 1
66 58 1
58 71 1
71 58 1
58 79 1
79 58 1
58 202 1
202 58 1
58 291 1
291 58 1
58 435 1
435 58 1
58 668 1
668 58 1
58 1045 1
1045 58 1
58 1655 1
1655 58 1
59 60 1
60 59 1
59 67 1
67 59 1
59 72 1
72 59 1
59 80 1
80 59 1
59 203 1
203 59 1
59 292 1
292 59 1
59 436 1
436 59 1
59 669 1
669 59 1
59 1046 1
1046 59 1
59 1656 1
1656 59 1
60 68 1
68 60 1
60 73 1
73 60 1
60 81 1
81 60 1
60 204 1
204 60 1
60 293 1
293 60 1
60 437 1
437 60 1
60 670 1
670 60 1
60 1047 1
1047 60 1
60 1657 1
1657 60 1
61 62 1
62 61 1
61 63 1
63 61 1
61 74 1
74 61 1
61 82 1
82 61 1
61 205 1
205 61 1
61 294 1
294 61 1
61 438 1
438 61 1
61 671 1
671 61 1
61 1048 1
1048 61 1
61 1658 1
1658 61 1
62 75 1
75 62 1
62 83 1
83 62 1
62 206 1
206 62 1
62 295 1
295 62 1
62 439 1
439 62 1
62 672 1
672 62 1
62 1049 1
1049 62 1
62 1659 1
1659 62 1
63 76 1
76 63 1
63 84 1
84 63 1
63 207 1
207 63 1
63 296 1
296 63 1
63 440 1
440 63 1
63 673 1
673 63 1
63 1050 1
1050 63 1
63 1660 1
1660 63 1
64 65 1
65 64 1
64 66 1
66 64 1
64 67 1
67 64 1
64 85 1
85 64 1
64 208 1
208 64 1
64 297 1
297 64 1
64 441 1
441 64 1
64 674 1
674 64 1
64 1051 1
1051 64 1
64 1661 1
1661 64 1
65 68 1
68 65 1
65 86 1
86 65 1
65 209 1
209 65 1
65 298 1
298 65 1
65 442 1
442 65 1
65 675 1
675 65 1
65 1052 1
1052 65 1
65 1662 1
1662 65 1
66 87 1
87 66 1
66 210 1
210 66 1
66 299 1
299 66 1
66 443 1
443 66 1
66 676 1
676 66 1
66 1053 1
1053 66 1
66 1663 1
1663 66 1
67 68 1
68 67 1
67 88 1
88 67 1
67 211 1
211 67 1
67 300 1
300 67 1
67 444 1
444 67 1
67 677 1
677 67 1
67 1054 1
1054 67 1
67 1664 1
1664 67 1
68 89 1
89 68 1
68 212 1
212 68 1
68 301 1
301 68 1
68 445 1
445 68 1
68 678 1
678 68 1
68 1055 1
1055 68 1
68 1665 1
1665 68 1
69 70 1
70 69 1
69 71 1
71 69 1
69 72 1
72 69 1
69 74 1
74 69 1
69 213 1
213 69 1
69 302 1
302 69 1
69 446 1
446 69 1
69 679 1
679 69 1
69 1056 1
1056 69 1
69 1666 1
1666 69 1
70 73 1
73 70 1
70 75 1
75 70 1
70 214 1
214 70 1
70 303 1
303 70 1
70 447 1
447 70 1
70 680 1
680 70 1
70 1057 1
1057 70 1
70 1667 1
1667 70 1
71 76 1
76 71 1
71 215 1
215 71 1
71 304 1
304 71 1
71 448 1
448 71 1
71 681 1
681 71 1
71 1058 1
1058 71 1
71 1668 1
1668 71 1
72 73 1
73 72 1
72 216 1
216 72 1
72 305 1
305 72 1
72 449 1
449 72 1
72 682 1
682 72 1
72 1059 1
1059 72 1
72 1669 1
1669 72 1
73 217 1
217 73 1
73 306 1
306 73 1
73 450 1
450 73 1
73 683 1
683 73 1
73 1060 1
1060 73 1
73 1670 1
1670 73 1
74 75 1
75 74 1
74 76 1
76 74 1
74 218 1
218 74 1
74 307 1
307 74 1
74 451 1
451 74 1
74 684 1
684 74 1
74 1061 1
1061 74 1
74 1671 1
1671 74 1
75 219 1
219 75 1
75 308 1
308 75 1
75 452 1
452 75 1
75 685 1
685 75 1
75 1062 1
1062 75 1
75 1672 1
1672 75 1
76 220 1
220 76 1
76 309 1
309 76 1
76 453 1
453 76 1
76 686 1
686 76 1
76 1063 1
1063 76 1
76 1673 1
1673 76 1
77 78 1
78 77 1
77 79 1
79 77 1
77 80 1
80 77 1
77 82 1
82 77 1
77 85 1
85 77 1
77 221 1
221 77 1
77 310 1
310 77 1
77 454 1
454 77 1
77 687 1
687 77 1
77 1064 1
1064 77 1
77 1674 1
1674 77 1
78 81 1
81 78 1
78 83 1
83 78 1
78 86 1
86 78 1
78 222 1
222 78 1
78 311 1
311 78 1
78 455 1
455 78 1
78 688 1
688 78 1
78 1065 1
1065 78 1
78 1675 1
1675 78 1
79 84 1
84 79 1
79 87 1
87 79 1
79 223 1
223 79 1
79 312 1
312 79 1
79 456 1
456 79 1
79 689 1
689 79 1
79 1066 1
1066 79 1
79 1676 1
1676 79 1
80 81 1
81 80 1
80 88 1
88 80 1
80 224 1
224 80 1
80 313 1
313 80 1
80 457 1
457 80 1
80 690 1
690 80 1
80 1067 1
1067 80 1
80 1677 1
1677 80 1
81 89 1
89 81 1
81 225 1
225 81 1
81 314 1
314 81 1
81 458 1
458 81 1
81 691 1
691 81 1
81 1068 1
1068 81 1
81 1678 1
1678 81 1
82 83 1
83 82 1
82 84 1
84 82 1
82 226 1
226 82 1
82 315 1
315 82 1
82 459 1
459 82 1
82 692 1
692 82 1
82 1069 1
1069 82 1
82 1679 1
1679 82 1
83 227 1
227 83 1
83 316 1
316 83 1
83 460 1
460 83 1
83 693 1
693 83 1
83 1070 1
1070 83 1
83 1680 1
1680 83 1
84 228 1
228 84 1
84 317 1
317 84 1
84 461 1
461 84 1
84 694 1
694 84 1
84 1071 1
1071 84 1
84 1681 1
1681 84 1
85 86 1
86 85 1
85 87 1
87 85 1
85 88 1
88 85 1
85 229 1
229 85 1
85 318 1
318 85 1
85 462 1
462 85 1
85 695 1
695 85 1
85 1072 1
1072 85 1
85 1682 1
1682 85 1
86 89 1
89 86 1
86 230 1
230 86 1
86 319 1
319 86 1
86 463 1
463 86 1
86 696 1
696 86 1
86 1073 1
1073 86 1
86 1683 1
1683 86 1
87 231 1
231 87 1
87 320 1
320 87 1
87 464 1
464 87 1
87 697 1
697 87 1
87 1074 1
1074 87 1
87 1684 1
1684 87 1
88 89 1
89 88 1
88 232 1
232 88 1
88 321 1
321 88 1
88 465 1
465 88 1
88 698 1
698 88 1
88 1075 1
1075 88 1
88 1685 1
1685 88 1
89 233 1
233 89 1
89 322 1
322 89 1
89 466 1
466 89 1
89 699 1
699 89 1
89 1076 1
1076 89 1
89 1686 1
1686 89 1
90 91 1
91 90 1
90 92 1
92 90 1
90 93 1
93 90 1
90 95 1
95 90 1
90 98 1
98 90 1
90 103 1
103 90 1
90 111 1
111 90 1
90 124 1
124 90 1
90 323 1
323 90 1
90 467 1
467 90 1
90 700 1
700 90 1
90 1077 1
1077 90 1
90 1687 1
1687 90 1
91 94 1
94 91 1
91 96 1
96 91 1
91 99 1
99 91 1
91 104 1
104 91 1
91 112 1
112 91 1
91 125 1
125 91 1
91 324 1
324 91 1
91 468 1
468 91 1
91 701 1
701 91 1
91 1078 1
1078 91 1
91 1688 1
1688 91 1
92 97 1
97 92 1
92 100 1
100 92 1
92 105 1
105 92 1
92 113 1
113 92 1
92 126 1
126 92 1
92 325 1
325 92 1
92 469 1
469 92 1
92 702 1
702 92 1
92 1079 1
1079 92 1
92 1689 1
1689 92 1
93 94 1
94 93 1
93 101 1
101 93 1
93 106 1
106 93 1
93 114 1
114 93 1
93 127 1
127 93 1
93 326 1
326 93 1
93 470 1
470 93 1
93 703 1
703 93 1
93 1080 1
1080 93 1
93 1690 1
1690 93 1
94 102 1
102 94 1
94 107 1
107 94 1
94 115 1
115 94 1
94 128 1
128 94 1
94 327 1
327 94 1
94 471 1
471 94 1
94 704 1
704 94 1
94 1081 1
1081 94 1
94 1691 1
1691 94 1
95 96 1
96 95 1
95 97 1
97 95 1
95 108 1
108 95 1
95 116 1
116 95 1
95 129 1
129 95 1
95 328 1
328 95 1
95 472 1
472 95 1
95 705 1
705 95 1
95 1082 1
1082 95 1
95 1692 1
1692 95 1
96 109 1
109 96 1
96 117 1
117 96 1
96 130 1
130 96 1
96 329 1
329 96 1
96 473 1
473 96 1
96 706 1
706 96 1
96 1083 1
1083 96 1
96 1693 1
1693 96 1
97 110 1
110 97 1
97 118 1
118 97 1
97 131 1
131 97 1
97 330 1
330 97 1
97 474 1
474 97 1
97 707 1
707 97 1
97 1084 1
1084 97 1
97 1694 1
1694 97 1
98 99 1
99 98 1
98 100 1
100 98 1
98 101 1
101 98 1
98 119 1
119 98 1
98 132 1
132 98 1
98 331 1
331 98 1
98 475 1
475 98 1
98 708 1
708 98 1
98 1085 1
1085 98 1
98 1695 1
1695 98 1
99 102 1
102 99 1
99 120 1
120 99 1
99 133 1
133 99 1
99 332 1
332 99 1
99 476 1
476 99 1
99 709 1
709 99 1
99 1086 1
1086 99 1
99 1696 1
1696 99 1
100 121 1
121 100 1
100 134 1
134 100 1
100 333 1
333 100 1
100 477 1
477 100 1
100 710 1
710 100 1
100 1087 1
1087 100 1
100 1697 1
1697 100 1
101 102 1
102 101 1
101 122 1
122 101 1
101 135 1
135 101 1
101 334 1
334 101 1
101 478 1
478 101 1
101 711 1
711 101 1
101 1088 1
1088 101 1
101 1698 1
1698 101 1
102 123 1
123 102 1
102 136 1
136 102 1
102 335 1
335 102 1
102 479 1
479 102 1
102 712 1
712 102 1
102 1089 1
1089 102 1
102 1699 1
1699 102 1
103 104 1
104 103 1
103 105 1
105 103 1
103 106 1
106 103 1
103 108 1
108 103 1
103 137 1
137 103 1
103 336 1
336 103 1
103 480 1
480 103 1
103 713 1
713 103 1
103 1090 1
1090 103 1
103 1700 1
1700 103 1
104 107 1
107 104 1
104 109 1
109 104 1
104 138 1
138 104 1
104 337 1
337 104 1
104 481 1
481 104 1
104 714 1
714 104 1
104 1091 1
1091 104 1
104 1701 1
1701 104 1
105 110 1
110 105 1
105 139 1
139 105 1
105 338 1
338 105 1
105 482 1
482 105 1
105 715 1
715 105 1
105 1092 1
1092 105 1
105 1702 1
1702 105 1
106 107 1
107 106 1
106 140 1
140 106 1
106 339 1
339 106 1
106 483 1
483 106 1
106 716 1
716 106 1
106 1093 1
1093 106 1
106 1703 1
1703 106 1
107 141 1
141 107 1
107 340 1
340 107 1
107 484 1
484 107 1
107 717 1
717 107 1
107 1094 1
1094 107 1
107 1704 1
1704 107 1
108 109 1
109 108 1
108 110 1
110 108 1
108 142 1
142 108 1
108 341 1
341 108 1
108 485 1
485 108 1
108 718 1
718 108 1
108 1095 1
1095 108 1
108 1705 1
1705 108 1
109 143 1
143 109 1
109 342 1
342 109 1
109 486 1
486 109 1
109 719 1
719 109 1
109 1096 1
1096 109 1
109 1706 1
1706 109 1
110 144 1
144 110 1
110 343 1
343 110 1
110 487 1
487 110 1
110 720 1
720 110 1
110 1097 1
1097 110 1
110 1707 1
1707 110 1
111 112 1
112 111 1
111 113 1
113 111 1
111 114 1
114 111 1
111 116 1
116 111 1
111 119 1
119 111 1
111 344 1
344 111 1
111 488 1
488 111 1
111 721 1
721 111 1
111 1098 1
1098 111 1
111 1708 1
1708 111 1
112 115 1
115 112 1
112 117 1
117 112 1
112 120 1
120 112 1
112 345 1
345 112 1
112 489 1
489 112 1
112 722 1
722 112 1
112 1099 1
1099 112 1
112 1709 1
1709 112 1
113 118 1
118 113 1
113 121 1
121 113 1
113 346 1
346 113 1
113 490 1
490 113 1
113 723 1
723 113 1
113 1100 1
1100 113 1
113 1710 1
1710 113 1
114 115 1
115 114 1
114 122 1
122 114 1
114 347 1
347 114 1
114 491 1
491 114 1
114 724 1
724 114 1
114 1101 1
1101 114 1
114 1711 1
1711 114 1
115 123 1
123 115 1
115 348 1
348 115 1
115 492 1
492 115 1
115 725 1
725 115 1
115 1102 1
1102 115 1
115 1712 1
1712 115 1
116 117 1
117 116 1
116 118 1
118 116 1
116 349 1
349 116 1
116 493 1
493 116 1
116 726 1
726 116 1
116 1103 1
1103 116 1
116 1713 1
1713 116 1
117 350 1
350 117 1
117 494 1
494 117 1
117 727 1
727 117 1
117 1104 1
1104 117 1
117 1714 1
1714 117 1
118 351 1
351 118 1
118 495 1
495 118 1
118 728 1
728 118 1
118 1105 1
1105 118 1
118 1715 1
1715 118 1
119 120 1
120 119 1
119 121 1
121 119 1
119 122 1
122 119 1
119 352 1
352 119 1
119 496 1
496 119 1
119 729 1
729 119 1
119 1106 1
1106 119 1
119 1716 1
1716 119 1
120 123 1
123 120 1
120 353 1
353 120 1
120 497 1
497 120 1
120 730 1
730 120 1
120 1107 1
1107 120 1
120 1717 1
1717 120 1
121 354 1
354 121 1
121 498 1
498 121 1
121 731 1
731 121 1
121 1108 1
1108 121 1
121 1718 1
1718 121 1
122 123 1
123 122 1
122 355 1
355 122 1
122 499 1
499 122 1
122 732 1
732 122 1
122 1109 1
1109 122 1
122 1719 1
1719 122 1
123 356 1
356 123 1
123 500 1
500 123 1
123 733 1
733 123 1
123 1110 1
1110 123 1
123 1720 1
1720 123 1
124 125 1
125 124 1
124 126 1
126 124 1
124 127 1
127 124 1
124 129 1
129 124 1
124 132 1
132 124 1
124 137 1
137 124 1
124 357 1
357 124 1
124 501 1
501 124 1
124 734 1
734 124 1
124 1111 1
1111 124 1
124 1721 1
1721 124 1
125 128 1
128 125 1
125 130 1
130 125 1
125 133 1
133 125 1
125 138 1
138 125 1
125 358 1
358 125 1
125 502 1
502 125 1
125 735 1
735 125 1
125 1112 1
1112 125 1
125 1722 1
1722 125 1
126 131 1
131 126 1
126 134 1
134 126 1
126 139 1
139 126 1
126 359 1
359 126 1
126 503 1
503 126 1
126 736 1
736 126 1
126 1113 1
1113 126 1
126 1723 1
1723 126 1
127 128 1
128 127 1
127 135 1
135 127 1
127 140 1
140 127 1
127 360 1
360 127 1
127 504 1
504 127 1
127 737 1
737 127 1
127 1114 1
1114 127 1
127 1724 1
1724 127 1
128 136 1
136 128 1
128 141 1
141 128 1
128 361 1
361 128 1
128 505 1
505 128 1
128 738 1
738 128 1
128 1115 1
1115 128 1
128 1725 1
1725 128 1
129 130 1
130 129 1
129 131 1
131 129 1
129 142 1
142 129 1
129 362 1
362 129 1
129 506 1
506 129 1
129 739 1
739 129 1
129 1116 1
1116 129 1
129 1726 1
1726 129 1
130 143 1
143 130 1
130 363 1
363 130 1
130 507 1
507 130 1
130 740 1
740 130 1
130 1117 1
1117 130 1
130 1727 1
1727 130 1
131 144 1
144 131 1
131 364 1
364 131 1
131 508 1
508 131 1
131 741 1
741 131 1
131 1118 1
1118 131 1
131 1728 1
1728 131 1
132 133 1
133 132 1
132 134 1
134 132 1
132 135 1
135 132 1
132 365 1
365 132 1
132 509 1
509 132 1
132 742 1
742 132 1
132 1119 1
1119 132 1
132 1729 1
1729 132 1
133 136 1
136 133 1
133 366 1
366 133 1
133 510 1
510 133 1
133 743 1
743 133 1
133 1120 1
1120 133 1
133 1730 1
1730 133 1
134 367 1
367 134 1
134 511 1
511 134 1
134 744 1
744 134 1
134 1121 1
1121 134 1
134 1731 1
1731 134 1
135 136 1
136 135 1
135 368 1
368 135 1
135 512 1
512 135 1
135 745 1
745 135 1
135 1122 1
1122 135 1
135 1732 1
1732 135 1
136 369 1
369 136 1
136 513 1
513 136 1
136 746 1
746 136 1
136 1123 1
1123 136 1
136 1733 1
1733 136 1
137 138 1
138 137 1
137 139 1
139 137 1
137 140 1
140 137 1
137 142 1
142 137 1
137 370 1
370 137 1
137 514 1
514 137 1
137 747 1
747 137 1
137 1124 1
1124 137 1
137 1734 1
1734 137 1
138 141 1
141 138 1
138 143 1
143 138 1
138 371 1
371 138 1
138 515 1
515 138 1
138 748 1
748 138 1
138 1125 1
1125 138 1
138 1735 1
1735 138 1
139 144 1
144 139 1
139 372 1
372 139 1
139 516 1
516 139 1
139 749 1
749 139 1
139 1126 1
1126 139 1
139 1736 1
1736 139 1
140 141 1
141 140 1
140 373 1
373 140 1
140 517 1
517 140 1
140 750 1
750 140 1
140 1127 1
1127 140 1
140 1737 1
1737 140 1
141 374 1
374 141 1
141 518 1
518 141 1
141 751 1
751 141 1
141 1128 1
1128 141 1
141 1738 1
1738 141 1
142 143 1
143 142 1
142 144 1
144 142 1
142 375 1
375 142 1
142 519 1
519 142 1
142 752 1
752 142 1
142 1129 1
1129 142 1
142 1739 1
1739 142 1
143 376 1
376 143 1
143 520 1
520 143 1
143 753 1
753 143 1
143 1130 1
1130 143 1
143 1740 1
1740 143 1
144 377 1
377 144 1
144 521 1
521 144 1
144 754 1
754 144 1
144 1131 1
1131 144 1
144 1741 1
1741 144 1
145 146 1
146 145 1
145 147 1
147 145 1
145 148 1
148 145 1
145 150 1
150 145 1
145 153 1
153 145 1
145 158 1
158 145 1
145 166 1
166 145 1
145 179 1
179 145 1
145 200 1
200 145 1
145 522 1
522 145 1
145 755 1
755 145 1
145 1132 1
1132 145 1
145 1742 1
1742 145 1
146 149 1
149 146 1
146 151 1
151 146 1
146 154 1
154 146 1
146 159 1
159 146 1
146 167 1
167 146 1
146 180 1
180 146 1
146 201 1
201 146 1
146 523 1
523 146 1
146 756 1
756 146 1
146 1133 1
1133 146 1
146 1743 1
1743 146 1
147 152 1
152 147 1
147 155 1
155 147 1
147 160 1
160 147 1
147 168 1
168 147 1
147 181 1
181 147 1
147 202 1
202 147 1
147 524 1
524 147 1
147 757 1
757 147 1
147 1134 1
1134 147 1
147 1744 1
1744 147 1
148 149 1
149 148 1
148 156 1
156 148 1
148 161 1
161 148 1
148 169 1
169 148 1
148 182 1
182 148 1
148 203 1
203 148 1
148 525 1
525 148 1
148 758 1
758 148 1
148 1135 1
1135 148 1
148 1745 1
1745 148 1
149 157 1
157 149 1
149 162 1
162 149 1
149 170 1
170 149 1
149 183 1
183 149 1
149 204 1
204 149 1
149 526 1
526 149 1
149 759 1
759 149 1
149 1136 1
1136 149 1
149 1746 1
1746 149 1
150 151 1
151 150 1
150 152 1
152 150 1
150 163 1
163 150 1
150 171 1
171 150 1
150 184 1
184 150 1
150 205 1
205 150 1
150 527 1
527 150 1
150 760 1
760 150 1
150 1137 1
1137 150 1
150 1747 1
1747 150 1
151 164 1
164 151 1
151 172 1
172 151 1
151 185 1
185 151 1
151 206 1
206 151 1
151 528 1
528 151 1
151 761 1
761 151 1
151 1138 1
1138 151 1
151 1748 1
1748 151 1
152 165 1
165 152 1
152 173 1
173 152 1
152 186 1
186 152 1
152 207 1
207 152 1
152 529 1
529 152 1
152 762 1
762 152 1
152 1139 1
1139 152 1
152 1749 1
1749 152 1
153 154 1
154 153 1
153 155 1
155 153 1
153 156 1
156 153 1
153 174 1
174 153 1
153 187 1
187 153 1
153 208 1
208 153 1
153 530 1
530 153 1
153 763 1
763 153 1
153 1140 1
1140 153 1
153 1750 1
1750 153 1
154 157 1
157 154 1
154 175 1
175 154 1
154 188 1
188 154 1
154 209 1
209 154 1
154 531 1
531 154 1
154 764 1
764 154 1
154 1141 1
1141 154 1
154 1751 1
1751 154 1
155 176 1
176 155 1
155 189 1
189 155 1
155 210 1
210 155 1
155 532 1
532 155 1
155 765 1
765 155 1
155 1142 1
1142 155 1
155 1752 1
1752 155 1
156 157 1
157 156 1
156 177 1
177 156 1
156 190 1
190 156 1
156 211 1
211 156 1
156 533 1
533 156 1
156 766 1
766 156 1
156 1143 1
1143 156 1
156 1753 1
1753 156 1
157 178 1
178 157 1
157 191 1
191 157 1
157 212 1
212 157 1
157 534 1
534 157 1
157 767 1
767 157 1
157 1144 1
1144 157 1
157 1754 1
1754 157 1
158 159 1
159 158 1
158 160 1
160 158 1
158 161 1
161 158 1
158 163 1
163 158 1
158 192 1
192 158 1
158 213 1
213 158 1
158 535 1
535 158 1
158 768 1
768 158 1
158 1145 1
1145 158 1
158 1755 1
1755 158 1
159 162 1
162 159 1
159 164 1
164 159 1
159 193 1
193 159 1
159 214 1
214 159 1
159 536 1
536 159 1
159 769 1
769 159 1
159 1146 1
1146 159 1
159 1756 1
1756 159 1
160 165 1
165 160 1
160 194 1
194 160 1
160 215 1
215 160 1
160 537 1
537 160 1
160 770 1
770 160 1
160 1147 1
1147 160 1
160 1757 1
1757 160 1
161 162 1
162 161 1
161 195 1
195 161 1
161 216 1
216 161 1
161 538 1
538 161 1
161 771 1
771 161 1
161 1148 1
1148 161 1
161 1758 1
1758 161 1
162 196 1
196 162 1
162 217 1
217 162 1
162 539 1
539 162 1
162 772 1
772 162 1
162 1149 1
1149 162 1
162 1759 1
1759 162 1
163 164 1
164 163 1
163 165 1
165 163 1
163 197 1
197 163 1
163 218 1
218 163 1
163 540 1
540 163 1
163 773 1
773 163 1
163 1150 1
1150 163 1
163 1760 1
1760 163 1
164 198 1
198 164 1
164 219 1
219 164 1
164 541 1
541 164 1
164 774 1
774 164 1
164 1151 1
1151 164 1
164 1761 1
1761 164 1
165 199 1
199 165 1
165 220 1
220 165 1
165 542 1
542 165 1
165 775 1
775 165 1
165 1152 1
1152 165 1
165 1762 1
1762 165 1
166 167 1
167 166 1
166 168 1
168 166 1
166 169 1
169 166 1
166 171 1
171 166 1
166 174 1
174 166 1
166 221 1
221 166 1
166 543 1
543 166 1
166 776 1
776 166 1
166 1153 1
1153 166 1
166 1763 1
1763 166 1
167 170 1
170 167 1
167 172 1
172 167 1
167 175 1
175 167 1
167 222 1
222 167 1
167 544 1
544 167 1
167 777 1
777 167 1
167 1154 1
1154 167 1
167 1764 1
1764 167 1
168 173 1
173 168 1
168 176 1
176 168 1
168 223 1
223 168 1
168 545 1
545 168 1
168 778 1
778 168 1
168 1155 1
1155 168 1
168 1765 1
1765 168 1
169 170 1
170 169 1
169 177 1
177 169 1
169 224 1
224 169 1
169 546 1
546 169 1
169 779 1
779 169 1
169 1156 1
1156 169 1
169 1766 1
1766 169 1
170 178 1
178 170 1
170 225 1
225 170 1
170 547 1
547 170 1
170 780 1
780 170 1
170 1157 1
1157 170 1
170 1767 1
1767 170 1
171 172 1
172 171 1
171 173 1
173 171 1
171 226 1
226 171 1
171 548 1
548 171 1
171 781 1
781 171 1
171 1158 1
1158 171 1
171 1768 1
1768 171 1
172 227 1
227 172 1
172 549 1
549 172 1
172 782 1
782 172 1
172 1159 1
1159 172 1
172 1769 1
1769 172 1
173 228 1
228 173 1
173 550 1
550 173 1
173 783 1
783 173 1
173 1160 1
1160 173 1
173 1770 1
1770 173 1
174 175 1
175 174 1
174 176 1
176 174 1
174 177 1
177 174 1
174 229 1
229 174 1
174 551 1
551 174 1
174 784 1
784 174 1
174 1161 1
1161 174 1
174 1771 1
1771 174 1
175 178 1
178 175 1
175 230 1
230 175 1
175 552 1
552 175 1
175 785 1
785 175 1
175 1162 1
1162 175 1
175 1772 1
1772 175 1
176 231 1
231 176 1
176 553 1
553 176 1
176 786 1
786 176 1
176 1163 1
1163 176 1
176 1773 1
1773 176 1
177 178 1
178 177 1
177 232 1
232 177 1
177 554 1
554 177 1
177 787 1
787 177 1
177 1164 1
1164 177 1
177 1774 1
1774 177 1
178 233 1
233 178 1
178 555 1
555 178 1
178 788 1
788 178 1
178 1165 1
1165 178 1
178 1775 1
1775 178 1
179 180 1
180 179 1
179 181 1
181 179 1
179 182 1
182 179 1
179 184 1
184 179 1
179 187 1
187 179 1
179 192 1
192 179 1
179 556 1
556 179 1
179 789 1
789 179 1
179 1166 1
1166 179 1
179 1776 1
1776 179 1
180 183 1
183 180 1
180 185 1
185 180 1
180 188 1
188 180 1
180 193 1
193 180 1
180 557 1
557 180 1
180 790 1
790 180 1
180 1167 1
1167 180 1
180 1777 1
1777 180 1
181 186 1
186 181 1
181 189 1
189 181 1
181 194 1
194 181 1
181 558 1
558 181 1
181 791 1
791 181 1
181 1168 1
1168 181 1
181 1778 1
1778 181 1
182 183 1
183 182 1
182 190 1
190 182 1
182 195 1
195 182 1
182 559 1
559 182 1
182 792 1
792 182 1
182 1169 1
1169 182 1
182 1779 1
1779 182 1
183 191 1
191 183 1
183 196 1
196 183 1
183 560 1
560 183 1
183 793 1
793 183 1
183 1170 1
1170 183 1
183 1780 1
1780 183 1
184 185 1
185 184 1
184 186 1
186 184 1
184 197 1
197 184 1
184 561 1
561 184 1
184 794 1
794 184 1
184 1171 1
1171 184 1
184 1781 1
1781 184 1
185 198 1
198 185 1
185 562 1
562 185 1
185 795 1
795 185 1
185 1172 1
1172 185 1
185 1782 1
1782 185 1
186 199 1
199 186 1
186 563 1
563 186 1
186 796 1
796 186 1
186 1173 1
1173 186 1
186 1783 1
1783 186 1
187 188 1
188 187 1
187 189 1
189 187 1
187 190 1
190 187 1
187 564 1
564 187 1
187 797 1
797 187 1
187 1174 1
1174 187 1
187 1784 1
1784 187 1
188 191 1
191 188 1
188 565 1
565 188 1
188 798 1
798 188 1
188 1175 1
1175 188 1
188 1785 1
1785 188 1
189 566 1
566 189 1
189 799 1
799 189 1
189 1176 1
1176 189 1
189 1786 1
1786 189 1
190 191 1
191 190 1
190 567 1
567 190 1
190 800 1
800 190 1
190 1177 1
1177 190 1
190 1787 1
1787 190 1
191 568 1
568 191 1
191 801 1
801 191 1
191 1178 1
1178 191 1
191 1788 1
1788 191 1
192 193 1
193 192 1
192 194 1
194 192 1
192 195 1
195 192 1
192 197 1
197 192 1
192 569 1
569 192 1
192 802 1
802 192 1
192 1179 1
1179 192 1
192 1789 1
1789 192 1
193 196 1
196 193 1
193 198 1
198 193 1
193 570 1
570 193 1
193 803 1
803 193 1
193 1180 1
1180 193 1
193 1790 1
1790 193 1
194 199 1
199 194 1
194 571 1
571 194 1
194 804 1
804 194 1
194 1181 1
1181 194 1
194 1791 1
1791 194 1
195 196 1
196 195 1
195 572 1
572 195 1
195 805 1
805 195 1
195 1182 1
1182 195 1
195 1792 1
1792 195 1
196 573 1
573 196 1
196 806 1
806 196 1
196 1183 1
1183 196 1
196 1793 1
1793 196 1
197 198 1
198 197 1
197 199 1
199 197 1
197 574 1
574 197 1
197 807 1
807 197 1
197 1184 1
1184 197 1
197 1794 1
1794 197 1
198 575 1
575 198 1
198 808 1
808 198 1
198 1185 1
1185 198 1
198 1795 1
1795 198 1
199 576 1
576 199 1
199 809 1
809 199 1
199 1186 1
1186 199 1
199 1796 1
1796 199 1
200 201 1
201 200 1
200 202 1
202 200 1
200 203 1
203 200 1
200 205 1
205 200 1
200 208 1
208 200 1
200 213 1
213 200 1
200 221 1
221 200 1
200 577 1
577 200 1
200 810 1
810 200 1
200 1187 1
1187 200 1
200 1797 1
1797 200 1
201 204 1
204 201 1
201 206 1
206 201 1
201 209 1
209 201 1
201 214 1
214 201 1
201 222 1
222 201 1
201 578 1
578 201 1
201 811 1
811 201 1
201 1188 1
1188 201 1
201 1798 1
1798 201 1
202 207 1
207 202 1
202 210 1
210 202 1
202 215 1
215 202 1
202 223 1
223 202 1
202 579 1
579 202 1
202 812 1
812 202 1
202 1189 1
1189 202 1
202 1799 1
1799 202 1
203 204 1
204 203 1
203 211 1
211 203 1
203 216 1
216 203 1
203 224 1
224 203 1
203 580 1
580 203 1
203 813 1
813 203 1
203 1190 1
1190 203 1
203 1800 1
1800 203 1
204 212 1
212 204 1
204 217 1
217 204 1
204 225 1
225 204 1
204 581 1
581 204 1
204 814 1
814 204 1
204 1191 1
1191 204 1
204 1801 1
1801 204 1
205 206 1
206 205 1
205 207 1
207 205 1
205 218 1
218 205 1
205 226 1
226 205 1
205 582 1
582 205 1
205 815 1
815 205 1
205 1192 1
1192 205 1
205 1802 1
1802 205 1
206 219 1
219 206 1
206 227 1
227 206 1
206 583 1
583 206 1
206 816 1
816 206 1
206 1193 1
1193 206 1
206 1803 1
1803 206 1
207 220 1
220 207 1
207 228 1
228 207 1
207 584 1
584 207 1
207 817 1
817 207 1
207 1194 1
1194 207 1
207 1804 1
1804 207 1
208 209 1
209 208 1
208 210 1
210 208 1
208 211 1
211 208 1
208 229 1
229 208 1
208 585 1
585 208 1
208 818 1
818 208 1
208 1195 1
1195 208 1
208 1805 1
1805 208 1
209 212 1
212 209 1
209 230 1
230 209 1
209 586 1
586 209 1
209 819 1
819 209 1
209 1196 1
1196 209 1
209 1806 1
1806 209 1
210 231 1
231 210 1
210 587 1
587 210 1
210 820 1
820 210 1
210 1197 1
1197 210 1
210 1807 1
1807 210 1
211 212 1
212 211 1
211 232 1
232 211 1
211 588 1
588 211 1
211 821 1
821 211 1
211 1198 1
1198 211 1
211 1808 1
1808 211 1
212 233 1
233 212 1
212 589 1
589 212 1
212 822 1
822 212 1
212 1199 1
1199 212 1
212 1809 1
1809 212 1
213 214 1
214 213 1
213 215 1
215 213 1
213 216 1
216 213 1
213 218 1
218 213 1
213 590 1
590 213 1
213 823 1
823 213 1
213 1200 1
1200 213 1
213 1810 1
1810 213 1
214 217 1
217 214 1
214 219 1
219 214 1
214 591 1
591 214 1
214 824 1
824 214 1
214 1201 1
1201 214 1
214 1811 1
1811 214 1
215 220 1
220 215 1
215 592 1
592 215 1
215 825 1
825 215 1
215 1202 1
1202 215 1
215 1812 1
1812 215 1
216 217 1
217 216 1
216 593 1
593 216 1
216 826 1
826 216 1
216 1203 1
1203 216 1
216 1813 1
1813 216 1
217 594 1
594 217 1
217 827 1
827 217 1
217 1204 1
1204 217 1
217 1814 1
1814 217 1
218 219 1
219 218 1
218 220 1
220 218 1
218 595 1
595 218 1
218 828 1
828 218 1
218 1205 1
1205 218 1
218 1815 1
1815 218 1
219 596 1
596 219 1
219 829 1
829 219 1
219 1206 1
1206 219 1
219 1816 1
1816 219 1
220 597 1
597 220 1
220 830 1
830 220 1
220 1207 1
1207 220 1
220 1817 1
1817 220 1
221 222 1
222 221 1
221 223 1
223 221 1
221 224 1
224 221 1
221 226 1
226 221 1
221 229 1
229 221 1
221 598 1
598 221 1
221 831 1
831 221 1
221 1208 1
1208 221 1
221 1818 1
1818 221 1
222 225 1
225 222 1
222 227 1
227 222 1
222 230 1
230 222 1
222 599 1
599 222 1
222 832 1
832 222 1
222 1209 1
1209 222 1
222 1819 1
1819 222 1
223 228 1
228 223 1
223 231 1
231 223 1
223 600 1
600 223 1
223 833 1
833 223 1
223 1210 1
1210 223 1
223 1820 1
1820 223 1
224 225 1
225 224 1
224 232 1
232 224 1
224 601 1
601 224 1
224 834 1
834 224 1
224 1211 1
1211 224 1
224 1821 1
1821 224 1
225 233 1
233 225 1
225 602 1
602 225 1
225 835 1
835 225 1
225 1212 1
1212 225 1
225 1822 1
1822 225 1
226 227 1
227 226 1
226 228 1
228 226 1
226 603 1
603 226 1
226 836 1
836 226 1
226 1213 1
1213 226 1
226 1823 1
1823 226 1
227 604 1
604 227 1
227 837 1
837 227 1
227 1214 1
1214 227 1
227 1824 1
1824 227 1
228 605 1
605 228 1
228 838 1
838 228 1
228 1215 1
1215 228 1
228 1825 1
1825 228 1
229 230 1
230 229 1
229 231 1
231 229 1
229 232 1
232 229 1
229 606 1
606 229 1
229 839 1
839 229 1
229 1216 1
1216 229 1
229 1826 1
1826 229 1
230 233 1
233 230 1
230 607 1
607 230 1
230 840 1
840 230 1
230 1217 1
1217 230 1
230 1827 1
1827 230 1
231 608 1
608 231 1
231 841 1
841 231 1
231 1218 1
1218 231 1
231 1828 1
1828 231 1
232 233 1
233 232 1
232 609 1
609 232 1
232 842 1
842 232 1
232 1219 1
1219 232 1
232 1829 1
1829 232 1
233 610 1
610 233 1
233 843 1
843 233 1
233 1220 1
1220 233 1
233 1830 1
1830 233 1
234 235 1
235 234 1
234 236 1
236 234 1
234 237 1
237 234 1
234 239 1
239 234 1
234 242 1
242 234 1
234 247 1
247 234 1
234 255 1
255 234 1
234 268 1
268 234 1
234 289 1
289 234 1
234 323 1
323 234 1
234 844 1
844 234 1
234 1221 1
1221 234 1
234 1831 1
1831 234 1
235 238 1
238 235 1
235 240 1
240 235 1
235 243 1
243 235 1
235 248 1
248 235 1
235 256 1
256 235 1
235 269 1
269 235 1
235 290 1
290 235 1
235 324 1
324 235 1
235 845 1
845 235 1
235 1222 1
1222 235 1
235 1832 1
1832 235 1
236 241 1
241 236 1
236 244 1
244 236 1
236 249 1
249 236 1
236 257 1
257 236 1
236 270 1
270 236 1
236 291 1
291 236 1
236 325 1
325 236 1
236 846 1
846 236 1
236 1223 1
1223 236 1
236 1833 1
1833 236 1
237 238 1
238 237 1
237 245 1
245 237 1
237 250 1
250 237 1
237 258 1
258 237 1
237 271 1
271 237 1
237 292 1
292 237 1
237 326 1
326 237 1
237 847 1
847 237 1
237 1224 1
1224 237 1
237 1834 1
1834 237 1
238 246 1
246 238 1
238 251 1
251 238 1
238 259 1
259 238 1
238 272 1
272 238 1
238 293 1
293 238 1
238 327 1
327 238 1
238 848 1
848 238 1
238 1225 1
1225 238 1
238 1835 1
1835 238 1
239 240 1
240 239 1
239 241 1
241 239 1
239 252 1
252 239 1
239 260 1
260 239 1
239 273 1
273 239 1
239 294 1
294 239 1
239 328 1
328 239 1
239 849 1
849 239 1
239 1226 1
1226 239 1
239 1836 1
1836 239 1
240 253 1
253 240 1
240 261 1
261 240 1
240 274 1
274 240 1
240 295 1
295 240 1
240 329 1
329 240 1
240 850 1
850 240 1
240 1227 1
1227 240 1
240 1837 1
1837 240 1
241 254 1
254 241 1
241 262 1
262 241 1
241 275 1
275 241 1
241 296 1
296 241 1
241 330 1
330 241 1
241 851 1
851 241 1
241 1228 1
1228 241 1
241 1838 1
1838 241 1
242 243 1
243 242 1
242 244 1
244 242 1
242 245 1
245 242 1
242 263 1
263 242 1
242 276 1
276 242 1
242 297 1
297 242 1
242 331 1
331 242 1
242 852 1
852 242 1
242 1229 1
1229 242 1
242 1839 1
1839 242 1
243 246 1
246 243 1
243 264 1
264 243 1
243 277 1
277 243 1
243 298 1
298 243 1
243 332 1
332 243 1
243 853 1
853 243 1
243 1230 1
1230 243 1
243 1840 1
1840 243 1
244 265 1
265 244 1
244 278 1
278 244 1
244 299 1
299 244 1
244 333 1
333 244 1
244 854 1
854 244 1
244 1231 1
1231 244 1
244 1841 1
1841 244 1
245 246 1
246 245 1
245 266 1
266 245 1
245 279 1
279 245 1
245 300 1
300 245 1
245 334 1
334 245 1
245 855 1
855 245 1
245 1232 1
1232 245 1
245 1842 1
1842 245 1
246 267 1
267 246 1
246 280 1
280 246 1
246 301 1
301 246 1
246 335 1
335 246 1
246 856 1
856 246 1
246 1233 1
1233 246 1
246 1843 1
1843 246 1
247 248 1
248 247 1
247 249 1
249 247 1
247 250 1
250 247 1
247 252 1
252 247 1
247 281 1
281 247 1
247 302 1
302 247 1
247 336 1
336 247 1
247 857 1
857 247 1
247 1234 1
1234 247 1
247 1844 1
1844 247 1
248 251 1
251 248 1
248 253 1
253 248 1
248 282 1
282 248 1
248 303 1
303 248 1
248 337 1
337 248 1
248 858 1
858 248 1
248 1235 1
1235 248 1
248 1845 1
1845 248 1
249 254 1
254 249 1
249 283 1
283 249 1
249 304 1
304 249 1
249 338 1
338 249 1
249 859 1
859 249 1
249 1236 1
1236 249 1
249 1846 1
1846 249 1
250 251 1
251 250 1
250 284 1
284 250 1
250 305 1
305 250 1
250 339 1
339 250 1
250 860 1
860 250 1
250 1237 1
1237 250 1
250 1847 1
1847 250 1
251 285 1
285 251 1
251 306 1
306 251 1
251 340 1
340 251 1
251 861 1
861 251 1
251 1238 1
1238 251 1
251 1848 1
1848 251 1
252 253 1
253 252 1
252 254 1
254 252 1
252 286 1
286 252 1
252 307 1
307 252 1
252 341 1
341 252 1
252 862 1
862 252 1
252 1239 1
1239 252 1
252 1849 1
1849 252 1
253 287 1
287 253 1
253 308 1
308 253 1
253 342 1
342 253 1
253 863 1
863 253 1
253 1240 1
1240 253 1
253 1850 1
1850 253 1
254 288 1
288 254 1
254 309 1
309 254 1
254 343 1
343 254 1
254 864 1
864 254 1
254 1241 1
1241 254 1
254 1851 1
1851 254 1
255 256 1
256 255 1
255 257 1
257 255 1
255 258 1
258 255 1
255 260 1
260 255 1
255 263 1
263 255 1
255 310 1
310 255 1
255 344 1
344 255 1
255 865 1
865 255 1
255 1242 1
1242 255 1
255 1852 1
1852 255 1
256 259 1
259 256 1
256 261 1
261 256 1
256 264 1
264 256 1
256 311 1
311 256 1
256 345 1
345 256 1
256 866 1
866 256 1
256 1243 1
1243 256 1
256 1853 1
1853 256 1
257 262 1
262 257 1
257 265 1
265 257 1
257 312 1
312 257 1
257 346 1
346 257 1
257 867 1
867 257 1
257 1244 1
1244 257 1
257 1854 1
1854 257 1
258 259 1
259 258 1
258 266 1
266 258 1
258 313 1
313 258 1
258 347 1
347 258 1
258 868 1
868 258 1
258 1245 1
1245 258 1
258 1855 1
1855 258 1
259 267 1
267 259 1
259 314 1
314 259 1
259 348 1
348 259 1
259 869 1
869 259 1
259 1246 1
1246 259 1
259 1856 1
1856 259 1
260 261 1
261 260 1
260 262 1
262 260 1
260 315 1
315 260 1
260 349 1
349 260 1
260 870 1
870 260 1
260 1247 1
1247 260 1
260 1857 1
1857 260 1
261 316 1
316 261 1
261 350 1
350 261 1
261 871 1
871 261 1
261 1248 1
1248 261 1
261 1858 1
1858 261 1
262 317 1
317 262 1
262 351 1
351 262 1
262 872 1
872 262 1
262 1249 1
1249 262 1
262 1859 1
1859 262 1
263 264 1
264 263 1
263 265 1
265 263 1
263 266 1
266 263 1
263 318 1
318 263 1
263 352 1
352 263 1
263 873 1
873 263 1
263 1250 1
1250 263 1
263 1860 1
1860 263 1
264 267 1
267 264 1
264 319 1
319 264 1
264 353 1
353 264 1
264 874 1
874 264 1
264 1251 1
1251 264 1
264 1861 1
1861 264 1
265 320 1
320 265 1
265 354 1
354 265 1
265 875 1
875 265 1
265 1252 1
1252 265 1
265 1862 1
1862 265 1
266 267 1
267 266 1
266 321 1
321 266 1
266 355 1
355 266 1
266 876 1
876 266 1
266 1253 1
1253 266 1
266 1863 1
1863 266 1
267 322 1
322 267 1
267 356 1
356 267 1
267 877 1
877 267 1
267 1254 1
1254 267 1
267 1864 1
1864 267 1
268 269 1
269 268 1
268 270 1
270 268 1
268 271 1
271 268 1
268 273 1
273 268 1
268 276 1
276 268 1
268 281 1
281 268 1
268 357 1
357 268 1
268 878 1
878 268 1
268 1255 1
1255 268 1
268 1865 1
1865 268 1
269 272 1
272 269 1
269 274 1
274 269 1
269 277 1
277 269 1
269 282 1
282 269 1
269 358 1
358 269 1
269 879 1
879 269 1
269 1256 1
1256 269 1
269 1866 1
1866 269 1
270 275 1
275 270 1
270 278 1
278 270 1
270 283 1
283 270 1
270 359 1
359 270 1
270 880 1
880 270 1
270 1257 1
1257 270 1
270 1867 1
1867 270 1
271 272 1
272 271 1
271 279 1
279 271 1
271 284 1
284 271 1
271 360 1
360 271 1
271 881 1
881 271 1
271 1258 1
1258 271 1
271 1868 1
1868 271 1
272 280 1
280 272 1
272 285 1
285 272 1
272 361 1
361 272 1
272 882 1
882 272 1
272 1259 1
1259 272 1
272 1869 1
1869 272 1
273 274 1
274 273 1
273 275 1
275 273 1
273 286 1
286 273 1
273 362 1
362 273 1
273 883 1
883 273 1
273 1260 1
1260 273 1
273 1870 1
1870 273 1
274 287 1
287 274 1
274 363 1
363 274 1
274 884 1
884 274 1
274 1261 1
1261 274 1
274 1871 1
1871 274 1
275 288 1
288 275 1
275 364 1
364 275 1
275 885 1
885 275 1
275 1262 1
1262 275 1
275 1872 1
1872 275 1
276 277 1
277 276 1
276 278 1
278 276 1
276 279 1
279 276 1
276 365 1
365 276 1
276 886 1
886 276 1
276 1263 1
1263 276 1
276 1873 1
1873 276 1
277 280 1
280 277 1
277 366 1
366 277 1
277 887 1
887 277 1
277 1264 1
1264 277 1
277 1874 1
1874 277 1
278 367 1
367 278 1
278 888 1
888 278 1
278 1265 1
1265 278 1
278 1875 1
1875 278 1
279 280 1
280 279 1
279 368 1
368 279 1
279 889 1
889 279 1
279 1266 1
1266 279 1
279 1876 1
1876 279 1
280 369 1
369 280 1
280 890 1
890 280 1
280 1267 1
1267 280 1
280 1877 1
1877 280 1
281 282 1
282 281 1
281 283 1
283 281 1
281 284 1
284 281 1
281 286 1
286 281 1
281 370 1
370 281 1
281 891 1
891 281 1
281 1268 1
1268 281 1
281 1878 1
1878 281 1
282 285 1
285 282 1
282 287 1
287 282 1
282 371 1
371 282 1
282 892 1
892 282 1
282 1269 1
1269 282 1
282 1879 1
1879 282 1
283 288 1
288 283 1
283 372 1
372 283 1
283 893 1
893 283 1
283 1270 1
1270 283 1
283 1880 1
1880 283 1
284 285 1
285 284 1
284 373 1
373 284 1
284 894 1
894 284 1
284 1271 1
1271 284 1
284 1881 1
1881 284 1
285 374 1
374 285 1
285 895 1
895 285 1
285 1272 1
1272 285 1
285 1882 1
1882 285 1
286 287 1
287 286 1
286 288 1
288 286 1
286 375 1
375 286 1
286 896 1
896 286 1
286 1273 1
1273 286 1
286 1883 1
1883 286 1
287 376 1
376 287 1
287 897 1
897 287 1
287 1274 1
1274 287 1
287 1884 1
1884 287 1
288 377 1
377 288 1
288 898 1
898 288 1
288 1275 1
1275 288 1
288 1885 1
1885 288 1
289 290 1
290 289 1
289 291 1
291 289 1
289 292 1
292 289 1
289 294 1
294 289 1
289 297 1
297 289 1
289 302 1
302 289 1
289 310 1
310 289 1
289 899 1
899 289 1
289 1276 1
1276 289 1
289 1886 1
1886 289 1
290 293 1
293 290 1
290 295 1
295 290 1
290 298 1
298 290 1
290 303 1
303 290 1
290 311 1
311 290 1
290 900 1
900 290 1
290 1277 1
1277 290 1
290 1887 1
1887 290 1
291 296 1
296 291 1
291 299 1
299 291 1
291 304 1
304 291 1
291 312 1
312 291 1
291 901 1
901 291 1
291 1278 1
1278 291 1
291 1888 1
1888 291 1
292 293 1
293 292 1
292 300 1
300 292 1
292 305 1
305 292 1
292 313 1
313 292 1
292 902 1
902 292 1
292 1279 1
1279 292 1
292 1889 1
1889 292 1
293 301 1
301 293 1
293 306 1
306 293 1
293 314 1
314 293 1
293 903 1
903 293 1
293 1280 1
1280 293 1
293 1890 1
1890 293 1
294 295 1
295 294 1
294 296 1
296 294 1
294 307 1
307 294 1
294 315 1
315 294 1
294 904 1
904 294 1
294 1281 1
1281 294 1
294 1891 1
1891 294 1
295 308 1
308 295 1
295 316 1
316 295 1
295 905 1
905 295 1
295 1282 1
1282 295 1
295 1892 1
1892 295 1
296 309 1
309 296 1
296 317 1
317 296 1
296 906 1
906 296 1
296 1283 1
1283 296 1
296 1893 1
1893 296 1
297 298 1
298 297 1
297 299 1
299 297 1
297 300 1
300 297 1
297 318 1
318 297 1
297 907 1
907 297 1
297 1284 1
1284 297 1
297 1894 1
1894 297 1
298 301 1
301 298 1
298 319 1
319 298 1
298 908 1
908 298 1
298 1285 1
1285 298 1
298 1895 1
1895 298 1
299 320 1
320 299 1
299 909 1
909 299 1
299 1286 1
1286 299 1
299 1896 1
1896 299 1
300 301 1
301 300 1
300 321 1
321 300 1
300 910 1
910 300 1
300 1287 1
1287 300 1
300 1897 1
1897 300 1
301 322 1
322 301 1
301 911 1
911 301 1
301 1288 1
1288 301 1
301 1898 1
1898 301 1
302 303 1
303 302 1
302 304 1
304 302 1
302 305 1
305 302 1
302 307 1
307 302 1
302 912 1
912 302 1
302 1289 1
1289 302 1
302 1899 1
1899 302 1
303 306 1
306 303 1
303 308 1
308 303 1
303 913 1
913 303 1
303 1290 1
1290 303 1
303 1900 1
1900 303 1
304 309 1
309 304 1
304 914 1
914 304 1
304 1291 1
1291 304 1
304 1901 1
1901 304 1
305 306 1
306 305 1
305 915 1
915 305 1
305 1292 1
1292 305 1
305 1902 1
1902 305 1
306 916 1
916 306 1
306 1293 1
1293 306 1
306 1903 1
1903 306 1
307 308 1
308 307 1
307 309 1
309 307 1
307 917 1
917 307 1
307 1294 1
1294 307 1
307 1904 1
1904 307 1
308 918 1
918 308 1
308 1295 1
1295 308 1
308 1905 1
1905 308 1
309 919 1
919 309 1
309 1296 1
1296 309 1
309 1906 1
1906 309 1
310 311 1
311 310 1
310 312 1
312 310 1
310 313 1
313 310 1
310 315 1
315 310 1
310 318 1
318 310 1
310 920 1
920 310 1
310 1297 1
1297 310 1
310 1907 1
1907 310 1
311 314 1
314 311 1
311 316 1
316 311 1
311 319 1
319 311 1
311 921 1
921 311 1
311 1298 1
1298 311 1
311 1908 1
1908 311 1
312 317 1
317 312 1
312 320 1
320 312 1
312 922 1
922 312 1
312 1299 1
1299 312 1
312 1909 1
1909 312 1
313 314 1
314 313 1
313 321 1
321 313 1
313 923 1
923 313 1
313 1300 1
1300 313 1
313 1910 1
1910 313 1
314 322 1
322 314 1
314 924 1
924 314 1
314 1301 1
1301 314 1
314 1911 1
1911 314 1
315 316 1
316 315 1
315 317 1
317 315 1
315 925 1
925 315 1
315 1302 1
1302 315 1
315 1912 1
1912 315 1
316 926 1
926 316 1
316 1303 1
1303 316 1
316 1913 1
1913 316 1
317 927 1
927 317 1
317 1304 1
1304 317 1
317 1914 1
1914 317 1
318 319 1
319 318 1
318 320 1
320 318 1
318 321 1
321 318 1
318 928 1
928 318 1
318 1305 1
1305 318 1
318 1915 1
1915 318 1
319 322 1
322 319 1
319 929 1
929 319 1
319 1306 1
1306 319 1
319 1916 1
1916 319 1
320 930 1
930 320 1
320 1307 1
1307 320 1
320 1917 1
1917 320 1
321 322 1
322 321 1
321 931 1
931 321 1
321 1308 1
1308 321 1
321 1918 1
1918 321 1
322 932 1
932 322 1
322 1309 1
1309 322 1
322 1919 1
1919 322 1
323 324 1
324 323 1
323 325 1
325 323 1
323 326 1
326 323 1
323 328 1
328 323 1
323 331 1
331 323 1
323 336 1
336 323 1
323 344 1
344 323 1
323 357 1
357 323 1
323 933 1
933 323 1
323 1310 1
1310 323 1
323 1920 1
1920 323 1
324 327 1
327 324 1
324 329 1
329 324 1
324 332 1
332 324 1
324 337 1
337 324 1
324 345 1
345 324 1
324 358 1
358 324 1
324 934 1
934 324 1
324 1311 1
1311 324 1
324 1921 1
1921 324 1
325 330 1
330 325 1
325 333 1
333 325 1
325 338 1
338 325 1
325 346 1
346 325 1
325 359 1
359 325 1
325 935 1
935 325 1
325 1312 1
1312 325 1
325 1922 1
1922 325 1
326 327 1
327 326 1
326 334 1
334 326 1
326 339 1
339 326 1
326 347 1
347 326 1
326 360 1
360 326 1
326 936 1
936 326 1
326 1313 1
1313 326 1
326 1923 1
1923 326 1
327 335 1
335 327 1
327 340 1
340 327 1
327 348 1
348 327 1
327 361 1
361 327 1
327 937 1
937 327 1
327 1314 1
1314 327 1
327 1924 1
1924 327 1
328 329 1
329 328 1
328 330 1
330 328 1
328 341 1
341 328 1
328 349 1
349 328 1
328 362 1
362 328 1
328 938 1
938 328 1
328 1315 1
1315 328 1
328 1925 1
1925 328 1
329 342 1
342 329 1
329 350 1
350 329 1
329 363 1
363 329 1
329 939 1
939 329 1
329 1316 1
1316 329 1
329 1926 1
1926 329 1
330 343 1
343 330 1
330 351 1
351 330 1
330 364 1
364 330 1
330 940 1
940 330 1
330 1317 1
1317 330 1
330 1927 1
1927 330 1
331 332 1
332 331 1
331 333 1
333 331 1
331 334 1
334 331 1
331 352 1
352 331 1
331 365 1
365 331 1
331 941 1
941 331 1
331 1318 1
1318 331 1
331 1928 1
1928 331 1
332 335 1
335 332 1
332 353 1
353 332 1
332 366 1
366 332 1
332 942 1
942 332 1
332 1319 1
1319 332 1
332 1929 1
1929 332 1
333 354 1
354 333 1
333 367 1
367 333 1
333 943 1
943 333 1
333 1320 1
1320 333 1
333 1930 1
1930 333 1
334 335 1
335 334 1
334 355 1
355 334 1
334 368 1
368 334 1
334 944 1
944 334 1
334 1321 1
1321 334 1
334 1931 1
1931 334 1
335 356 1
356 335 1
335 369 1
369 335 1
335 945 1
945 335 1
335 1322 1
1322 335 1
335 1932 1
1932 335 1
336 337 1
337 336 1
336 338 1
338 336 1
336 339 1
339 336 1
336 341 1
341 336 1
336 370 1
370 336 1
336 946 1
946 336 1
336 1323 1
1323 336 1
336 1933 1
1933 336 1
337 340 1
340 337 1
337 342 1
342 337 1
337 371 1
371 337 1
337 947 1
947 337 1
337 1324 1
1324 337 1
337 1934 1
1934 337 1
338 343 1
343 338 1
338 372 1
372 338 1
338 948 1
948 338 1
338 1325 1
1325 338 1
338 1935 1
1935 338 1
339 340 1
340 339 1
339 373 1
373 339 1
339 949 1
949 339 1
339 1326 1
1326 339 1
339 1936 1
1936 339 1
340 374 1
374 340 1
340 950 1
950 340 1
340 1327 1
1327 340 1
340 1937 1
1937 340 1
341 342 1
342 341 1
341 343 1
343 341 1
341 375 1
375 341 1
341 951 1
951 341 1
341 1328 1
1328 341 1
341 1938 1
1938 341 1
342 376 1
376 342 1
342 952 1
952 342 1
342 1329 1
1329 342 1
342 1939 1
1939 342 1
343 377 1
377 343 1
343 953 1
953 343 1
343 1330 1
1330 343 1
343 1940 1
1940 343 1
344 345 1
345 344 1
344 346 1
346 344 1
344 347 1
347 344 1
344 349 1
349 344 1
344 352 1
352 344 1
344 954 1
954 344 1
344 1331 1
1331 344 1
344 1941 1
1941 344 1
345 348 1
348 345 1
345 350 1
350 345 1
345 353 1
353 345 1
345 955 1
955 345 1
345 1332 1
1332 345 1
345 1942 1
1942 345 1
346 351 1
351 346 1
346 354 1
354 346 1
346 956 1
956 346 1
346 1333 1
1333 346 1
346 1943 1
1943 346 1
347 348 1
348 347 1
347 355 1
355 347 1
347 957 1
957 347 1
347 1334 1
1334 347 1
347 1944 1
1944 347 1
348 356 1
356 348 1
348 958 1
958 348 1
348 1335 1
1335 348 1
348 1945 1
1945 348 1
349 350 1
350 349 1
349 351 1
351 349 1
349 959 1
959 349 1
349 1336 1
1336 349 1
349 1946 1
1946 349 1
350 960 1
960 350 1
350 1337 1
1337 350 1
350 1947 1
1947 350 1
351 961 1
961 351 1
351 1338 1
1338 351 1
351 1948 1
1948 351 1
352 353 1
353 352 1
352 354 1
354 352 1
352 355 1
355 352 1
352 962 1
962 352 1
352 1339 1
1339 352 1
352 1949 1
1949 352 1
353 356 1
356 353 1
353 963 1
963 353 1
353 1340 1
1340 353 1
353 1950 1
1950 353 1
354 964 1
964 354 1
354 1341 1
1341 354 1
354 1951 1
1951 354 1
355 356 1
356 355 1
355 965 1
965 355 1
355 1342 1
1342 355 1
355 1952 1
1952 355 1
356 966 1
966 356 1
356 1343 1
1343 356 1
356 1953 1
1953 356 1
357 358 1
358 357 1
357 359 1
359 357 1
357 360 1
360 357 1
357 362 1
362 357 1
357 365 1
365 357 1
357 370 1
370 357 1
357 967 1
967 357 1
357 1344 1
1344 357 1
357 1954 1
1954 357 1
358 361 1
361 358 1
358 363 1
363 358 1
358 366 1
366 358 1
358 371 1
371 358 1
358 968 1
968 358 1
358 1345 1
1345 358 1
358 1955 1
1955 358 1
359 364 1
364 359 1
359 367 1
367 359 1
359 372 1
372 359 1
359 969 1
969 359 1
359 1346 1
1346 359 1
359 1956 1
1956 359 1
360 361 1
361 360 1
360 368 1
368 360 1
360 373 1
373 360 1
360 970 1
970 360 1
360 1347 1
1347 360 1
360 1957 1
1957 360 1
361 369 1
369 361 1
361 374 1
374 361 1
361 971 1
971 361 1
361 1348 1
1348 361 1
361 1958 1
1958 361 1
362 363 1
363 362 1
362 364 1
364 362 1
362 375 1
375 362 1
362 972 1
972 362 1
362 1349 1
1349 362 1
362 1959 1
1959 362 1
363 376 1
376 363 1
363 973 1
973 363 1
363 1350 1
1350 363 1
363 1960 1
1960 363 1
364 377 1
377 364 1
364 974 1
974 364 1
364 1351 1
1351 364 1
364 1961 1
1961 364 1
365 366 1
366 365 1
365 367 1
367 365 1
365 368 1
368 365 1
365 975 1
975 365 1
365 1352 1
1352 365 1
365 1962 1
1962 365 1
366 369 1
369 366 1
366 976 1
976 366 1
366 1353 1
1353 366 1
366 1963 1
1963 366 1
367 977 1
977 367 1
367 1354 1
1354 367 1
367 1964 1
1964 367 1
368 369 1
369 368 1
368 978 1
978 368 1
368 1355 1
1355 368 1
368 1965 1
1965 368 1
369 979 1
979 369 1
369 1356 1
1356 369 1
369 1966 1
1966 369 1
370 371 1
371 370 1
370 372 1
372 370 1
370 373 1
373 370 1
370 375 1
375 370 1
370 980 1
980 370 1
370 1357 1
1357 370 1
370 1967 1
1967 370 1
371 374 1
374 371 1
371 376 1
376 371 1
371 981 1
981 371 1
371 1358 1
1358 371 1
371 1968 1
1968 371 1
372 377 1
377 372 1
372 982 1
982 372 1
372 1359 1
1359 372 1
372 1969 1
1969 372 1
373 374 1
374 373 1
373 983 1
983 373 1
373 1360 1
1360 373 1
373 1970 1
1970 373 1
374 984 1
984 374 1
374 1361 1
1361 374 1
374 1971 1
1971 374 1
375 376 1
376 375 1
375 377 1
377 375 1
375 985 1
985 375 1
375 1362 1
1362 375 1
375 1972 1
1972 375 1
376 986 1
986 376 1
376 1363 1
1363 376 1
376 1973 1
1973 376 1
377 987 1
987 377 1
377 1364 1
1364 377 1
377 1974 1
1974 377 1
378 379 1
379 378 1
378 380 1
380 378 1
378 381 1
381 378 1
378 383 1
383 378 1
378 386 1
386 378 1
378 391 1
391 378 1
378 399 1
399 378 1
378 412 1
412 378 1
378 433 1
433 378 1
378 467 1
467 378 1
378 522 1
522 378 1
378 1365 1
1365 378 1
378 1975 1
1975 378 1
379 382 1
382 379 1
379 384 1
384 379 1
379 387 1
387 379 1
379 392 1
392 379 1
379 400 1
400 379 1
379 413 1
413 379 1
379 434 1
434 379 1
379 468 1
468 379 1
379 523 1
523 379 1
379 1366 1
1366 379 1
379 1976 1
1976 379 1
380 385 1
385 380 1
380 388 1
388 380 1
380 393 1
393 380 1
380 401 1
401 380 1
380 414 1
414 380 1
380 435 1
435 380 1
380 469 1
469 380 1
380 524 1
524 380 1
380 1367 1
1367 380 1
380 1977 1
1977 380 1
381 382 1
382 381 1
381 389 1
389 381 1
381 394 1
394 381 1
381 402 1
402 381 1
381 415 1
415 381 1
381 436 1
436 381 1
381 470 1
470 381 1
381 525 1
525 381 1
381 1368 1
1368 381 1
381 1978 1
1978 381 1
382 390 1
390 382 1
382 395 1
395 382 1
382 403 1
403 382 1
382 416 1
416 382 1
382 437 1
437 382 1
382 471 1
471 382 1
382 526 1
526 382 1
382 1369 1
1369 382 1
382 1979 1
1979 382 1
383 384 1
384 383 1
383 385 1
385 383 1
383 396 1
396 383 1
383 404 1
404 383 1
383 417 1
417 383 1
383 438 1
438 383 1
383 472 1
472 383 1
383 527 1
527 383 1
383 1370 1
1370 383 1
383 1980 1
1980 383 1
384 397 1
397 384 1
384 405 1
405 384 1
384 418 1
418 384 1
384 439 1
439 384 1
384 473 1
473 384 1
384 528 1
528 384 1
384 1371 1
1371 384 1
384 1981 1
1981 384 1
385 398 1
398 385 1
385 406 1
406 385 1
385 419 1
419 385 1
385 440 1
440 385 1
385 474 1
474 385 1
385 529 1
529 385 1
385 1372 1
1372 385 1
385 1982 1
1982 385 1
386 387 1
387 386 1
386 388 1
388 386 1
386 389 1
389 386 1
386 407 1
407 386 1
386 420 1
420 386 1
386 441 1
441 386 1
386 475 1
475 386 1
386 530 1
530 386 1
386 1373 1
1373 386 1
386 1983 1
1983 386 1
387 390 1
390 387 1
387 408 1
408 387 1
387 421 1
421 387 1
387 442 1
442 387 1
387 476 1
476 387 1
387 531 1
531 387 1
387 1374 1
1374 387 1
387 1984 1
1984 387 1
388 409 1
409 388 1
388 422 1
422 388 1
388 443 1
443 388 1
388 477 1
477 388 1
388 532 1
532 388 1
388 1375 1
1375 388 1
388 1985 1
1985 388 1
389 390 1
390 389 1
389 410 1
410 389 1
389 423 1
423 389 1
389 444 1
444 389 1
389 478 1
478 389 1
389 533 1
533 389 1
389 1376 1
1376 389 1
389 1986 1
1986 389 1
390 411 1
411 390 1
390 424 1
424 390 1
390 445 1
445 390 1
390 479 1
479 390 1
390 534 1
534 390 1
390 1377 1
1377 390 1
390 1987 1
1987 390 1
391 392 1
392 391 1
391 393 1
393 391 1
391 394 1
394 391 1
391 396 1
396 391 1
391 425 1
425 391 1
391 446 1
446 391 1
391 480 1
480 391 1
391 535 1
535 391 1
391 1378 1
1378 391 1
391 1988 1
1988 391 1
392 395 1
395 392 1
392 397 1
397 392 1
392 426 1
426 392 1
392 447 1
447 392 1
392 481 1
481 392 1
392 536 1
536 392 1
392 1379 1
1379 392 1
392 1989 1
1989 392 1
393 398 1
398 393 1
393 427 1
427 393 1
393 448 1
448 393 1
393 482 1
482 393 1
393 537 1
537 393 1
393 1380 1
1380 393 1
393 1990 1
1990 393 1
394 395 1
395 394 1
394 428 1
428 394 1
394 449 1
449 394 1
394 483 1
483 394 1
394 538 1
538 394 1
394 1381 1
1381 394 1
394 1991 1
1991 394 1
395 429 1
429 395 1
395 450 1
450 395 1
395 484 1
484 395 1
395 539 1
539 395 1
395 1382 1
1382 395 1
395 1992 1
1992 395 1
396 397 1
397 396 1
396 398 1
398 396 1
396 430 1
430 396 1
396 451 1
451 396 1
396 485 1
485 396 1
396 540 1
540 396 1
396 1383 1
1383 396 1
396 1993 1
1993 396 1
397 431 1
431 397 1
397 452 1
452 397 1
397 486 1
486 397 1
397 541 1
541 397 1
397 1384 1
1384 397 1
397 1994 1
1994 397 1
398 432 1
432 398 1
398 453 1
453 398 1
398 487 1
487 398 1
398 542 1
542 398 1
398 1385 1
1385 398 1
398 1995 1
1995 398 1
399 400 1
400 399 1
399 401 1
401 399 1
399 402 1
402 399 1
399 404 1
404 399 1
399 407 1
407 399 1
399 454 1
454 399 1
399 488 1
488 399 1
399 543 1
543 399 1
399 1386 1
1386 399 1
399 1996 1
1996 399 1
400 403 1
403 400 1
400 405 1
405 400 1
400 408 1
408 400 1
400 455 1
455 400 1
400 489 1
489 400 1
400 544 1
544 400 1
400 1387 1
1387 400 1
400 1997 1
1997 400 1
401 406 1
406 401 1
401 409 1
409 401 1
401 456 1
456 401 1
401 490 1
490 401 1
401 545 1
545 401 1
401 1388 1
1388 401 1
401 1998 1
1998 401 1
402 403 1
403 402 1
402 410 1
410 402 1
402 457 1
457 402 1
402 491 1
491 402 1
402 546 1
546 402 1
402 1389 1
1389 402 1
402 1999 1
1999 402 1
403 411 1
411 403 1
403 458 1
458 403 1
403 492 1
492 403 1
403 547 1
547 403 1
403 1390 1
1390 403 1
403 2000 1
2000 403 1
404 405 1
405 404 1
404 406 1
406 404 1
404 459 1
459 404 1
404 493 1
493 404 1
404 548 1
548 404 1
404 1391 1
1391 404 1
404 2001 1
2001 404 1
405 460 1
460 405 1
405 494 1
494 405 1
405 549 1
549 405 1
405 1392 1
1392 405 1
405 2002 1
2002 405 1
406 461 1
461 406 1
406 495 1
495 406 1
406 550 1
550 406 1
406 1393 1
1393 406 1
406 2003 1
2003 406 1
407 408 1
408 407 1
407 409 1
409 407 1
407 410 1
410 407 1
407 462 1
462 407 1
407 496 1
496 407 1
407 551 1
551 407 1
407 1394 1
1394 407 1
407 2004 1
2004 407 1
408 411 1
411 408 1
408 463 1
463 408 1
408 497 1
497 408 1
408 552 1
552 408 1
408 1395 1
1395 408 1
408 2005 1
2005 408 1
409 464 1
464 409 1
409 498 1
498 409 1
409 553 1
553 409 1
409 1396 1
1396 409 1
409 2006 1
2006 409 1
410 411 1
411 410 1
410 465 1
465 410 1
410 499 1
499 410 1
410 554 1
554 410 1
410 1397 1
1397 410 1
410 2007 1
2007 410 1
411 466 1
466 411 1
411 500 1
500 411 1
411 555 1
555 411 1
411 1398 1
1398 411 1
411 2008 1
2008 411 1
412 413 1
413 412 1
412 414 1
414 412 1
412 415 1
415 412 1
412 417 1
417 412 1
412 420 1
420 412 1
412 425 1
425 412 1
412 501 1
501 412 1
412 556 1
556 412 1
412 1399 1
1399 412 1
412 2009 1
2009 412 1
413 416 1
416 413 1
413 418 1
418 413 1
413 421 1
421 413 1
413 426 1
426 413 1
413 502 1
502 413 1
413 557 1
557 413 1
413 1400 1
1400 413 1
413 2010 1
2010 413 1
414 419 1
419 414 1
414 422 1
422 414 1
414 427 1
427 414 1
414 503 1
503 414 1
414 558 1
558 414 1
414 1401 1
1401 414 1
414 2011 1
2011 414 1
415 416 1
416 415 1
415 423 1
423 415 1
415 428 1
428 415 1
415 504 1
504 415 1
415 559 1
559 415 1
415 1402 1
1402 415 1
415 2012 1
2012 415 1
416 424 1
424 416 1
416 429 1
429 416 1
416 505 1
505 416 1
416 560 1
560 416 1
416 1403 1
1403 416 1
416 2013 1
2013 416 1
417 418 1
418 417 1
417 419 1
419 417 1
417 430 1
430 417 1
417 506 1
506 417 1
417 561 1
561 417 1
417 1404 1
1404 417 1
417 2014 1
2014 417 1
418 431 1
431 418 1
418 507 1
507 418 1
418 562 1
562 418 1
418 1405 1
1405 418 1
418 2015 1
2015 418 1
419 432 1
432 419 1
419 508 1
508 419 1
419 563 1
563 419 1
419 1406 1
1406 419 1
419 2016 1
2016 419 1
420 421 1
421 420 1
420 422 1
422 420 1
420 423 1
423 420 1
420 509 1
509 420 1
420 564 1
564 420 1
420 1407 1
1407 420 1
420 2017 1
2017 420 1
421 424 1
424 421 1
421 510 1
510 421 1
421 565 1
565 421 1
421 1408 1
1408 421 1
421 2018 1
2018 421 1
422 511 1
511 422 1
422 566 1
566 422 1
422 1409 1
1409 422 1
422 2019 1
2019 422 1
423 424 1
424 423 1
423 512 1
512 423 1
423 567 1
567 423 1
423 1410 1
1410 423 1
423 2020 1
2020 423 1
424 513 1
513 424 1
424 568 1
568 424 1
424 1411 1
1411 424 1
424 2021 1
2021 424 1
425 426 1
426 425 1
425 427 1
427 425 1
425 428 1
428 425 1
425 430 1
430 425 1
425 514 1
514 425 1
425 569 1
569 425 1
425 1412 1
1412 425 1
425 2022 1
2022 425 1
426 429 1
429 426 1
426 431 1
431 426 1
426 515 1
515 426 1
426 570 1
570 426 1
426 1413 1
1413 426 1
426 2023 1
2023 426 1
427 432 1
432 427 1
427 516 1
516 427 1
427 571 1
571 427 1
427 1414 1
1414 427 1
427 2024 1
2024 427 1
428 429 1
429 428 1
428 517 1
517 428 1
428 572 1
572 428 1
428 1415 1
1415 428 1
428 2025 1
2025 428 1
429 518 1
518 429 1
429 573 1
573 429 1
429 1416 1
1416 429 1
429 2026 1
2026 429 1
430 431 1
431 430 1
430 432 1
432 430 1
430 519 1
519 430 1
430 574 1
574 430 1
430 1417 1
1417 430 1
430 2027 1
2027 430 1
431 520 1
520 431 1
431 575 1
575 431 1
431 1418 1
1418 431 1
431 2028 1
2028 431 1
432 521 1
521 432 1
432 576 1
576 432 1
432 1419 1
1419 432 1
432 2029 1
2029 432 1
433 434 1
434 433 1
433 435 1
435 433 1
433 436 1
436 433 1
433 438 1
438 433 1
433 441 1
441 433 1
433 446 1
446 433 1
433 454 1
454 433 1
433 577 1
577 433 1
433 1420 1
1420 433 1
433 2030 1
2030 433 1
434 437 1
437 434 1
434 439 1
439 434 1
434 442 1
442 434 1
434 447 1
447 434 1
434 455 1
455 434 1
434 578 1
578 434 1
434 1421 1
1421 434 1
434 2031 1
2031 434 1
435 440 1
440 435 1
435 443 1
443 435 1
435 448 1
448 435 1
435 456 1
456 435 1
435 579 1
579 435 1
435 1422 1
1422 435 1
435 2032 1
2032 435 1
436 437 1
437 436 1
436 444 1
444 436 1
436 449 1
449 436 1
436 457 1
457 436 1
436 580 1
580 436 1
436 1423 1
1423 436 1
436 2033 1
2033 436 1
437 445 1
445 437 1
437 450 1
450 437 1
437 458 1
458 437 1
437 581 1
581 437 1
437 1424 1
1424 437 1
437 2034 1
2034 437 1
438 439 1
439 438 1
438 440 1
440 438 1
438 451 1
451 438 1
438 459 1
459 438 1
438 582 1
582 438 1
438 1425 1
1425 438 1
438 2035 1
2035 438 1
439 452 1
452 439 1
439 460 1
460 439 1
439 583 1
583 439 1
439 1426 1
1426 439 1
439 2036 1
2036 439 1
440 453 1
453 440 1
440 461 1
461 440 1
440 584 1
584 440 1
440 1427 1
1427 440 1
440 2037 1
2037 440 1
441 442 1
442 441 1
441 443 1
443 441 1
441 444 1
444 441 1
441 462 1
462 441 1
441 585 1
585 441 1
441 1428 1
1428 441 1
441 2038 1
2038 441 1
442 445 1
445 442 1
442 463 1
463 442 1
442 586 1
586 442 1
442 1429 1
1429 442 1
442 2039 1
2039 442 1
443 464 1
464 443 1
443 587 1
587 443 1
443 1430 1
1430 443 1
443 2040 1
2040 443 1
444 445 1
445 444 1
444 465 1
465 444 1
444 588 1
588 444 1
444 1431 1
1431 444 1
444 2041 1
2041 444 1
445 466 1
466 445 1
445 589 1
589 445 1
445 1432 1
1432 445 1
445 2042 1
2042 445 1
446 447 1
447 446 1
446 448 1
448 446 1
446 449 1
449 446 1
446 451 1
451 446 1
446 590 1
590 446 1
446 1433 1
1433 446 1
446 2043 1
2043 446 1
447 450 1
450 447 1
447 452 1
452 447 1
447 591 1
591 447 1
447 1434 1
1434 447 1
447 2044 1
2044 447 1
448 453 1
453 448 1
448 592 1
592 448 1
448 1435 1
1435 448 1
448 2045 1
2045 448 1
449 450 1
450 449 1
449 593 1
593 449 1
449 1436 1
1436 449 1
449 2046 1
2046 449 1
450 594 1
594 450 1
450 1437 1
1437 450 1
450 2047 1
2047 450 1
451 452 1
452 451 1
451 453 1
453 451 1
451 595 1
595 451 1
451 1438 1
1438 451 1
451 2048 1
2048 451 1
452 596 1
596 452 1
452 1439 1
1439 452 1
452 2049 1
2049 452 1
453 597 1
597 453 1
453 1440 1
1440 453 1
453 2050 1
2050 453 1
454 455 1
455 454 1
454 456 1
456 454 1
454 457 1
457 454 1
454 459 1
459 454 1
454 462 1
462 454 1
454 598 1
598 454 1
454 1441 1
1441 454 1
454 2051 1
2051 454 1
455 458 1
458 455 1
455 460 1
460 455 1
455 463 1
463 455 1
455 599 1
599 455 1
455 1442 1
1442 455 1
455 2052 1
2052 455 1
456 461 1
461 456 1
456 464 1
464 456 1
456 600 1
600 456 1
456 1443 1
1443 456 1
456 2053 1
2053 456 1
457 458 1
458 457 1
457 465 1
465 457 1
457 601 1
601 457 1
457 1444 1
1444 457 1
457 2054 1
2054 457 1
458 466 1
466 458 1
458 602 1
602 458 1
458 1445 1
1445 458 1
458 2055 1
2055 458 1
459 460 1
460 459 1
459 461 1
461 459 1
459 603 1
603 459 1
459 1446 1
1446 459 1
459 2056 1
2056 459 1
460 604 1
604 460 1
460 1447 1
1447 460 1
460 2057 1
2057 460 1
461 605 1
605 461 1
461 1448 1
1448 461 1
461 2058 1
2058 461 1
462 463 1
463 462 1
462 464 1
464 462 1
462 465 1
465 462 1
462 606 1
606 462 1
462 1449 1
1449 462 1
462 2059 1
2059 462 1
463 466 1
466 463 1
463 607 1
607 463 1
463 1450 1
1450 463 1
463 2060 1
2060 463 1
464 608 1
608 464 1
464 1451 1
1451 464 1
464 2061 1
2061 464 1
465 466 1
466 465 1
465 609 1
609 465 1
465 1452 1
1452 465 1
465 2062 1
2062 465 1
466 610 1
610 466 1
466 1453 1
1453 466 1
466 2063 1
2063 466 1
467 468 1
468 467 1
467 469 1
469 467 1
467 470 1
470 467 1
467 472 1
472 467 1
467 475 1
475 467 1
467 480 1
480 467 1
467 488 1
488 467 1
467 501 1
501 467 1
467 1454 1
1454 467 1
467 2064 1
2064 467 1
468 471 1
471 468 1
468 473 1
473 468 1
468 476 1
476 468 1
468 481 1
481 468 1
468 489 1
489 468 1
468 502 1
502 468 1
468 1455 1
1455 468 1
468 2065 1
2065 468 1
469 474 1
474 469 1
469 477 1
477 469 1
469 482 1
482 469 1
469 490 1
490 469 1
469 503 1
503 469 1
469 1456 1
1456 469 1
469 2066 1
2066 469 1
470 471 1
471 470 1
470 478 1
478 470 1
470 483 1
483 470 1
470 491 1
491 470 1
470 504 1
504 470 1
470 1457 1
1457 470 1
470 2067 1
2067 470 1
471 479 1
479 471 1
471 484 1
484 471 1
471 492 1
492 471 1
471 505 1
505 471 1
471 1458 1
1458 471 1
471 2068 1
2068 471 1
472 473 1
473 472 1
472 474 1
474 472 1
472 485 1
485 472 1
472 493 1
493 472 1
472 506 1
506 472 1
472 1459 1
1459 472 1
472 2069 1
2069 472 1
473 486 1
486 473 1
473 494 1
494 473 1
473 507 1
507 473 1
473 1460 1
1460 473 1
473 2070 1
2070 473 1
474 487 1
487 474 1
474 495 1
495 474 1
474 508 1
508 474 1
474 1461 1
1461 474 1
474 2071 1
2071 474 1
475 476 1
476 475 1
475 477 1
477 475 1
475 478 1
478 475 1
475 496 1
496 475 1
475 509 1
509 475 1
475 1462 1
1462 475 1
475 2072 1
2072 475 1
476 479 1
479 476 1
476 497 1
497 476 1
476 510 1
510 476 1
476 1463 1
1463 476 1
476 2073 1
2073 476 1
477 498 1
498 477 1
477 511 1
511 477 1
477 1464 1
1464 477 1
477 2074 1
2074 477 1
478 479 1
479 478 1
478 499 1
499 478 1
478 512 1
512 478 1
478 1465 1
1465 478 1
478 2075 1
2075 478 1
479 500 1
500 479 1
479 513 1
513 479 1
479 1466 1
1466 479 1
479 2076 1
2076 479 1
480 481 1
481 480 1
480 482 1
482 480 1
480 483 1
483 480 1
480 485 1
485 480 1
480 514 1
514 480 1
480 1467 1
1467 480 1
480 2077 1
2077 480 1
481 484 1
484 481 1
481 486 1
486 481 1
481 515 1
515 481 1
481 1468 1
1468 481 1
481 2078 1
2078 481 1
482 487 1
487 482 1
482 516 1
516 482 1
482 1469 1
1469 482 1
482 2079 1
2079 482 1
483 484 1
484 483 1
483 517 1
517 483 1
483 1470 1
1470 483 1
483 2080 1
2080 483 1
484 518 1
518 484 1
484 1471 1
1471 484 1
484 2081 1
2081 484 1
485 486 1
486 485 1
485 487 1
487 485 1
485 519 1
519 485 1
485 1472 1
1472 485 1
485 2082 1
2082 485 1
486 520 1
520 486 1
486 1473 1
1473 486 1
486 2083 1
2083 486 1
487 521 1
521 487 1
487 1474 1
1474 487 1
487 2084 1
2084 487 1
488 489 1
489 488 1
488 490 1
490 488 1
488 491 1
491 488 1
488 493 1
493 488 1
488 496 1
496 488 1
488 1475 1
1475 488 1
488 2085 1
2085 488 1
489 492 1
492 489 1
489 494 1
494 489 1
489 497 1
497 489 1
489 1476 1
1476 489 1
489 2086 1
2086 489 1
490 495 1
495 490 1
490 498 1
498 490 1
490 1477 1
1477 490 1
490 2087 1
2087 490 1
491 492 1
492 491 1
491 499 1
499 491 1
491 1478 1
1478 491 1
491 2088 1
2088 491 1
492 500 1
500 492 1
492 1479 1
1479 492 1
492 2089 1
2089 492 1
493 494 1
494 493 1
493 495 1
495 493 1
493 1480 1
1480 493 1
493 2090 1
2090 493 1
494 1481 1
1481 494 1
494 2091 1
2091 494 1
495 1482 1
1482 495 1
495 2092 1
2092 495 1
496 497 1
497 496 1
496 498 1
498 496 1
496 499 1
499 496 1
496 1483 1
1483 496 1
496 2093 1
2093 496 1
497 500 1
500 497 1
497 1484 1
1484 497 1
497 2094 1
2094 497 1
498 1485 1
1485 498 1
498 2095 1
2095 498 1
499 500 1
500 499 1
499 1486 1
1486 499 1
499 2096 1
2096 499 1
500 1487 1
1487 500 1
500 2097 1
2097 500 1
501 502 1
502 501 1
501 503 1
503 501 1
501 504 1
504 501 1
501 506 1
506 501 1
501 509 1
509 501 1
501 514 1
514 501 1
501 1488 1
1488 501 1
501 2098 1
2098 501 1
502 505 1
505 502 1
502 507 1
507 502 1
502 510 1
510 502 1
502 515 1
515 502 1
502 1489 1
1489 502 1
502 2099 1
2099 502 1
503 508 1
508 503 1
503 511 1
511 503 1
503 516 1
516 503 1
503 1490 1
1490 503 1
503 2100 1
2100 503 1
504 505 1
505 504 1
504 512 1
512 504 1
504 517 1
517 504 1
504 1491 1
1491 504 1
504 2101 1
2101 504 1
505 513 1
513 505 1
505 518 1
518 505 1
505 1492 1
1492 505 1
505 2102 1
2102 505 1
506 507 1
507 506 1
506 508 1
508 506 1
506 519 1
519 506 1
506 1493 1
1493 506 1
506 2103 1
2103 506 1
507 520 1
520 507 1
507 1494 1
1494 507 1
507 2104 1
2104 507 1
508 521 1
521 508 1
508 1495 1
1495 508 1
508 2105 1
2105 508 1
509 510 1
510 509 1
509 511 1
511 509 1
509 512 1
512 509 1
509 1496 1
1496 509 1
509 2106 1
2106 509 1
510 513 1
513 510 1
510 1497 1
1497 510 1
510 2107 1
2107 510 1
511 1498 1
1498 511 1
511 2108 1
2108 511 1
512 513 1
513 512 1
512 1499 1
1499 512 1
512 2109 1
2109 512 1
513 1500 1
1500 513 1
513 2110 1
2110 513 1
514 515 1
515 514 1
514 516 1
516 514 1
514 517 1
517 514 1
514 519 1
519 514 1
514 1501 1
1501 514 1
514 2111 1
2111 514 1
515 518 1
518 515 1
515 520 1
520 515 1
515 1502 1
1502 515 1
515 2112 1
2112 515 1
516 521 1
521 516 1
516 1503 1
1503 516 1
516 2113 1
2113 516 1
517 518 1
518 517 1
517 1504 1
1504 517 1
517 2114 1
2114 517 1
518 1505 1
1505 518 1
518 2115 1
2115 518 1
519 520 1
520 519 1
519 521 1
521 519 1
519 1506 1
1506 519 1
519 2116 1
2116 519 1
520 1507 1
1507 520 1
520 2117 1
2117 520 1
521 1508 1
1508 521 1
521 2118 1
2118 521 1
522 523 1
523 522 1
522 524 1
524 522 1
522 525 1
525 522 1
522 527 1
527 522 1
522 530 1
530 522 1
522 535 1
535 522 1
522 543 1
543 522 1
522 556 1
556 522 1
522 577 1
577 522 1
522 1509 1
1509 522 1
522 2119 1
2119 522 1
523 526 1
526 523 1
523 528 1
528 523 1
523 531 1
531 523 1
523 536 1
536 523 1
523 544 1
544 523 1
523 557 1
557 523 1
523 578 1
578 523 1
523 1510 1
1510 523 1
523 2120 1
2120 523 1
524 529 1
529 524 1
524 532 1
532 524 1
524 537 1
537 524 1
524 545 1
545 524 1
524 558 1
558 524 1
524 579 1
579 524 1
524 1511 1
1511 524 1
524 2121 1
2121 524 1
525 526 1
526 525 1
525 533 1
533 525 1
525 538 1
538 525 1
525 546 1
546 525 1
525 559 1
559 525 1
525 580 1
580 525 1
525 1512 1
1512 525 1
525 2122 1
2122 525 1
526 534 1
534 526 1
526 539 1
539 526 1
526 547 1
547 526 1
526 560 1
560 526 1
526 581 1
581 526 1
526 1513 1
1513 526 1
526 2123 1
2123 526 1
527 528 1
528 527 1
527 529 1
529 527 1
527 540 1
540 527 1
527 548 1
548 527 1
527 561 1
561 527 1
527 582 1
582 527 1
527 1514 1
1514 527 1
527 2124 1
2124 527 1
528 541 1
541 528 1
528 549 1
549 528 1
528 562 1
562 528 1
528 583 1
583 528 1
528 1515 1
1515 528 1
528 2125 1
2125 528 1
529 542 1
542 529 1
529 550 1
550 529 1
529 563 1
563 529 1
529 584 1
584 529 1
529 1516 1
1516 529 1
529 2126 1
2126 529 1
530 531 1
531 530 1
530 532 1
532 530 1
530 533 1
533 530 1
530 551 1
551 530 1
530 564 1
564 530 1
530 585 1
585 530 1
530 1517 1
1517 530 1
530 2127 1
2127 530 1
531 534 1
534 531 1
531 552 1
552 531 1
531 565 1
565 531 1
531 586 1
586 531 1
531 1518 1
1518 531 1
531 2128 1
2128 531 1
532 553 1
553 532 1
532 566 1
566 532 1
532 587 1
587 532 1
532 1519 1
1519 532 1
532 2129 1
2129 532 1
533 534 1
534 533 1
533 554 1
554 533 1
533 567 1
567 533 1
533 588 1
588 533 1
533 1520 1
1520 533 1
533 2130 1
2130 533 1
534 555 1
555 534 1
534 568 1
568 534 1
534 589 1
589 534 1
534 1521 1
1521 534 1
534 2131 1
2131 534 1
535 536 1
536 535 1
535 537 1
537 535 1
535 538 1
538 535 1
535 540 1
540 535 1
535 569 1
569 535 1
535 590 1
590 535 1
535 1522 1
1522 535 1
535 2132 1
2132 535 1
536 539 1
539 536 1
536 541 1
541 536 1
536 570 1
570 536 1
536 591 1
591 536 1
536 1523 1
1523 536 1
536 2133 1
2133 536 1
537 542 1
542 537 1
537 571 1
571 537 1
537 592 1
592 537 1
537 1524 1
1524 537 1
537 2134 1
2134 537 1
538 539 1
539 538 1
538 572 1
572 538 1
538 593 1
593 538 1
538 1525 1
1525 538 1
538 2135 1
2135 538 1
539 573 1
573 539 1
539 594 1
594 539 1
539 1526 1
1526 539 1
539 2136 1
2136 539 1
540 541 1
541 540 1
540 542 1
542 540 1
540 574 1
574 540 1
540 595 1
595 540 1
540 1527 1
1527 540 1
540 2137 1
2137 540 1
541 575 1
575 541 1
541 596 1
596 541 1
541 1528 1
1528 541 1
541 2138 1
2138 541 1
542 576 1
576 542 1
542 597 1
597 542 1
542 1529 1
1529 542 1
542 2139 1
2139 542 1
543 544 1
544 543 1
543 545 1
545 543 1
543 546 1
546 543 1
543 548 1
548 543 1
543 551 1
551 543 1
543 598 1
598 543 1
543 1530 1
1530 543 1
543 2140 1
2140 543 1
544 547 1
547 544 1
544 549 1
549 544 1
544 552 1
552 544 1
544 599 1
599 544 1
544 1531 1
1531 544 1
544 2141 1
2141 544 1
545 550 1
550 545 1
545 553 1
553 545 1
545 600 1
600 545 1
545 1532 1
1532 545 1
545 2142 1
2142 545 1
546 547 1
547 546 1
546 554 1
554 546 1
546 601 1
601 546 1
546 1533 1
1533 546 1
546 2143 1
2143 546 1
547 555 1
555 547 1
547 602 1
602 547 1
547 1534 1
1534 547 1
547 2144 1
2144 547 1
548 549 1
549 548 1
548 550 1
550 548 1
548 603 1
603 548 1
548 1535 1
1535 548 1
548 2145 1
2145 548 1
549 604 1
604 549 1
549 1536 1
1536 549 1
549 2146 1
2146 549 1
550 605 1
605 550 1
550 1537 1
1537 550 1
550 2147 1
2147 550 1
551 552 1
552 551 1
551 553 1
553 551 1
551 554 1
554 551 1
551 606 1
606 551 1
551 1538 1
1538 551 1
551 2148 1
2148 551 1
552 555 1
555 552 1
552 607 1
607 552 1
552 1539 1
1539 552 1
552 2149 1
2149 552 1
553 608 1
608 553 1
553 1540 1
1540 553 1
553 2150 1
2150 553 1
554 555 1
555 554 1
554 609 1
609 554 1
554 1541 1
1541 554 1
554 2151 1
2151 554 1
555 610 1
610 555 1
555 1542 1
1542 555 1
555 2152 1
2152 555 1
556 557 1
557 556 1
556 558 1
558 556 1
556 559 1
559 556 1
556 561 1
561 556 1
556 564 1
564 556 1
556 569 1
569 556 1
556 1543 1
1543 556 1
556 2153 1
2153 556 1
557 560 1
560 557 1
557 562 1
562 557 1
557 565 1
565 557 1
557 570 1
570 557 1
557 1544 1
1544 557 1
557 2154 1
2154 557 1
558 563 1
563 558 1
558 566 1
566 558 1
558 571 1
571 558 1
558 1545 1
1545 558 1
558 2155 1
2155 558 1
559 560 1
560 559 1
559 567 1
567 559 1
559 572 1
572 559 1
559 1546 1
1546 559 1
559 2156 1
2156 559 1
560 568 1
568 560 1
560 573 1
573 560 1
560 1547 1
1547 560 1
560 2157 1
2157 560 1
561 562 1
562 561 1
561 563 1
563 561 1
561 574 1
574 561 1
561 1548 1
1548 561 1
561 2158 1
2158 561 1
562 575 1
575 562 1
562 1549 1
1549 562 1
562 2159 1
2159 562 1
563 576 1
576 563 1
563 1550 1
1550 563 1
563 2160 1
2160 563 1
564 565 1
565 564 1
564 566 1
566 564 1
564 567 1
567 564 1
564 1551 1
1551 564 1
564 2161 1
2161 564 1
565 568 1
568 565 1
565 1552 1
1552 565 1
565 2162 1
2162 565 1
566 1553 1
1553 566 1
566 2163 1
2163 566 1
567 568 1
568 567 1
567 1554 1
1554 567 1
567 2164 1
2164 567 1
568 1555 1
1555 568 1
568 2165 1
2165 568 1
569 570 1
570 569 1
569 571 1
571 569 1
569 572 1
572 569 1
569 574 1
574 569 1
569 1556 1
1556 569 1
569 2166 1
2166 569 1
570 573 1
573 570 1
570 575 1
575 570 1
570 1557 1
1557 570 1
570 2167 1
2167 570 1
571 576 1
576 571 1
571 1558 1
1558 571 1
571 2168 1
2168 571 1
572 573 1
573 572 1
572 1559 1
1559 572 1
572 2169 1
2169 572 1
573 1560 1
1560 573 1
573 2170 1
2170 573 1
574 575 1
575 574 1
574 576 1
576 574 1
574 1561 1
1561 574 1
574 2171 1
2171 574 1
575 1562 1
1562 575 1
575 2172 1
2172 575 1
576 1563 1
1563 576 1
576 2173 1
2173 576 1
577 578 1
578 577 1
577 579 1
579 577 1
577 580 1
580 577 1
577 582 1
582 577 1
577 585 1
585 577 1
577 590 1
590 577 1
577 598 1
598 577 1
577 1564 1
1564 577 1
577 2174 1
2174 577 1
578 581 1
581 578 1
578 583 1
583 578 1
578 586 1
586 578 1
578 591 1
591 578 1
578 599 1
599 578 1
578 1565 1
1565 578 1
578 2175 1
2175 578 1
579 584 1
584 579 1
579 587 1
587 579 1
579 592 1
592 579 1
579 600 1
600 579 1
579 1566 1
1566 579 1
579 2176 1
2176 579 1
580 581 1
581 580 1
580 588 1
588 580 1
580 593 1
593 580 1
580 601 1
601 580 1
580 1567 1
1567 580 1
580 2177 1
2177 580 1
581 589 1
589 581 1
581 594 1
594 581 1
581 602 1
602 581 1
581 1568 1
1568 581 1
581 2178 1
2178 581 1
582 583 1
583 582 1
582 584 1
584 582 1
582 595 1
595 582 1
582 603 1
603 582 1
582 1569 1
1569 582 1
582 2179 1
2179 582 1
583 596 1
596 583 1
583 604 1
604 583 1
583 1570 1
1570 583 1
583 2180 1
2180 583 1
584 597 1
597 584 1
584 605 1
605 584 1
584 1571 1
1571 584 1
584 2181 1
2181 584 1
585 586 1
586 585 1
585 587 1
587 585 1
585 588 1
588 585 1
585 606 1
606 585 1
585 1572 1
1572 585 1
585 2182 1
2182 585 1
586 589 1
589 586 1
586 607 1
607 586 1
586 1573 1
1573 586 1
586 2183 1
2183 586 1
587 608 1
608 587 1
587 1574 1
1574 587 1
587 2184 1
2184 587 1
588 589 1
589 588 1
588 609 1
609 588 1
588 1575 1
1575 588 1
588 2185 1
2185 588 1
589 610 1
610 589 1
589 1576 1
1576 589 1
589 2186 1
2186 589 1
590 591 1
591 590 1
590 592 1
592 590 1
590 593 1
593 590 1
590 595 1
595 590 1
590 1577 1
1577 590 1
590 2187 1
2187 590 1
591 594 1
594 591 1
591 596 1
596 591 1
591 1578 1
1578 591 1
591 2188 1
2188 591 1
592 597 1
597 592 1
592 1579 1
1579 592 1
592 2189 1
2189 592 1
593 594 1
594 593 1
593 1580 1
1580 593 1
593 2190 1
2190 593 1
594 1581 1
1581 594 1
594 2191 1
2191 594 1
595 596 1
596 595 1
595 597 1
597 595 1
595 1582 1
1582 595 1
595 2192 1
2192 595 1
596 1583 1
1583 596 1
596 2193 1
2193 596 1
597 1584 1
1584 597 1
597 2194 1
2194 597 1
598 599 1
599 598 1
598 600 1
600 598 1
598 601 1
601 598 1
598 603 1
603 598 1
598 606 1
606 598 1
598 1585 1
1585 598 1
598 2195 1
2195 598 1
599 602 1
602 599 1
599 604 1
604 599 1
599 607 1
607 599 1
599 1586 1
1586 599 1
599 2196 1
2196 599 1
600 605 1
605 600 1
600 608 1
608 600 1
600 1587 1
1587 600 1
600 2197 1
2197 600 1
601 602 1
602 601 1
601 609 1
609 601 1
601 1588 1
1588 601 1
601 2198 1
2198 601 1
602 610 1
610 602 1
602 1589 1
1589 602 1
602 2199 1
2199 602 1
603 604 1
604 603 1
603 605 1
605 603 1
603 1590 1
1590 603 1
603 2200 1
2200 603 1
604 1591 1
1591 604 1
604 2201 1
2201 604 1
605 1592 1
1592 605 1
605 2202 1
2202 605 1
606 607 1
607 606 1
606 608 1
608 606 1
606 609 1
609 606 1
606 1593 1
1593 606 1
606 2203 1
2203 606 1
607 610 1
610 607 1
607 1594 1
1594 607 1
607 2204 1
2204 607 1
608 1595 1
1595 608 1
608 2205 1
2205 608 1
609 610 1
610 609 1
609 1596 1
1596 609 1
609 2206 1
2206 609 1
610 1597 1
1597 610 1
610 2207 1
2207 610 1
611 612 1
612 611 1
611 613 1
613 611 1
611 614 1
614 611 1
611 616 1
616 611 1
611 619 1
619 611 1
611 624 1
624 611 1
611 632 1
632 611 1
611 645 1
645 611 1
611 666 1
666 611 1
611 700 1
700 611 1
611 755 1
755 611 1
611 844 1
844 611 1
611 2208 1
2208 611 1
612 615 1
615 612 1
612 617 1
617 612 1
612 620 1
620 612 1
612 625 1
625 612 1
612 633 1
633 612 1
612 646 1
646 612 1
612 667 1
667 612 1
612 701 1
701 612 1
612 756 1
756 612 1
612 845 1
845 612 1
612 2209 1
2209 612 1
613 618 1
618 613 1
613 621 1
621 613 1
613 626 1
626 613 1
613 634 1
634 613 1
613 647 1
647 613 1
613 668 1
668 613 1
613 702 1
702 613 1
613 757 1
757 613 1
613 846 1
846 613 1
613 2210 1
2210 613 1
614 615 1
615 614 1
614 622 1
622 614 1
614 627 1
627 614 1
614 635 1
635 614 1
614 648 1
648 614 1
614 669 1
669 614 1
614 703 1
703 614 1
614 758 1
758 614 1
614 847 1
847 614 1
614 2211 1
2211 614 1
615 623 1
623 615 1
615 628 1
628 615 1
615 636 1
636 615 1
615 649 1
649 615 1
615 670 1
670 615 1
615 704 1
704 615 1
615 759 1
759 615 1
615 848 1
848 615 1
615 2212 1
2212 615 1
616 617 1
617 616 1
616 618 1
618 616 1
616 629 1
629 616 1
616 637 1
637 616 1
616 650 1
650 616 1
616 671 1
671 616 1
616 705 1
705 616 1
616 760 1
760 616 1
616 849 1
849 616 1
616 2213 1
2213 616 1
617 630 1
630 617 1
617 638 1
638 617 1
617 651 1
651 617 1
617 672 1
672 617 1
617 706 1
706 617 1
617 761 1
761 617 1
617 850 1
850 617 1
617 2214 1
2214 617 1
618 631 1
631 618 1
618 639 1
639 618 1
618 652 1
652 618 1
618 673 1
673 618 1
618 707 1
707 618 1
618 762 1
762 618 1
618 851 1
851 618 1
618 2215 1
2215 618 1
619 620 1
620 619 1
619 621 1
621 619 1
619 622 1
622 619 1
619 640 1
640 619 1
619 653 1
653 619 1
619 674 1
674 619 1
619 708 1
708 619 1
619 763 1
763 619 1
619 852 1
852 619 1
619 2216 1
2216 619 1
620 623 1
623 620 1
620 641 1
641 620 1
620 654 1
654 620 1
620 675 1
675 620 1
620 709 1
709 620 1
620 764 1
764 620 1
620 853 1
853 620 1
620 2217 1
2217 620 1
621 642 1
642 621 1
621 655 1
655 621 1
621 676 1
676 621 1
621 710 1
710 621 1
621 765 1
765 621 1
621 854 1
854 621 1
621 2218 1
2218 621 1
622 623 1
623 622 1
622 643 1
643 622 1
622 656 1
656 622 1
622 677 1
677 622 1
622 711 1
711 622 1
622 766 1
766 622 1
622 855 1
855 622 1
622 2219 1
2219 622 1
623 644 1
644 623 1
623 657 1
657 623 1
623 678 1
678 623 1
623 712 1
712 623 1
623 767 1
767 623 1
623 856 1
856 623 1
623 2220 1
2220 623 1
624 625 1
625 624 1
624 626 1
626 624 1
624 627 1
627 624 1
624 629 1
629 624 1
624 658 1
658 624 1
624 679 1
679 624 1
624 713 1
713 624 1
624 768 1
768 624 1
624 857 1
857 624 1
624 2221 1
2221 624 1
625 628 1
628 625 1
625 630 1
630 625 1
625 659 1
659 625 1
625 680 1
680 625 1
625 714 1
714 625 1
625 769 1
769 625 1
625 858 1
858 625 1
625 2222 1
2222 625 1
626 631 1
631 626 1
626 660 1
660 626 1
626 681 1
681 626 1
626 715 1
715 626 1
626 770 1
770 626 1
626 859 1
859 626 1
626 2223 1
2223 626 1
627 628 1
628 627 1
627 661 1
661 627 1
627 682 1
682 627 1
627 716 1
716 627 1
627 771 1
771 627 1
627 860 1
860 627 1
627 2224 1
2224 627 1
628 662 1
662 628 1
628 683 1
683 628 1
628 717 1
717 628 1
628 772 1
772 628 1
628 861 1
861 628 1
628 2225 1
2225 628 1
629 630 1
630 629 1
629 631 1
631 629 1
629 663 1
663 629 1
629 684 1
684 629 1
629 718 1
718 629 1
629 773 1
773 629 1
629 862 1
862 629 1
629 2226 1
2226 629 1
630 664 1
664 630 1
630 685 1
685 630 1
630 719 1
719 630 1
630 774 1
774 630 1
630 863 1
863 630 1
630 2227 1
2227 630 1
631 665 1
665 631 1
631 686 1
686 631 1
631 720 1
720 631 1
631 775 1
775 631 1
631 864 1
864 631 1
631 2228 1
2228 631 1
632 633 1
633 632 1
632 634 1
634 632 1
632 635 1
635 632 1
632 637 1
637 632 1
632 640 1
640 632 1
632 687 1
687 632 1
632 721 1
721 632 1
632 776 1
776 632 1
632 865 1
865 632 1
632 2229 1
2229 632 1
633 636 1
636 633 1
633 638 1
638 633 1
633 641 1
641 633 1
633 688 1
688 633 1
633 722 1
722 633 1
633 777 1
777 633 1
633 866 1
866 633 1
633 2230 1
2230 633 1
634 639 1
639 634 1
634 642 1
642 634 1
634 689 1
689 634 1
634 723 1
723 634 1
634 778 1
778 634 1
634 867 1
867 634 1
634 2231 1
2231 634 1
635 636 1
636 635 1
635 643 1
643 635 1
635 690 1
690 635 1
635 724 1
724 635 1
635 779 1
779 635 1
635 868 1
868 635 1
635 2232 1
2232 635 1
636 644 1
644 636 1
636 691 1
691 636 1
636 725 1
725 636 1
636 780 1
780 636 1
636 869 1
869 636 1
636 2233 1
2233 636 1
637 638 1
638 637 1
637 639 1
639 637 1
637 692 1
692 637 1
637 726 1
726 637 1
637 781 1
781 637 1
637 870 1
870 637 1
637 2234 1
2234 637 1
638 693 1
693 638 1
638 727 1
727 638 1
638 782 1
782 638 1
638 871 1
871 638 1
638 2235 1
2235 638 1
639 694 1
694 639 1
639 728 1
728 639 1
639 783 1
783 639 1
639 872 1
872 639 1
639 2236 1
2236 639 1
640 641 1
641 640 1
640 642 1
642 640 1
640 643 1
643 640 1
640 695 1
695 640 1
640 729 1
729 640 1
640 784 1
784 640 1
640 873 1
873 640 1
640 2237 1
2237 640 1
641 644 1
644 641 1
641 696 1
696 641 1
641 730 1
730 641 1
641 785 1
785 641 1
641 874 1
874 641 1
641 2238 1
2238 641 1
642 697 1
697 642 1
642 731 1
731 642 1
642 786 1
786 642 1
642 875 1
875 642 1
642 2239 1
2239 642 1
643 644 1
644 643 1
643 698 1
698 643 1
643 732 1
732 643 1
643 787 1
787 643 1
643 876 1
876 643 1
643 2240 1
2240 643 1
644 699 1
699 644 1
644 733 1
733 644 1
644 788 1
788 644 1
644 877 1
877 644 1
644 2241 1
2241 644 1
645 646 1
646 645 1
645 647 1
647 645 1
645 648 1
648 645 1
645 650 1
650 645 1
645 653 1
653 645 1
645 658 1
658 645 1
645 734 1
734 645 1
645 789 1
789 645 1
645 878 1
878 645 1
645 2242 1
2242 645 1
646 649 1
649 646 1
646 651 1
651 646 1
646 654 1
654 646 1
646 659 1
659 646 1
646 735 1
735 646 1
646 790 1
790 646 1
646 879 1
879 646 1
646 2243 1
2243 646 1
647 652 1
652 647 1
647 655 1
655 647 1
647 660 1
660 647 1
647 736 1
736 647 1
647 791 1
791 647 1
647 880 1
880 647 1
647 2244 1
2244 647 1
648 649 1
649 648 1
648 656 1
656 648 1
648 661 1
661 648 1
648 737 1
737 648 1
648 792 1
792 648 1
648 881 1
881 648 1
648 2245 1
2245 648 1
649 657 1
657 649 1
649 662 1
662 649 1
649 738 1
738 649 1
649 793 1
793 649 1
649 882 1
882 649 1
649 2246 1
2246 649 1
650 651 1
651 650 1
650 652 1
652 650 1
650 663 1
663 650 1
650 739 1
739 650 1
650 794 1
794 650 1
650 883 1
883 650 1
650 2247 1
2247 650 1
651 664 1
664 651 1
651 740 1
740 651 1
651 795 1
795 651 1
651 884 1
884 651 1
651 2248 1
2248 651 1
652 665 1
665 652 1
652 741 1
741 652 1
652 796 1
796 652 1
652 885 1
885 652 1
652 2249 1
2249 652 1
653 654 1
654 653 1
653 655 1
655 653 1
653 656 1
656 653 1
653 742 1
742 653 1
653 797 1
797 653 1
653 886 1
886 653 1
653 2250 1
2250 653 1
654 657 1
657 654 1
654 743 1
743 654 1
654 798 1
798 654 1
654 887 1
887 654 1
654 2251 1
2251 654 1
655 744 1
744 655 1
655 799 1
799 655 1
655 888 1
888 655 1
655 2252 1
2252 655 1
656 657 1
657 656 1
656 745 1
745 656 1
656 800 1
800 656 1
656 889 1
889 656 1
656 2253 1
2253 656 1
657 746 1
746 657 1
657 801 1
801 657 1
657 890 1
890 657 1
657 2254 1
2254 657 1
658 659 1
659 658 1
658 660 1
660 658 1
658 661 1
661 658 1
658 663 1
663 658 1
658 747 1
747 658 1
658 802 1
802 658 1
658 891 1
891 658 1
658 2255 1
2255 658 1
659 662 1
662 659 1
659 664 1
664 659 1
659 748 1
748 659 1
659 803 1
803 659 1
659 892 1
892 659 1
659 2256 1
2256 659 1
660 665 1
665 660 1
660 749 1
749 660 1
660 804 1
804 660 1
660 893 1
893 660 1
660 2257 1
2257 660 1
661 662 1
662 661 1
661 750 1
750 661 1
661 805 1
805 661 1
661 894 1
894 661 1
661 2258 1
2258 661 1
662 751 1
751 662 1
662 806 1
806 662 1
662 895 1
895 662 1
662 2259 1
2259 662 1
663 664 1
664 663 1
663 665 1
665 663 1
663 752 1
752 663 1
663 807 1
807 663 1
663 896 1
896 663 1
663 2260 1
2260 663 1
664 753 1
753 664 1
664 808 1
808 664 1
664 897 1
897 664 1
664 2261 1
2261 664 1
665 754 1
754 665 1
665 809 1
809 665 1
665 898 1
898 665 1
665 2262 1
2262 665 1
666 667 1
667 666 1
666 668 1
668 666 1
666 669 1
669 666 1
666 671 1
671 666 1
666 674 1
674 666 1
666 679 1
679 666 1
666 687 1
687 666 1
666 810 1
810 666 1
666 899 1
899 666 1
666 2263 1
2263 666 1
667 670 1
670 667 1
667 672 1
672 667 1
667 675 1
675 667 1
667 680 1
680 667 1
667 688 1
688 667 1
667 811 1
811 667 1
667 900 1
900 667 1
667 2264 1
2264 667 1
668 673 1
673 668 1
668 676 1
676 668 1
668 681 1
681 668 1
668 689 1
689 668 1
668 812 1
812 668 1
668 901 1
901 668 1
668 2265 1
2265 668 1
669 670 1
670 669 1
669 677 1
677 669 1
669 682 1
682 669 1
669 690 1
690 669 1
669 813 1
813 669 1
669 902 1
902 669 1
669 2266 1
2266 669 1
670 678 1
678 670 1
670 683 1
683 670 1
670 691 1
691 670 1
670 814 1
814 670 1
670 903 1
903 670 1
670 2267 1
2267 670 1
671 672 1
672 671 1
671 673 1
673 671 1
671 684 1
684 671 1
671 692 1
692 671 1
671 815 1
815 671 1
671 904 1
904 671 1
671 2268 1
2268 671 1
672 685 1
685 672 1
672 693 1
693 672 1
672 816 1
816 672 1
672 905 1
905 672 1
672 2269 1
2269 672 1
673 686 1
686 673 1
673 694 1
694 673 1
673 817 1
817 673 1
673 906 1
906 673 1
673 2270 1
2270 673 1
674 675 1
675 674 1
674 676 1
676 674 1
674 677 1
677 674 1
674 695 1
695 674 1
674 818 1
818 674 1
674 907 1
907 674 1
674 2271 1
2271 674 1
675 678 1
678 675 1
675 696 1
696 675 1
675 819 1
819 675 1
675 908 1
908 675 1
675 2272 1
2272 675 1
676 697 1
697 676 1
676 820 1
820 676 1
676 909 1
909 676 1
676 2273 1
2273 676 1
677 678 1
678 677 1
677 698 1
698 677 1
677 821 1
821 677 1
677 910 1
910 677 1
677 2274 1
2274 677 1
678 699 1
699 678 1
678 822 1
822 678 1
678 911 1
911 678 1
678 2275 1
2275 678 1
679 680 1
680 679 1
679 681 1
681 679 1
679 682 1
682 679 1
679 684 1
684 679 1
679 823 1
823 679 1
679 912 1
912 679 1
679 2276 1
2276 679 1
680 683 1
683 680 1
680 685 1
685 680 1
680 824 1
824 680 1
680 913 1
913 680 1
680 2277 1
2277 680 1
681 686 1
686 681 1
681 825 1
825 681 1
681 914 1
914 681 1
681 2278 1
2278 681 1
682 683 1
683 682 1
682 826 1
826 682 1
682 915 1
915 682 1
682 2279 1
2279 682 1
683 827 1
827 683 1
683 916 1
916 683 1
683 2280 1
2280 683 1
684 685 1
685 684 1
684 686 1
686 684 1
684 828 1
828 684 1
684 917 1
917 684 1
684 2281 1
2281 684 1
685 829 1
829 685 1
685 918 1
918 685 1
685 2282 1
2282 685 1
686 830 1
830 686 1
686 919 1
919 686 1
686 2283 1
2283 686 1
687 688 1
688 687 1
687 689 1
689 687 1
687 690 1
690 687 1
687 692 1
692 687 1
687 695 1
695 687 1
687 831 1
831 687 1
687 920 1
920 687 1
687 2284 1
2284 687 1
688 691 1
691 688 1
688 693 1
693 688 1
688 696 1
696 688 1
688 832 1
832 688 1
688 921 1
921 688 1
688 2285 1
2285 688 1
689 694 1
694 689 1
689 697 1
697 689 1
689 833 1
833 689 1
689 922 1
922 689 1
689 2286 1
2286 689 1
690 691 1
691 690 1
690 698 1
698 690 1
690 834 1
834 690 1
690 923 1
923 690 1
690 2287 1
2287 690 1
691 699 1
699 691 1
691 835 1
835 691 1
691 924 1
924 691 1
691 2288 1
2288 691 1
692 693 1
693 692 1
692 694 1
694 692 1
692 836 1
836 692 1
692 925 1
925 692 1
692 2289 1
2289 692 1
693 837 1
837 693 1
693 926 1
926 693 1
693 2290 1
2290 693 1
694 838 1
838 694 1
694 927 1
927 694 1
694 2291 1
2291 694 1
695 696 1
696 695 1
695 697 1
697 695 1
695 698 1
698 695 1
695 839 1
839 695 1
695 928 1
928 695 1
695 2292 1
2292 695 1
696 699 1
699 696 1
696 840 1
840 696 1
696 929 1
929 696 1
696 2293 1
2293 696 1
697 841 1
841 697 1
697 930 1
930 697 1
697 2294 1
2294 697 1
698 699 1
699 698 1
698 842 1
842 698 1
698 931 1
931 698 1
698 2295 1
2295 698 1
699 843 1
843 699 1
699 932 1
932 699 1
699 2296 1
2296 699 1
700 701 1
701 700 1
700 702 1
702 700 1
700 703 1
703 700 1
700 705 1
705 700 1
700 708 1
708 700 1
700 713 1
713 700 1
700 721 1
721 700 1
700 734 1
734 700 1
700 933 1
933 700 1
700 2297 1
2297 700 1
701 704 1
704 701 1
701 706 1
706 701 1
701 709 1
709 701 1
701 714 1
714 701 1
701 722 1
722 701 1
701 735 1
735 701 1
701 934 1
934 701 1
701 2298 1
2298 701 1
702 707 1
707 702 1
702 710 1
710 702 1
702 715 1
715 702 1
702 723 1
723 702 1
702 736 1
736 702 1
702 935 1
935 702 1
702 2299 1
2299 702 1
703 704 1
704 703 1
703 711 1
711 703 1
703 716 1
716 703 1
703 724 1
724 703 1
703 737 1
737 703 1
703 936 1
936 703 1
703 2300 1
2300 703 1
704 712 1
712 704 1
704 717 1
717 704 1
704 725 1
725 704 1
704 738 1
738 704 1
704 937 1
937 704 1
704 2301 1
2301 704 1
705 706 1
706 705 1
705 707 1
707 705 1
705 718 1
718 705 1
705 726 1
726 705 1
705 739 1
739 705 1
705 938 1
938 705 1
705 2302 1
2302 705 1
706 719 1
719 706 1
706 727 1
727 706 1
706 740 1
740 706 1
706 939 1
939 706 1
706 2303 1
2303 706 1
707 720 1
720 707 1
707 728 1
728 707 1
707 741 1
741 707 1
707 940 1
940 707 1
707 2304 1
2304 707 1
708 709 1
709 708 1
708 710 1
710 708 1
708 711 1
711 708 1
708 729 1
729 708 1
708 742 1
742 708 1
708 941 1
941 708 1
708 2305 1
2305 708 1
709 712 1
712 709 1
709 730 1
730 709 1
709 743 1
743 709 1
709 942 1
942 709 1
709 2306 1
2306 709 1
710 731 1
731 710 1
710 744 1
744 710 1
710 943 1
943 710 1
710 2307 1
2307 710 1
711 712 1
712 711 1
711 732 1
732 711 1
711 745 1
745 711 1
711 944 1
944 711 1
711 2308 1
2308 711 1
712 733 1
733 712 1
712 746 1
746 712 1
712 945 1
945 712 1
712 2309 1
2309 712 1
713 714 1
714 713 1
713 715 1
715 713 1
713 716 1
716 713 1
713 718 1
718 713 1
713 747 1
747 713 1
713 946 1
946 713 1
713 2310 1
2310 713 1
714 717 1
717 714 1
714 719 1
719 714 1
714 748 1
748 714 1
714 947 1
947 714 1
714 2311 1
2311 714 1
715 720 1
720 715 1
715 749 1
749 715 1
715 948 1
948 715 1
715 2312 1
2312 715 1
716 717 1
717 716 1
716 750 1
750 716 1
716 949 1
949 716 1
716 2313 1
2313 716 1
717 751 1
751 717 1
717 950 1
950 717 1
717 2314 1
2314 717 1
718 719 1
719 718 1
718 720 1
720 718 1
718 752 1
752 718 1
718 951 1
951 718 1
718 2315 1
2315 718 1
719 753 1
753 719 1
719 952 1
952 719 1
719 2316 1
2316 719 1
720 754 1
754 720 1
720 953 1
953 720 1
720 2317 1
2317 720 1
721 722 1
722 721 1
721 723 1
723 721 1
721 724 1
724 721 1
721 726 1
726 721 1
721 729 1
729 721 1
721 954 1
954 721 1
721 2318 1
2318 721 1
722 725 1
725 722 1
722 727 1
727 722 1
722 730 1
730 722 1
722 955 1
955 722 1
722 2319 1
2319 722 1
723 728 1
728 723 1
723 731 1
731 723 1
723 956 1
956 723 1
723 2320 1
2320 723 1
724 725 1
725 724 1
724 732 1
732 724 1
724 957 1
957 724 1
724 2321 1
2321 724 1
725 733 1
733 725 1
725 958 1
958 725 1
725 2322 1
2322 725 1
726 727 1
727 726 1
726 728 1
728 726 1
726 959 1
959 726 1
726 2323 1
2323 726 1
727 960 1
960 727 1
727 2324 1
2324 727 1
728 961 1
961 728 1
728 2325 1
2325 728 1
729 730 1
730 729 1
729 731 1
731 729 1
729 732 1
732 729 1
729 962 1
962 729 1
729 2326 1
2326 729 1
730 733 1
733 730 1
730 963 1
963 730 1
730 2327 1
2327 730 1
731 964 1
964 731 1
731 2328 1
2328 731 1
732 733 1
733 732 1
732 965 1
965 732 1
732 2329 1
2329 732 1
733 966 1
966 733 1
733 2330 1
2330 733 1
734 735 1
735 734 1
734 736 1
736 734 1
734 737 1
737 734 1
734 739 1
739 734 1
734 742 1
742 734 1
734 747 1
747 734 1
734 967 1
967 734 1
734 2331 1
2331 734 1
735 738 1
738 735 1
735 740 1
740 735 1
735 743 1
743 735 1
735 748 1
748 735 1
735 968 1
968 735 1
735 2332 1
2332 735 1
736 741 1
741 736 1
736 744 1
744 736 1
736 749 1
749 736 1
736 969 1
969 736 1
736 2333 1
2333 736 1
737 738 1
738 737 1
737 745 1
745 737 1
737 750 1
750 737 1
737 970 1
970 737 1
737 2334 1
2334 737 1
738 746 1
746 738 1
738 751 1
751 738 1
738 971 1
971 738 1
738 2335 1
2335 738 1
739 740 1
740 739 1
739 741 1
741 739 1
739 752 1
752 739 1
739 972 1
972 739 1
739 2336 1
2336 739 1
740 753 1
753 740 1
740 973 1
973 740 1
740 2337 1
2337 740 1
741 754 1
754 741 1
741 974 1
974 741 1
741 2338 1
2338 741 1
742 743 1
743 742 1
742 744 1
744 742 1
742 745 1
745 742 1
742 975 1
975 742 1
742 2339 1
2339 742 1
743 746 1
746 743 1
743 976 1
976 743 1
743 2340 1
2340 743 1
744 977 1
977 744 1
744 2341 1
2341 744 1
745 746 1
746 745 1
745 978 1
978 745 1
745 2342 1
2342 745 1
746 979 1
979 746 1
746 2343 1
2343 746 1
747 748 1
748 747 1
747 749 1
749 747 1
747 750 1
750 747 1
747 752 1
752 747 1
747 980 1
980 747 1
747 2344 1
2344 747 1
748 751 1
751 748 1
748 753 1
753 748 1
748 981 1
981 748 1
748 2345 1
2345 748 1
749 754 1
754 749 1
749 982 1
982 749 1
749 2346 1
2346 749 1
750 751 1
751 750 1
750 983 1
983 750 1
750 2347 1
2347 750 1
751 984 1
984 751 1
751 2348 1
2348 751 1
752 753 1
753 752 1
752 754 1
754 752 1
752 985 1
985 752 1
752 2349 1
2349 752 1
753 986 1
986 753 1
753 2350 1
2350 753 1
754 987 1
987 754 1
754 2351 1
2351 754 1
755 756 1
756 755 1
755 757 1
757 755 1
755 758 1
758 755 1
755 760 1
760 755 1
755 763 1
763 755 1
755 768 1
768 755 1
755 776 1
776 755 1
755 789 1
789 755 1
755 810 1
810 755 1
755 2352 1
2352 755 1
756 759 1
759 756 1
756 761 1
761 756 1
756 764 1
764 756 1
756 769 1
769 756 1
756 777 1
777 756 1
756 790 1
790 756 1
756 811 1
811 756 1
756 2353 1
2353 756 1
757 762 1
762 757 1
757 765 1
765 757 1
757 770 1
770 757 1
757 778 1
778 757 1
757 791 1
791 757 1
757 812 1
812 757 1
757 2354 1
2354 757 1
758 759 1
759 758 1
758 766 1
766 758 1
758 771 1
771 758 1
758 779 1
779 758 1
758 792 1
792 758 1
758 813 1
813 758 1
758 2355 1
2355 758 1
759 767 1
767 759 1
759 772 1
772 759 1
759 780 1
780 759 1
759 793 1
793 759 1
759 814 1
814 759 1
759 2356 1
2356 759 1
760 761 1
761 760 1
760 762 1
762 760 1
760 773 1
773 760 1
760 781 1
781 760 1
760 794 1
794 760 1
760 815 1
815 760 1
760 2357 1
2357 760 1
761 774 1
774 761 1
761 782 1
782 761 1
761 795 1
795 761 1
761 816 1
816 761 1
761 2358 1
2358 761 1
762 775 1
775 762 1
762 783 1
783 762 1
762 796 1
796 762 1
762 817 1
817 762 1
762 2359 1
2359 762 1
763 764 1
764 763 1
763 765 1
765 763 1
763 766 1
766 763 1
763 784 1
784 763 1
763 797 1
797 763 1
763 818 1
818 763 1
763 2360 1
2360 763 1
764 767 1
767 764 1
764 785 1
785 764 1
764 798 1
798 764 1
764 819 1
819 764 1
764 2361 1
2361 764 1
765 786 1
786 765 1
765 799 1
799 765 1
765 820 1
820 765 1
765 2362 1
2362 765 1
766 767 1
767 766 1
766 787 1
787 766 1
766 800 1
800 766 1
766 821 1
821 766 1
766 2363 1
2363 766 1
767 788 1
788 767 1
767 801 1
801 767 1
767 822 1
822 767 1
767 2364 1
2364 767 1
768 769 1
769 768 1
768 770 1
770 768 1
768 771 1
771 768 1
768 773 1
773 768 1
768 802 1
802 768 1
768 823 1
823 768 1
768 2365 1
2365 768 1
769 772 1
772 769 1
769 774 1
774 769 1
769 803 1
803 769 1
769 824 1
824 769 1
769 2366 1
2366 769 1
770 775 1
775 770 1
770 804 1
804 770 1
770 825 1
825 770 1
770 2367 1
2367 770 1
771 772 1
772 771 1
771 805 1
805 771 1
771 826 1
826 771 1
771 2368 1
2368 771 1
772 806 1
806 772 1
772 827 1
827 772 1
772 2369 1
2369 772 1
773 774 1
774 773 1
773 775 1
775 773 1
773 807 1
807 773 1
773 828 1
828 773 1
773 2370 1
2370 773 1
774 808 1
808 774 1
774 829 1
829 774 1
774 2371 1
2371 774 1
775 809 1
809 775 1
775 830 1
830 775 1
775 2372 1
2372 775 1
776 777 1
777 776 1
776 778 1
778 776 1
776 779 1
779 776 1
776 781 1
781 776 1
776 784 1
784 776 1
776 831 1
831 776 1
776 2373 1
2373 776 1
777 780 1
780 777 1
777 782 1
782 777 1
777 785 1
785 777 1
777 832 1
832 777 1
777 2374 1
2374 777 1
778 783 1
783 778 1
778 786 1
786 778 1
778 833 1
833 778 1
778 2375 1
2375 778 1
779 780 1
780 779 1
779 787 1
787 779 1
779 834 1
834 779 1
779 2376 1
2376 779 1
780 788 1
788 780 1
780 835 1
835 780 1
780 2377 1
2377 780 1
781 782 1
782 781 1
781 783 1
783 781 1
781 836 1
836 781 1
781 2378 1
2378 781 1
782 837 1
837 782 1
782 2379 1
2379 782 1
783 838 1
838 783 1
783 2380 1
2380 783 1
784 785 1
785 784 1
784 786 1
786 784 1
784 787 1
787 784 1
784 839 1
839 784 1
784 2381 1
2381 784 1
785 788 1
788 785 1
785 840 1
840 785 1
785 2382 1
2382 785 1
786 841 1
841 786 1
786 2383 1
2383 786 1
787 788 1
788 787 1
787 842 1
842 787 1
787 2384 1
2384 787 1
788 843 1
843 788 1
788 2385 1
2385 788 1
789 790 1
790 789 1
789 791 1
791 789 1
789 792 1
792 789 1
789 794 1
794 789 1
789 797 1
797 789 1
789 802 1
802 789 1
789 2386 1
2386 789 1
790 793 1
793 790 1
790 795 1
795 790 1
790 798 1
798 790 1
790 803 1
803 790 1
790 2387 1
2387 790 1
791 796 1
796 791 1
791 799 1
799 791 1
791 804 1
804 791 1
791 2388 1
2388 791 1
792 793 1
793 792 1
792 800 1
800 792 1
792 805 1
805 792 1
792 2389 1
2389 792 1
793 801 1
801 793 1
793 806 1
806 793 1
793 2390 1
2390 793 1
794 795 1
795 794 1
794 796 1
796 794 1
794 807 1
807 794 1
794 2391 1
2391 794 1
795 808 1
808 795 1
795 2392 1
2392 795 1
796 809 1
809 796 1
796 2393 1
2393 796 1
797 798 1
798 797 1
797 799 1
799 797 1
797 800 1
800 797 1
797 2394 1
2394 797 1
798 801 1
801 798 1
798 2395 1
2395 798 1
799 2396 1
2396 799 1
800 801 1
801 800 1
800 2397 1
2397 800 1
801 2398 1
2398 801 1
802 803 1
803 802 1
802 804 1
804 802 1
802 805 1
805 802 1
802 807 1
807 802 1
802 2399 1
2399 802 1
803 806 1
806 803 1
803 808 1
808 803 1
803 2400 1
2400 803 1
804 809 1
809 804 1
804 2401 1
2401 804 1
805 806 1
806 805 1
805 2402 1
2402 805 1
806 2403 1
2403 806 1
807 808 1
808 807 1
807 809 1
809 807 1
807 2404 1
2404 807 1
808 2405 1
2405 808 1
809 2406 1
2406 809 1
810 811 1
811 810 1
810 812 1
812 810 1
810 813 1
813 810 1
810 815 1
815 810 1
810 818 1
818 810 1
810 823 1
823 810 1
810 831 1
831 810 1
810 2407 1
2407 810 1
811 814 1
814 811 1
811 816 1
816 811 1
811 819 1
819 811 1
811 824 1
824 811 1
811 832 1
832 811 1
811 2408 1
2408 811 1
812 817 1
817 812 1
812 820 1
820 812 1
812 825 1
825 812 1
812 833 1
833 812 1
812 2409 1
2409 812 1
813 814 1
814 813 1
813 821 1
821 813 1
813 826 1
826 813 1
813 834 1
834 813 1
813 2410 1
2410 813 1
814 822 1
822 814 1
814 827 1
827 814 1
814 835 1
835 814 1
814 2411 1
2411 814 1
815 816 1
816 815 1
815 817 1
817 815 1
815 828 1
828 815 1
815 836 1
836 815 1
815 2412 1
2412 815 1
816 829 1
829 816 1
816 837 1
837 816 1
816 2413 1
2413 816 1
817 830 1
830 817 1
817 838 1
838 817 1
817 2414 1
2414 817 1
818 819 1
819 818 1
818 820 1
820 818 1
818 821 1
821 818 1
818 839 1
839 818 1
818 2415 1
2415 818 1
819 822 1
822 819 1
819 840 1
840 819 1
819 2416 1
2416 819 1
820 841 1
841 820 1
820 2417 1
2417 820 1
821 822 1
822 821 1
821 842 1
842 821 1
821 2418 1
2418 821 1
822 843 1
843 822 1
822 2419 1
2419 822 1
823 824 1
824 823 1
823 825 1
825 823 1
823 826 1
826 823 1
823 828 1
828 823 1
823 2420 1
2420 823 1
824 827 1
827 824 1
824 829 1
829 824 1
824 2421 1
2421 824 1
825 830 1
830 825 1
825 2422 1
2422 825 1
826 827 1
827 826 1
826 2423 1
2423 826 1
827 2424 1
2424 827 1
828 829 1
829 828 1
828 830 1
830 828 1
828 2425 1
2425 828 1
829 2426 1
2426 829 1
830 2427 1
2427 830 1
831 832 1
832 831 1
831 833 1
833 831 1
831 834 1
834 831 1
831 836 1
836 831 1
831 839 1
839 831 1
831 2428 1
2428 831 1
832 835 1
835 832 1
832 837 1
837 832 1
832 840 1
840 832 1
832 2429 1
2429 832 1
833 838 1
838 833 1
833 841 1
841 833 1
833 2430 1
2430 833 1
834 835 1
835 834 1
834 842 1
842 834 1
834 2431 1
2431 834 1
835 843 1
843 835 1
835 2432 1
2432 835 1
836 837 1
837 836 1
836 838 1
838 836 1
836 2433 1
2433 836 1
837 2434 1
2434 837 1
838 2435 1
2435 838 1
839 840 1
840 839 1
839 841 1
841 839 1
839 842 1
842 839 1
839 2436 1
2436 839 1
840 843 1
843 840 1
840 2437 1
2437 840 1
841 2438 1
2438 841 1
842 843 1
843 842 1
842 2439 1
2439 842 1
843 2440 1
2440 843 1
844 845 1
845 844 1
844 846 1
846 844 1
844 847 1
847 844 1
844 849 1
849 844 1
844 852 1
852 844 1
844 857 1
857 844 1
844 865 1
865 844 1
844 878 1
878 844 1
844 899 1
899 844 1
844 933 1
933 844 1
844 2441 1
2441 844 1
845 848 1
848 845 1
845 850 1
850 845 1
845 853 1
853 845 1
845 858 1
858 845 1
845 866 1
866 845 1
845 879 1
879 845 1
845 900 1
900 845 1
845 934 1
934 845 1
845 2442 1
2442 845 1
846 851 1
851 846 1
846 854 1
854 846 1
846 859 1
859 846 1
846 867 1
867 846 1
846 880 1
880 846 1
846 901 1
901 846 1
846 935 1
935 846 1
846 2443 1
2443 846 1
847 848 1
848 847 1
847 855 1
855 847 1
847 860 1
860 847 1
847 868 1
868 847 1
847 881 1
881 847 1
847 902 1
902 847 1
847 936 1
936 847 1
847 2444 1
2444 847 1
848 856 1
856 848 1
848 861 1
861 848 1
848 869 1
869 848 1
848 882 1
882 848 1
848 903 1
903 848 1
848 937 1
937 848 1
848 2445 1
2445 848 1
849 850 1
850 849 1
849 851 1
851 849 1
849 862 1
862 849 1
849 870 1
870 849 1
849 883 1
883 849 1
849 904 1
904 849 1
849 938 1
938 849 1
849 2446 1
2446 849 1
850 863 1
863 850 1
850 871 1
871 850 1
850 884 1
884 850 1
850 905 1
905 850 1
850 939 1
939 850 1
850 2447 1
2447 850 1
851 864 1
864 851 1
851 872 1
872 851 1
851 885 1
885 851 1
851 906 1
906 851 1
851 940 1
940 851 1
851 2448 1
2448 851 1
852 853 1
853 852 1
852 854 1
854 852 1
852 855 1
855 852 1
852 873 1
873 852 1
852 886 1
886 852 1
852 907 1
907 852 1
852 941 1
941 852 1
852 2449 1
2449 852 1
853 856 1
856 853 1
853 874 1
874 853 1
853 887 1
887 853 1
853 908 1
908 853 1
853 942 1
942 853 1
853 2450 1
2450 853 1
854 875 1
875 854 1
854 888 1
888 854 1
854 909 1
909 854 1
854 943 1
943 854 1
854 2451 1
2451 854 1
855 856 1
856 855 1
855 876 1
876 855 1
855 889 1
889 855 1
855 910 1
910 855 1
855 944 1
944 855 1
855 2452 1
2452 855 1
856 877 1
877 856 1
856 890 1
890 856 1
856 911 1
911 856 1
856 945 1
945 856 1
856 2453 1
2453 856 1
857 858 1
858 857 1
857 859 1
859 857 1
857 860 1
860 857 1
857 862 1
862 857 1
857 891 1
891 857 1
857 912 1
912 857 1
857 946 1
946 857 1
857 2454 1
2454 857 1
858 861 1
861 858 1
858 863 1
863 858 1
858 892 1
892 858 1
858 913 1
913 858 1
858 947 1
947 858 1
858 2455 1
2455 858 1
859 864 1
864 859 1
859 893 1
893 859 1
859 914 1
914 859 1
859 948 1
948 859 1
859 2456 1
2456 859 1
860 861 1
861 860 1
860 894 1
894 860 1
860 915 1
915 860 1
860 949 1
949 860 1
860 2457 1
2457 860 1
861 895 1
895 861 1
861 916 1
916 861 1
861 950 1
950 861 1
861 2458 1
2458 861 1
862 863 1
863 862 1
862 864 1
864 862 1
862 896 1
896 862 1
862 917 1
917 862 1
862 951 1
951 862 1
862 2459 1
2459 862 1
863 897 1
897 863 1
863 918 1
918 863 1
863 952 1
952 863 1
863 2460 1
2460 863 1
864 898 1
898 864 1
864 919 1
919 864 1
864 953 1
953 864 1
864 2461 1
2461 864 1
865 866 1
866 865 1
865 867 1
867 865 1
865 868 1
868 865 1
865 870 1
870 865 1
865 873 1
873 865 1
865 920 1
920 865 1
865 954 1
954 865 1
865 2462 1
2462 865 1
866 869 1
869 866 1
866 871 1
871 866 1
866 874 1
874 866 1
866 921 1
921 866 1
866 955 1
955 866 1
866 2463 1
2463 866 1
867 872 1
872 867 1
867 875 1
875 867 1
867 922 1
922 867 1
867 956 1
956 867 1
867 2464 1
2464 867 1
868 869 1
869 868 1
868 876 1
876 868 1
868 923 1
923 868 1
868 957 1
957 868 1
868 2465 1
2465 868 1
869 877 1
877 869 1
869 924 1
924 869 1
869 958 1
958 869 1
869 2466 1
2466 869 1
870 871 1
871 870 1
870 872 1
872 870 1
870 925 1
925 870 1
870 959 1
959 870 1
870 2467 1
2467 870 1
871 926 1
926 871 1
871 960 1
960 871 1
871 2468 1
2468 871 1
872 927 1
927 872 1
872 961 1
961 872 1
872 2469 1
2469 872 1
873 874 1
874 873 1
873 875 1
875 873 1
873 876 1
876 873 1
873 928 1
928 873 1
873 962 1
962 873 1
873 2470 1
2470 873 1
874 877 1
877 874 1
874 929 1
929 874 1
874 963 1
963 874 1
874 2471 1
2471 874 1
875 930 1
930 875 1
875 964 1
964 875 1
875 2472 1
2472 875 1
876 877 1
877 876 1
876 931 1
931 876 1
876 965 1
965 876 1
876 2473 1
2473 876 1
877 932 1
932 877 1
877 966 1
966 877 1
877 2474 1
2474 877 1
878 879 1
879 878 1
878 880 1
880 878 1
878 881 1
881 878 1
878 883 1
883 878 1
878 886 1
886 878 1
878 891 1
891 878 1
878 967 1
967 878 1
878 2475 1
2475 878 1
879 882 1
882 879 1
879 884 1
884 879 1
879 887 1
887 879 1
879 892 1
892 879 1
879 968 1
968 879 1
879 2476 1
2476 879 1
880 885 1
885 880 1
880 888 1
888 880 1
880 893 1
893 880 1
880 969 1
969 880 1
880 2477 1
2477 880 1
881 882 1
882 881 1
881 889 1
889 881 1
881 894 1
894 881 1
881 970 1
970 881 1
881 2478 1
2478 881 1
882 890 1
890 882 1
882 895 1
895 882 1
882 971 1
971 882 1
882 2479 1
2479 882 1
883 884 1
884 883 1
883 885 1
885 883 1
883 896 1
896 883 1
883 972 1
972 883 1
883 2480 1
2480 883 1
884 897 1
897 884 1
884 973 1
973 884 1
884 2481 1
2481 884 1
885 898 1
898 885 1
885 974 1
974 885 1
885 2482 1
2482 885 1
886 887 1
887 886 1
886 888 1
888 886 1
886 889 1
889 886 1
886 975 1
975 886 1
886 2483 1
2483 886 1
887 890 1
890 887 1
887 976 1
976 887 1
887 2484 1
2484 887 1
888 977 1
977 888 1
888 2485 1
2485 888 1
889 890 1
890 889 1
889 978 1
978 889 1
889 2486 1
2486 889 1
890 979 1
979 890 1
890 2487 1
2487 890 1
891 892 1
892 891 1
891 893 1
893 891 1
891 894 1
894 891 1
891 896 1
896 891 1
891 980 1
980 891 1
891 2488 1
2488 891 1
892 895 1
895 892 1
892 897 1
897 892 1
892 981 1
981 892 1
892 2489 1
2489 892 1
893 898 1
898 893 1
893 982 1
982 893 1
893 2490 1
2490 893 1
894 895 1
895 894 1
894 983 1
983 894 1
894 2491 1
2491 894 1
895 984 1
984 895 1
895 2492 1
2492 895 1
896 897 1
897 896 1
896 898 1
898 896 1
896 985 1
985 896 1
896 2493 1
2493 896 1
897 986 1
986 897 1
897 2494 1
2494 897 1
898 987 1
987 898 1
898 2495 1
2495 898 1
899 900 1
900 899 1
899 901 1
901 899 1
899 902 1
902 899 1
899 904 1
904 899 1
899 907 1
907 899 1
899 912 1
912 899 1
899 920 1
920 899 1
899 2496 1
2496 899 1
900 903 1
903 900 1
900 905 1
905 900 1
900 908 1
908 900 1
900 913 1
913 900 1
900 921 1
921 900 1
900 2497 1
2497 900 1
901 906 1
906 901 1
901 909 1
909 901 1
901 914 1
914 901 1
901 922 1
922 901 1
901 2498 1
2498 901 1
902 903 1
903 902 1
902 910 1
910 902 1
902 915 1
915 902 1
902 923 1
923 902 1
902 2499 1
2499 902 1
903 911 1
911 903 1
903 916 1
916 903 1
903 924 1
924 903 1
903 2500 1
2500 903 1
904 905 1
905 904 1
904 906 1
906 904 1
904 917 1
917 904 1
904 925 1
925 904 1
904 2501 1
2501 904 1
905 918 1
918 905 1
905 926 1
926 905 1
905 2502 1
2502 905 1
906 919 1
919 906 1
906 927 1
927 906 1
906 2503 1
2503 906 1
907 908 1
908 907 1
907 909 1
909 907 1
907 910 1
910 907 1
907 928 1
928 907 1
907 2504 1
2504 907 1
908 911 1
911 908 1
908 929 1
929 908 1
908 2505 1
2505 908 1
909 930 1
930 909 1
909 2506 1
2506 909 1
910 911 1
911 910 1
910 931 1
931 910 1
910 2507 1
2507 910 1
911 932 1
932 911 1
911 2508 1
2508 911 1
912 913 1
913 912 1
912 914 1
914 912 1
912 915 1
915 912 1
912 917 1
917 912 1
912 2509 1
2509 912 1
913 916 1
916 913 1
913 918 1
918 913 1
913 2510 1
2510 913 1
914 919 1
919 914 1
914 2511 1
2511 914 1
915 916 1
916 915 1
915 2512 1
2512 915 1
916 2513 1
2513 916 1
917 918 1
918 917 1
917 919 1
919 917 1
917 2514 1
2514 917 1
918 2515 1
2515 918 1
919 2516 1
2516 919 1
920 921 1
921 920 1
920 922 1
922 920 1
920 923 1
923 920 1
920 925 1
925 920 1
920 928 1
928 920 1
920 2517 1
2517 920 1
921 924 1
924 921 1
921 926 1
926 921 1
921 929 1
929 921 1
921 2518 1
2518 921 1
922 927 1
927 922 1
922 930 1
930 922 1
922 2519 1
2519 922 1
923 924 1
924 923 1
923 931 1
931 923 1
923 2520 1
2520 923 1
924 932 1
932 924 1
924 2521 1
2521 924 1
925 926 1
926 925 1
925 927 1
927 925 1
925 2522 1
2522 925 1
926 2523 1
2523 926 1
927 2524 1
2524 927 1
928 929 1
929 928 1
928 930 1
930 928 1
928 931 1
931 928 1
928 2525 1
2525 928 1
929 932 1
932 929 1
929 2526 1
2526 929 1
930 2527 1
2527 930 1
931 932 1
932 931 1
931 2528 1
2528 931 1
932 2529 1
2529 932 1
933 934 1
934 933 1
933 935 1
935 933 1
933 936 1
936 933 1
933 938 1
938 933 1
933 941 1
941 933 1
933 946 1
946 933 1
933 954 1
954 933 1
933 967 1
967 933 1
933 2530 1
2530 933 1
934 937 1
937 934 1
934 939 1
939 934 1
934 942 1
942 934 1
934 947 1
947 934 1
934 955 1
955 934 1
934 968 1
968 934 1
934 2531 1
2531 934 1
935 940 1
940 935 1
935 943 1
943 935 1
935 948 1
948 935 1
935 956 1
956 935 1
935 969 1
969 935 1
935 2532 1
2532 935 1
936 937 1
937 936 1
936 944 1
944 936 1
936 949 1
949 936 1
936 957 1
957 936 1
936 970 1
970 936 1
936 2533 1
2533 936 1
937 945 1
945 937 1
937 950 1
950 937 1
937 958 1
958 937 1
937 971 1
971 937 1
937 2534 1
2534 937 1
938 939 1
939 938 1
938 940 1
940 938 1
938 951 1
951 938 1
938 959 1
959 938 1
938 972 1
972 938 1
938 2535 1
2535 938 1
939 952 1
952 939 1
939 960 1
960 939 1
939 973 1
973 939 1
939 2536 1
2536 939 1
940 953 1
953 940 1
940 961 1
961 940 1
940 974 1
974 940 1
940 2537 1
2537 940 1
941 942 1
942 941 1
941 943 1
943 941 1
941 944 1
944 941 1
941 962 1
962 941 1
941 975 1
975 941 1
941 2538 1
2538 941 1
942 945 1
945 942 1
942 963 1
963 942 1
942 976 1
976 942 1
942 2539 1
2539 942 1
943 964 1
964 943 1
943 977 1
977 943 1
943 2540 1
2540 943 1
944 945 1
945 944 1
944 965 1
965 944 1
944 978 1
978 944 1
944 2541 1
2541 944 1
945 966 1
966 945 1
945 979 1
979 945 1
945 2542 1
2542 945 1
946 947 1
947 946 1
946 948 1
948 946 1
946 949 1
949 946 1
946 951 1
951 946 1
946 980 1
980 946 1
946 2543 1
2543 946 1
947 950 1
950 947 1
947 952 1
952 947 1
947 981 1
981 947 1
947 2544 1
2544 947 1
948 953 1
953 948 1
948 982 1
982 948 1
948 2545 1
2545 948 1
949 950 1
950 949 1
949 983 1
983 949 1
949 2546 1
2546 949 1
950 984 1
984 950 1
950 2547 1
2547 950 1
951 952 1
952 951 1
951 953 1
953 951 1
951 985 1
985 951 1
951 2548 1
2548 951 1
952 986 1
986 952 1
952 2549 1
2549 952 1
953 987 1
987 953 1
953 2550 1
2550 953 1
954 955 1
955 954 1
954 956 1
956 954 1
954 957 1
957 954 1
954 959 1
959 954 1
954 962 1
962 954 1
954 2551 1
2551 954 1
955 958 1
958 955 1
955 960 1
960 955 1
955 963 1
963 955 1
955 2552 1
2552 955 1
956 961 1
961 956 1
956 964 1
964 956 1
956 2553 1
2553 956 1
957 958 1
958 957 1
957 965 1
965 957 1
957 2554 1
2554 957 1
958 966 1
966 958 1
958 2555 1
2555 958 1
959 960 1
960 959 1
959 961 1
961 959 1
959 2556 1
2556 959 1
960 2557 1
2557 960 1
961 2558 1
2558 961 1
962 963 1
963 962 1
962 964 1
964 962 1
962 965 1
965 962 1
962 2559 1
2559 962 1
963 966 1
966 963 1
963 2560 1
2560 963 1
964 2561 1
2561 964 1
965 966 1
966 965 1
965 2562 1
2562 965 1
966 2563 1
2563 966 1
967 968 1
968 967 1
967 969 1
969 967 1
967 970 1
970 967 1
967 972 1
972 967 1
967 975 1
975 967 1
967 980 1
980 967 1
967 2564 1
2564 967 1
968 971 1
971 968 1
968 973 1
973 968 1
968 976 1
976 968 1
968 981 1
981 968 1
968 2565 1
2565 968 1
969 974 1
974 969 1
969 977 1
977 969 1
969 982 1
982 969 1
969 2566 1
2566 969 1
970 971 1
971 970 1
970 978 1
978 970 1
970 983 1
983 970 1
970 2567 1
2567 970 1
971 979 1
979 971 1
971 984 1
984 971 1
971 2568 1
2568 971 1
972 973 1
973 972 1
972 974 1
974 972 1
972 985 1
985 972 1
972 2569 1
2569 972 1
973 986 1
986 973 1
973 2570 1
2570 973 1
974 987 1
987 974 1
974 2571 1
2571 974 1
975 976 1
976 975 1
975 977 1
977 975 1
975 978 1
978 975 1
975 2572 1
2572 975 1
976 979 1
979 976 1
976 2573 1
2573 976 1
977 2574 1
2574 977 1
978 979 1
979 978 1
978 2575 1
2575 978 1
979 2576 1
2576 979 1
980 981 1
981 980 1
980 982 1
982 980 1
980 983 1
983 980 1
980 985 1
985 980 1
980 2577 1
2577 980 1
981 984 1
984 981 1
981 986 1
986 981 1
981 2578 1
2578 981 1
982 987 1
987 982 1
982 2579 1
2579 982 1
983 984 1
984 983 1
983 2580 1
2580 983 1
984 2581 1
2581 984 1
985 986 1
986 985 1
985 987 1
987 985 1
985 2582 1
2582 985 1
986 2583 1
2583 986 1
987 2584 1
2584 987 1
988 989 1
989 988 1
988 990 1
990 988 1
988 991 1
991 988 1
988 993 1
993 988 1
988 996 1
996 988 1
988 1001 1
1001 988 1
988 1009 1
1009 988 1
988 1022 1
1022 988 1
988 1043 1
1043 988 1
988 1077 1
1077 988 1
988 1132 1
1132 988 1
988 1221 1
1221 988 1
988 1365 1
1365 988 1
989 992 1
992 989 1
989 994 1
994 989 1
989 997 1
997 989 1
989 1002 1
1002 989 1
989 1010 1
1010 989 1
989 1023 1
1023 989 1
989 1044 1
1044 989 1
989 1078 1
1078 989 1
989 1133 1
1133 989 1
989 1222 1
1222 989 1
989 1366 1
1366 989 1
990 995 1
995 990 1
990 998 1
998 990 1
990 1003 1
1003 990 1
990 1011 1
1011 990 1
990 1024 1
1024 990 1
990 1045 1
1045 990 1
990 1079 1
1079 990 1
990 1134 1
1134 990 1
990 1223 1
1223 990 1
990 1367 1
1367 990 1
991 992 1
992 991 1
991 999 1
999 991 1
991 1004 1
1004 991 1
991 1012 1
1012 991 1
991 1025 1
1025 991 1
991 1046 1
1046 991 1
991 1080 1
1080 991 1
991 1135 1
1135 991 1
991 1224 1
1224 991 1
991 1368 1
1368 991 1
992 1000 1
1000 992 1
992 1005 1
1005 992 1
992 1013 1
1013 992 1
992 1026 1
1026 992 1
992 1047 1
1047 992 1
992 1081 1
1081 992 1
992 1136 1
1136 992 1
992 1225 1
1225 992 1
992 1369 1
1369 992 1
993 994 1
994 993 1
993 995 1
995 993 1
993 1006 1
1006 993 1
993 1014 1
1014 993 1
993 1027 1
1027 993 1
993 1048 1
1048 993 1
993 1082 1
1082 993 1
993 1137 1
1137 993 1
993 1226 1
1226 993 1
993 1370 1
1370 993 1
994 1007 1
1007 994 1
994 1015 1
1015 994 1
994 1028 1
1028 994 1
994 1049 1
1049 994 1
994 1083 1
1083 994 1
994 1138 1
1138 994 1
994 1227 1
1227 994 1
994 1371 1
1371 994 1
995 1008 1
1008 995 1
995 1016 1
1016 995 1
995 1029 1
1029 995 1
995 1050 1
1050 995 1
995 1084 1
1084 995 1
995 1139 1
1139 995 1
995 1228 1
1228 995 1
995 1372 1
1372 995 1
996 997 1
997 996 1
996 998 1
998 996 1
996 999 1
999 996 1
996 1017 1
1017 996 1
996 1030 1
1030 996 1
996 1051 1
1051 996 1
996 1085 1
1085 996 1
996 1140 1
1140 996 1
996 1229 1
1229 996 1
996 1373 1
1373 996 1
997 1000 1
1000 997 1
997 1018 1
1018 997 1
997 1031 1
1031 997 1
997 1052 1
1052 997 1
997 1086 1
1086 997 1
997 1141 1
1141 997 1
997 1230 1
1230 997 1
997 1374 1
1374 997 1
998 1019 1
1019 998 1
998 1032 1
1032 998 1
998 1053 1
1053 998 1
998 1087 1
1087 998 1
998 1142 1
1142 998 1
998 1231 1
1231 998 1
998 1375 1
1375 998 1
999 1000 1
1000 999 1
999 1020 1
1020 999 1
999 1033 1
1033 999 1
999 1054 1
1054 999 1
999 1088 1
1088 999 1
999 1143 1
1143 999 1
999 1232 1
1232 999 1
999 1376 1
1376 999 1
1000 1021 1
1021 1000 1
1000 1034 1
1034 1000 1
1000 1055 1
1055 1000 1
1000 1089 1
1089 1000 1
1000 1144 1
1144 1000 1
1000 1233 1
1233 1000 1
1000 1377 1
1377 1000 1
1001 1002 1
1002 1001 1
1001 1003 1
1003 1001 1
1001 1004 1
1004 1001 1
1001 1006 1
1006 1001 1
1001 1035 1
1035 1001 1
1001 1056 1
1056 1001 1
1001 1090 1
1090 1001 1
1001 1145 1
1145 1001 1
1001 1234 1
1234 1001 1
1001 1378 1
1378 1001 1
1002 1005 1
1005 1002 1
1002 1007 1
1007 1002 1
1002 1036 1
1036 1002 1
1002 1057 1
1057 1002 1
1002 1091 1
1091 1002 1
1002 1146 1
1146 1002 1
1002 1235 1
1235 1002 1
1002 1379 1
1379 1002 1
1003 1008 1
1008 1003 1
1003 1037 1
1037 1003 1
1003 1058 1
1058 1003 1
1003 1092 1
1092 1003 1
1003 1147 1
1147 1003 1
1003 1236 1
1236 1003 1
1003 1380 1
1380 1003 1
1004 1005 1
1005 1004 1
1004 1038 1
1038 1004 1
1004 1059 1
1059 1004 1
1004 1093 1
1093 1004 1
1004 1148 1
1148 1004 1
1004 1237 1
1237 1004 1
1004 1381 1
1381 1004 1
1005 1039 1
1039 1005 1
1005 1060 1
1060 1005 1
1005 1094 1
1094 1005 1
1005 1149 1
1149 1005 1
1005 1238 1
1238 1005 1
1005 1382 1
1382 1005 1
1006 1007 1
1007 1006 1
1006 1008 1
1008 1006 1
1006 1040 1
1040 1006 1
1006 1061 1
1061 1006 1
1006 1095 1
1095 1006 1
1006 1150 1
1150 1006 1
1006 1239 1
1239 1006 1
1006 1383 1
1383 1006 1
1007 1041 1
1041 1007 1
1007 1062 1
1062 1007 1
1007 1096 1
1096 1007 1
1007 1151 1
1151 1007 1
1007 1240 1
1240 1007 1
1007 1384 1
1384 1007 1
1008 1042 1
1042 1008 1
1008 1063 1
1063 1008 1
1008 1097 1
1097 1008 1
1008 1152 1
1152 1008 1
1008 1241 1
1241 1008 1
1008 1385 1
1385 1008 1
1009 1010 1
1010 1009 1
1009 1011 1
1011 1009 1
1009 1012 1
1012 1009 1
1009 1014 1
1014 1009 1
1009 1017 1
1017 1009 1
1009 1064 1
1064 1009 1
1009 1098 1
1098 1009 1
1009 1153 1
1153 1009 1
1009 1242 1
1242 1009 1
1009 1386 1
1386 1009 1
1010 1013 1
1013 1010 1
1010 1015 1
1015 1010 1
1010 1018 1
1018 1010 1
1010 1065 1
1065 1010 1
1010 1099 1
1099 1010 1
1010 1154 1
1154 1010 1
1010 1243 1
1243 1010 1
1010 1387 1
1387 1010 1
1011 1016 1
1016 1011 1
1011 1019 1
1019 1011 1
1011 1066 1
1066 1011 1
1011 1100 1
1100 1011 1
1011 1155 1
1155 1011 1
1011 1244 1
1244 1011 1
1011 1388 1
1388 1011 1
1012 1013 1
1013 1012 1
1012 1020 1
1020 1012 1
1012 1067 1
1067 1012 1
1012 1101 1
1101 1012 1
1012 1156 1
1156 1012 1
1012 1245 1
1245 1012 1
1012 1389 1
1389 1012 1
1013 1021 1
1021 1013 1
1013 1068 1
1068 1013 1
1013 1102 1
1102 1013 1
1013 1157 1
1157 1013 1
1013 1246 1
1246 1013 1
1013 1390 1
1390 1013 1
1014 1015 1
1015 1014 1
1014 1016 1
1016 1014 1
1014 1069 1
1069 1014 1
1014 1103 1
1103 1014 1
1014 1158 1
1158 1014 1
1014 1247 1
1247 1014 1
1014 1391 1
1391 1014 1
1015 1070 1
1070 1015 1
1015 1104 1
1104 1015 1
1015 1159 1
1159 1015 1
1015 1248 1
1248 1015 1
1015 1392 1
1392 1015 1
1016 1071 1
1071 1016 1
1016 1105 1
1105 1016 1
1016 1160 1
1160 1016 1
1016 1249 1
1249 1016 1
1016 1393 1
1393 1016 1
1017 1018 1
1018 1017 1
1017 1019 1
1019 1017 1
1017 1020 1
1020 1017 1
1017 1072 1
1072 1017 1
1017 1106 1
1106 1017 1
1017 1161 1
1161 1017 1
1017 1250 1
1250 1017 1
1017 1394 1
1394 1017 1
1018 1021 1
1021 1018 1
1018 1073 1
1073 1018 1
1018 1107 1
1107 1018 1
1018 1162 1
1162 1018 1
1018 1251 1
1251 1018 1
1018 1395 1
1395 1018 1
1019 1074 1
1074 1019 1
1019 1108 1
1108 1019 1
1019 1163 1
1163 1019 1
1019 1252 1
1252 1019 1
1019 1396 1
1396 1019 1
1020 1021 1
1021 1020 1
1020 1075 1
1075 1020 1
1020 1109 1
1109 1020 1
1020 1164 1
1164 1020 1
1020 1253 1
1253 1020 1
1020 1397 1
1397 1020 1
1021 1076 1
1076 1021 1
1021 1110 1
1110 1021 1
1021 1165 1
1165 1021 1
1021 1254 1
1254 1021 1
1021 1398 1
1398 1021 1
1022 1023 1
1023 1022 1
1022 1024 1
1024 1022 1
1022 1025 1
1025 1022 1
1022 1027 1
1027 1022 1
1022 1030 1
1030 1022 1
1022 1035 1
1035 1022 1
1022 1111 1
1111 1022 1
1022 1166 1
1166 1022 1
1022 1255 1
1255 1022 1
1022 1399 1
1399 1022 1
1023 1026 1
1026 1023 1
1023 1028 1
1028 1023 1
1023 1031 1
1031 1023 1
1023 1036 1
1036 1023 1
1023 1112 1
1112 1023 1
1023 1167 1
1167 1023 1
1023 1256 1
1256 1023 1
1023 1400 1
1400 1023 1
1024 1029 1
1029 1024 1
1024 1032 1
1032 1024 1
1024 1037 1
1037 1024 1
1024 1113 1
1113 1024 1
1024 1168 1
1168 1024 1
1024 1257 1
1257 1024 1
1024 1401 1
1401 1024 1
1025 1026 1
1026 1025 1
1025 1033 1
1033 1025 1
1025 1038 1
1038 1025 1
1025 1114 1
1114 1025 1
1025 1169 1
1169 1025 1
1025 1258 1
1258 1025 1
1025 1402 1
1402 1025 1
1026 1034 1
1034 1026 1
1026 1039 1
1039 1026 1
1026 1115 1
1115 1026 1
1026 1170 1
1170 1026 1
1026 1259 1
1259 1026 1
1026 1403 1
1403 1026 1
1027 1028 1
1028 1027 1
1027 1029 1
1029 1027 1
1027 1040 1
1040 1027 1
1027 1116 1
1116 1027 1
1027 1171 1
1171 1027 1
1027 1260 1
1260 1027 1
1027 1404 1
1404 1027 1
1028 1041 1
1041 1028 1
1028 1117 1
1117 1028 1
1028 1172 1
1172 1028 1
1028 1261 1
1261 1028 1
1028 1405 1
1405 1028 1
1029 1042 1
1042 1029 1
1029 1118 1
1118 1029 1
1029 1173 1
1173 1029 1
1029 1262 1
1262 1029 1
1029 1406 1
1406 1029 1
1030 1031 1
1031 1030 1
1030 1032 1
1032 1030 1
1030 1033 1
1033 1030 1
1030 1119 1
1119 1030 1
1030 1174 1
1174 1030 1
1030 1263 1
1263 1030 1
1030 1407 1
1407 1030 1
1031 1034 1
1034 1031 1
1031 1120 1
1120 1031 1
1031 1175 1
1175 1031 1
1031 1264 1
1264 1031 1
1031 1408 1
1408 1031 1
1032 1121 1
1121 1032 1
1032 1176 1
1176 1032 1
1032 1265 1
1265 1032 1
1032 1409 1
1409 1032 1
1033 1034 1
1034 1033 1
1033 1122 1
1122 1033 1
1033 1177 1
1177 1033 1
1033 1266 1
1266 1033 1
1033 1410 1
1410 1033 1
1034 1123 1
1123 1034 1
1034 1178 1
1178 1034 1
1034 1267 1
1267 1034 1
1034 1411 1
1411 1034 1
1035 1036 1
1036 1035 1
1035 1037 1
1037 1035 1
1035 1038 1
1038 1035 1
1035 1040 1
1040 1035 1
1035 1124 1
1124 1035 1
1035 1179 1
1179 1035 1
1035 1268 1
1268 1035 1
1035 1412 1
1412 1035 1
1036 1039 1
1039 1036 1
1036 1041 1
1041 1036 1
1036 1125 1
1125 1036 1
1036 1180 1
1180 1036 1
1036 1269 1
1269 1036 1
1036 1413 1
1413 1036 1
1037 1042 1
1042 1037 1
1037 1126 1
1126 1037 1
1037 1181 1
1181 1037 1
1037 1270 1
1270 1037 1
1037 1414 1
1414 1037 1
1038 1039 1
1039 1038 1
1038 1127 1
1127 1038 1
1038 1182 1
1182 1038 1
1038 1271 1
1271 1038 1
1038 1415 1
1415 1038 1
1039 1128 1
1128 1039 1
1039 1183 1
1183 1039 1
1039 1272 1
1272 1039 1
1039 1416 1
1416 1039 1
1040 1041 1
1041 1040 1
1040 1042 1
1042 1040 1
1040 1129 1
1129 1040 1
1040 1184 1
1184 1040 1
1040 1273 1
1273 1040 1
1040 1417 1
1417 1040 1
1041 1130 1
1130 1041 1
1041 1185 1
1185 1041 1
1041 1274 1
1274 1041 1
1041 1418 1
1418 1041 1
1042 1131 1
1131 1042 1
1042 1186 1
1186 1042 1
1042 1275 1
1275 1042 1
1042 1419 1
1419 1042 1
1043 1044 1
1044 1043 1
1043 1045 1
1045 1043 1
1043 1046 1
1046 1043 1
1043 1048 1
1048 1043 1
1043 1051 1
1051 1043 1
1043 1056 1
1056 1043 1
1043 1064 1
1064 1043 1
1043 1187 1
1187 1043 1
1043 1276 1
1276 1043 1
1043 1420 1
1420 1043 1
1044 1047 1
1047 1044 1
1044 1049 1
1049 1044 1
1044 1052 1
1052 1044 1
1044 1057 1
1057 1044 1
1044 1065 1
1065 1044 1
1044 1188 1
1188 1044 1
1044 1277 1
1277 1044 1
1044 1421 1
1421 1044 1
1045 1050 1
1050 1045 1
1045 1053 1
1053 1045 1
1045 1058 1
1058 1045 1
1045 1066 1
1066 1045 1
1045 1189 1
1189 1045 1
1045 1278 1
1278 1045 1
1045 1422 1
1422 1045 1
1046 1047 1
1047 1046 1
1046 1054 1
1054 1046 1
1046 1059 1
1059 1046 1
1046 1067 1
1067 1046 1
1046 1190 1
1190 1046 1
1046 1279 1
1279 1046 1
1046 1423 1
1423 1046 1
1047 1055 1
1055 1047 1
1047 1060 1
1060 1047 1
1047 1068 1
1068 1047 1
1047 1191 1
1191 1047 1
1047 1280 1
1280 1047 1
1047 1424 1
1424 1047 1
1048 1049 1
1049 1048 1
1048 1050 1
1050 1048 1
1048 1061 1
1061 1048 1
1048 1069 1
1069 1048 1
1048 1192 1
1192 1048 1
1048 1281 1
1281 1048 1
1048 1425 1
1425 1048 1
1049 1062 1
1062 1049 1
1049 1070 1
1070 1049 1
1049 1193 1
1193 1049 1
1049 1282 1
1282 1049 1
1049 1426 1
1426 1049 1
1050 1063 1
1063 1050 1
1050 1071 1
1071 1050 1
1050 1194 1
1194 1050 1
1050 1283 1
1283 1050 1
1050 1427 1
1427 1050 1
1051 1052 1
1052 1051 1
1051 1053 1
1053 1051 1
1051 1054 1
1054 1051 1
1051 1072 1
1072 1051 1
1051 1195 1
1195 1051 1
1051 1284 1
1284 1051 1
1051 1428 1
1428 1051 1
1052 1055 1
1055 1052 1
1052 1073 1
1073 1052 1
1052 1196 1
1196 1052 1
1052 1285 1
1285 1052 1
1052 1429 1
1429 1052 1
1053 1074 1
1074 1053 1
1053 1197 1
1197 1053 1
1053 1286 1
1286 1053 1
1053 1430 1
1430 1053 1
1054 1055 1
1055 1054 1
1054 1075 1
1075 1054 1
1054 1198 1
1198 1054 1
1054 1287 1
1287 1054 1
1054 1431 1
1431 1054 1
1055 1076 1
1076 1055 1
1055 1199 1
1199 1055 1
1055 1288 1
1288 1055 1
1055 1432 1
1432 1055 1
1056 1057 1
1057 1056 1
1056 1058 1
1058 1056 1
1056 1059 1
1059 1056 1
1056 1061 1
1061 1056 1
1056 1200 1
1200 1056 1
1056 1289 1
1289 1056 1
1056 1433 1
1433 1056 1
1057 1060 1
1060 1057 1
1057 1062 1
1062 1057 1
1057 1201 1
1201 1057 1
1057 1290 1
1290 1057 1
1057 1434 1
1434 1057 1
1058 1063 1
1063 1058 1
1058 1202 1
1202 1058 1
1058 1291 1
1291 1058 1
1058 1435 1
1435 1058 1
1059 1060 1
1060 1059 1
1059 1203 1
1203 1059 1
1059 1292 1
1292 1059 1
1059 1436 1
1436 1059 1
1060 1204 1
1204 1060 1
1060 1293 1
1293 1060 1
1060 1437 1
1437 1060 1
1061 1062 1
1062 1061 1
1061 1063 1
1063 1061 1
1061 1205 1
1205 1061 1
1061 1294 1
1294 1061 1
1061 1438 1
1438 1061 1
1062 1206 1
1206 1062 1
1062 1295 1
1295 1062 1
1062 1439 1
1439 1062 1
1063 1207 1
1207 1063 1
1063 1296 1
1296 1063 1
1063 1440 1
1440 1063 1
1064 1065 1
1065 1064 1
1064 1066 1
1066 1064 1
1064 1067 1
1067 1064 1
1064 1069 1
1069 1064 1
1064 1072 1
1072 1064 1
1064 1208 1
1208 1064 1
1064 1297 1
1297 1064 1
1064 1441 1
1441 1064 1
1065 1068 1
1068 1065 1
1065 1070 1
1070 1065 1
1065 1073 1
1073 1065 1
1065 1209 1
1209 1065 1
1065 1298 1
1298 1065 1
1065 1442 1
1442 1065 1
1066 1071 1
1071 1066 1
1066 1074 1
1074 1066 1
1066 1210 1
1210 1066 1
1066 1299 1
1299 1066 1
1066 1443 1
1443 1066 1
1067 1068 1
1068 1067 1
1067 1075 1
1075 1067 1
1067 1211 1
1211 1067 1
1067 1300 1
1300 1067 1
1067 1444 1
1444 1067 1
1068 1076 1
1076 1068 1
1068 1212 1
1212 1068 1
1068 1301 1
1301 1068 1
1068 1445 1
1445 1068 1
1069 1070 1
1070 1069 1
1069 1071 1
1071 1069 1
1069 1213 1
1213 1069 1
1069 1302 1
1302 1069 1
1069 1446 1
1446 1069 1
1070 1214 1
1214 1070 1
1070 1303 1
1303 1070 1
1070 1447 1
1447 1070 1
1071 1215 1
1215 1071 1
1071 1304 1
1304 1071 1
1071 1448 1
1448 1071 1
1072 1073 1
1073 1072 1
1072 1074 1
1074 1072 1
1072 1075 1
1075 1072 1
1072 1216 1
1216 1072 1
1072 1305 1
1305 1072 1
1072 1449 1
1449 1072 1
1073 1076 1
1076 1073 1
1073 1217 1
1217 1073 1
1073 1306 1
1306 1073 1
1073 1450 1
1450 1073 1
1074 1218 1
1218 1074 1
1074 1307 1
1307 1074 1
1074 1451 1
1451 1074 1
1075 1076 1
1076 1075 1
1075 1219 1
1219 1075 1
1075 1308 1
1308 1075 1
1075 1452 1
1452 1075 1
1076 1220 1
1220 1076 1
1076 1309 1
1309 1076 1
1076 1453 1
1453 1076 1
1077 1078 1
1078 1077 1
1077 1079 1
1079 1077 1
1077 1080 1
1080 1077 1
1077 1082 1
1082 1077 1
1077 1085 1
1085 1077 1
1077 1090 1
1090 1077 1
1077 1098 1
1098 1077 1
1077 1111 1
1111 1077 1
1077 1310 1
1310 1077 1
1077 1454 1
1454 1077 1
1078 1081 1
1081 1078 1
1078 1083 1
1083 1078 1
1078 1086 1
1086 1078 1
1078 1091 1
1091 1078 1
1078 1099 1
1099 1078 1
1078 1112 1
1112 1078 1
1078 1311 1
1311 1078 1
1078 1455 1
1455 1078 1
1079 1084 1
1084 1079 1
1079 1087 1
1087 1079 1
1079 1092 1
1092 1079 1
1079 1100 1
1100 1079 1
1079 1113 1
1113 1079 1
1079 1312 1
1312 1079 1
1079 1456 1
1456 1079 1
1080 1081 1
1081 1080 1
1080 1088 1
1088 1080 1
1080 1093 1
1093 1080 1
1080 1101 1
1101 1080 1
1080 1114 1
1114 1080 1
1080 1313 1
1313 1080 1
1080 1457 1
1457 1080 1
1081 1089 1
1089 1081 1
1081 1094 1
1094 1081 1
1081 1102 1
1102 1081 1
1081 1115 1
1115 1081 1
1081 1314 1
1314 1081 1
1081 1458 1
1458 1081 1
1082 1083 1
1083 1082 1
1082 1084 1
1084 1082 1
1082 1095 1
1095 1082 1
1082 1103 1
1103 1082 1
1082 1116 1
1116 1082 1
1082 1315 1
1315 1082 1
1082 1459 1
1459 1082 1
1083 1096 1
1096 1083 1
1083 1104 1
1104 1083 1
1083 1117 1
1117 1083 1
1083 1316 1
1316 1083 1
1083 1460 1
1460 1083 1
1084 1097 1
1097 1084 1
1084 1105 1
1105 1084 1
1084 1118 1
1118 1084 1
1084 1317 1
1317 1084 1
1084 1461 1
1461 1084 1
1085 1086 1
1086 1085 1
1085 1087 1
1087 1085 1
1085 1088 1
1088 1085 1
1085 1106 1
1106 1085 1
1085 1119 1
1119 1085 1
1085 1318 1
1318 1085 1
1085 1462 1
1462 1085 1
1086 1089 1
1089 1086 1
1086 1107 1
1107 1086 1
1086 1120 1
1120 1086 1
1086 1319 1
1319 1086 1
1086 1463 1
1463 1086 1
1087 1108 1
1108 1087 1
1087 1121 1
1121 1087 1
1087 1320 1
1320 1087 1
1087 1464 1
1464 1087 1
1088 1089 1
1089 1088 1
1088 1109 1
1109 1088 1
1088 1122 1
1122 1088 1
1088 1321 1
1321 1088 1
1088 1465 1
1465 1088 1
1089 1110 1
1110 1089 1
1089 1123 1
1123 1089 1
1089 1322 1
1322 1089 1
1089 1466 1
1466 1089 1
1090 1091 1
1091 1090 1
1090 1092 1
1092 1090 1
1090 1093 1
1093 1090 1
1090 1095 1
1095 1090 1
1090 1124 1
1124 1090 1
1090 1323 1
1323 1090 1
1090 1467 1
1467 1090 1
1091 1094 1
1094 1091 1
1091 1096 1
1096 1091 1
1091 1125 1
1125 1091 1
1091 1324 1
1324 1091 1
1091 1468 1
1468 1091 1
1092 1097 1
1097 1092 1
1092 1126 1
1126 1092 1
1092 1325 1
1325 1092 1
1092 1469 1
1469 1092 1
1093 1094 1
1094 1093 1
1093 1127 1
1127 1093 1
1093 1326 1
1326 1093 1
1093 1470 1
1470 1093 1
1094 1128 1
1128 1094 1
1094 1327 1
1327 1094 1
1094 1471 1
1471 1094 1
1095 1096 1
1096 1095 1
1095 1097 1
1097 1095 1
1095 1129 1
1129 1095 1
1095 1328 1
1328 1095 1
1095 1472 1
1472 1095 1
1096 1130 1
1130 1096 1
1096 1329 1
1329 1096 1
1096 1473 1
1473 1096 1
1097 1131 1
1131 1097 1
1097 1330 1
1330 1097 1
1097 1474 1
1474 1097 1
1098 1099 1
1099 1098 1
1098 1100 1
1100 1098 1
1098 1101 1
1101 1098 1
1098 1103 1
1103 1098 1
1098 1106 1
1106 1098 1
1098 1331 1
1331 1098 1
1098 1475 1
1475 1098 1
1099 1102 1
1102 1099 1
1099 1104 1
1104 1099 1
1099 1107 1
1107 1099 1
1099 1332 1
1332 1099 1
1099 1476 1
1476 1099 1
1100 1105 1
1105 1100 1
1100 1108 1
1108 1100 1
1100 1333 1
1333 1100 1
1100 1477 1
1477 1100 1
1101 1102 1
1102 1101 1
1101 1109 1
1109 1101 1
1101 1334 1
1334 1101 1
1101 1478 1
1478 1101 1
1102 1110 1
1110 1102 1
1102 1335 1
1335 1102 1
1102 1479 1
1479 1102 1
1103 1104 1
1104 1103 1
1103 1105 1
1105 1103 1
1103 1336 1
1336 1103 1
1103 1480 1
1480 1103 1
1104 1337 1
1337 1104 1
1104 1481 1
1481 1104 1
1105 1338 1
1338 1105 1
1105 1482 1
1482 1105 1
1106 1107 1
1107 1106 1
1106 1108 1
1108 1106 1
1106 1109 1
1109 1106 1
1106 1339 1
1339 1106 1
1106 1483 1
1483 1106 1
1107 1110 1
1110 1107 1
1107 1340 1
1340 1107 1
1107 1484 1
1484 1107 1
1108 1341 1
1341 1108 1
1108 1485 1
1485 1108 1
1109 1110 1
1110 1109 1
1109 1342 1
1342 1109 1
1109 1486 1
1486 1109 1
1110 1343 1
1343 1110 1
1110 1487 1
1487 1110 1
1111 1112 1
1112 1111 1
1111 1113 1
1113 1111 1
1111 1114 1
1114 1111 1
1111 1116 1
1116 1111 1
1111 1119 1
1119 1111 1
1111 1124 1
1124 1111 1
1111 1344 1
1344 1111 1
1111 1488 1
1488 1111 1
1112 1115 1
1115 1112 1
1112 1117 1
1117 1112 1
1112 1120 1
1120 1112 1
1112 1125 1
1125 1112 1
1112 1345 1
1345 1112 1
1112 1489 1
1489 1112 1
1113 1118 1
1118 1113 1
1113 1121 1
1121 1113 1
1113 1126 1
1126 1113 1
1113 1346 1
1346 1113 1
1113 1490 1
1490 1113 1
1114 1115 1
1115 1114 1
1114 1122 1
1122 1114 1
1114 1127 1
1127 1114 1
1114 1347 1
1347 1114 1
1114 1491 1
1491 1114 1
1115 1123 1
1123 1115 1
1115 1128 1
1128 1115 1
1115 1348 1
1348 1115 1
1115 1492 1
1492 1115 1
1116 1117 1
1117 1116 1
1116 1118 1
1118 1116 1
1116 1129 1
1129 1116 1
1116 1349 1
1349 1116 1
1116 1493 1
1493 1116 1
1117 1130 1
1130 1117 1
1117 1350 1
1350 1117 1
1117 1494 1
1494 1117 1
1118 1131 1
1131 1118 1
1118 1351 1
1351 1118 1
1118 1495 1
1495 1118 1
1119 1120 1
1120 1119 1
1119 1121 1
1121 1119 1
1119 1122 1
1122 1119 1
1119 1352 1
1352 1119 1
1119 1496 1
1496 1119 1
1120 1123 1
1123 1120 1
1120 1353 1
1353 1120 1
1120 1497 1
1497 1120 1
1121 1354 1
1354 1121 1
1121 1498 1
1498 1121 1
1122 1123 1
1123 1122 1
1122 1355 1
1355 1122 1
1122 1499 1
1499 1122 1
1123 1356 1
1356 1123 1
1123 1500 1
1500 1123 1
1124 1125 1
1125 1124 1
1124 1126 1
1126 1124 1
1124 1127 1
1127 1124 1
1124 1129 1
1129 1124 1
1124 1357 1
1357 1124 1
1124 1501 1
1501 1124 1
1125 1128 1
1128 1125 1
1125 1130 1
1130 1125 1
1125 1358 1
1358 1125 1
1125 1502 1
1502 1125 1
1126 1131 1
1131 1126 1
1126 1359 1
1359 1126 1
1126 1503 1
1503 1126 1
1127 1128 1
1128 1127 1
1127 1360 1
1360 1127 1
1127 1504 1
1504 1127 1
1128 1361 1
1361 1128 1
1128 1505 1
1505 1128 1
1129 1130 1
1130 1129 1
1129 1131 1
1131 1129 1
1129 1362 1
1362 1129 1
1129 1506 1
1506 1129 1
1130 1363 1
1363 1130 1
1130 1507 1
1507 1130 1
1131 1364 1
1364 1131 1
1131 1508 1
1508 1131 1
1132 1133 1
1133 1132 1
1132 1134 1
1134 1132 1
1132 1135 1
1135 1132 1
1132 1137 1
1137 1132 1
1132 1140 1
1140 1132 1
1132 1145 1
1145 1132 1
1132 1153 1
1153 1132 1
1132 1166 1
1166 1132 1
1132 1187 1
1187 1132 1
1132 1509 1
1509 1132 1
1133 1136 1
1136 1133 1
1133 1138 1
1138 1133 1
1133 1141 1
1141 1133 1
1133 1146 1
1146 1133 1
1133 1154 1
1154 1133 1
1133 1167 1
1167 1133 1
1133 1188 1
1188 1133 1
1133 1510 1
1510 1133 1
1134 1139 1
1139 1134 1
1134 1142 1
1142 1134 1
1134 1147 1
1147 1134 1
1134 1155 1
1155 1134 1
1134 1168 1
1168 1134 1
1134 1189 1
1189 1134 1
1134 1511 1
1511 1134 1
1135 1136 1
1136 1135 1
1135 1143 1
1143 1135 1
1135 1148 1
1148 1135 1
1135 1156 1
1156 1135 1
1135 1169 1
1169 1135 1
1135 1190 1
1190 1135 1
1135 1512 1
1512 1135 1
1136 1144 1
1144 1136 1
1136 1149 1
1149 1136 1
1136 1157 1
1157 1136 1
1136 1170 1
1170 1136 1
1136 1191 1
1191 1136 1
1136 1513 1
1513 1136 1
1137 1138 1
1138 1137 1
1137 1139 1
1139 1137 1
1137 1150 1
1150 1137 1
1137 1158 1
1158 1137 1
1137 1171 1
1171 1137 1
1137 1192 1
1192 1137 1
1137 1514 1
1514 1137 1
1138 1151 1
1151 1138 1
1138 1159 1
1159 1138 1
1138 1172 1
1172 1138 1
1138 1193 1
1193 1138 1
1138 1515 1
1515 1138 1
1139 1152 1
1152 1139 1
1139 1160 1
1160 1139 1
1139 1173 1
1173 1139 1
1139 1194 1
1194 1139 1
1139 1516 1
1516 1139 1
1140 1141 1
1141 1140 1
1140 1142 1
1142 1140 1
1140 1143 1
1143 1140 1
1140 1161 1
1161 1140 1
1140 1174 1
1174 1140 1
1140 1195 1
1195 1140 1
1140 1517 1
1517 1140 1
1141 1144 1
1144 1141 1
1141 1162 1
1162 1141 1
1141 1175 1
1175 1141 1
1141 1196 1
1196 1141 1
1141 1518 1
1518 1141 1
1142 1163 1
1163 1142 1
1142 1176 1
1176 1142 1
1142 1197 1
1197 1142 1
1142 1519 1
1519 1142 1
1143 1144 1
1144 1143 1
1143 1164 1
1164 1143 1
1143 1177 1
1177 1143 1
1143 1198 1
1198 1143 1
1143 1520 1
1520 1143 1
1144 1165 1
1165 1144 1
1144 1178 1
1178 1144 1
1144 1199 1
1199 1144 1
1144 1521 1
1521 1144 1
1145 1146 1
1146 1145 1
1145 1147 1
1147 1145 1
1145 1148 1
1148 1145 1
1145 1150 1
1150 1145 1
1145 1179 1
1179 1145 1
1145 1200 1
1200 1145 1
1145 1522 1
1522 1145 1
1146 1149 1
1149 1146 1
1146 1151 1
1151 1146 1
1146 1180 1
1180 1146 1
1146 1201 1
1201 1146 1
1146 1523 1
1523 1146 1
1147 1152 1
1152 1147 1
1147 1181 1
1181 1147 1
1147 1202 1
1202 1147 1
1147 1524 1
1524 1147 1
1148 1149 1
1149 1148 1
1148 1182 1
1182 1148 1
1148 1203 1
1203 1148 1
1148 1525 1
1525 1148 1
1149 1183 1
1183 1149 1
1149 1204 1
1204 1149 1
1149 1526 1
1526 1149 1
1150 1151 1
1151 1150 1
1150 1152 1
1152 1150 1
1150 1184 1
1184 1150 1
1150 1205 1
1205 1150 1
1150 1527 1
1527 1150 1
1151 1185 1
1185 1151 1
1151 1206 1
1206 1151 1
1151 1528 1
1528 1151 1
1152 1186 1
1186 1152 1
1152 1207 1
1207 1152 1
1152 1529 1
1529 1152 1
1153 1154 1
1154 1153 1
1153 1155 1
1155 1153 1
1153 1156 1
1156 1153 1
1153 1158 1
1158 1153 1
1153 1161 1
1161 1153 1
1153 1208 1
1208 1153 1
1153 1530 1
1530 1153 1
1154 1157 1
1157 1154 1
1154 1159 1
1159 1154 1
1154 1162 1
1162 1154 1
1154 1209 1
1209 1154 1
1154 1531 1
1531 1154 1
1155 1160 1
1160 1155 1
1155 1163 1
1163 1155 1
1155 1210 1
1210 1155 1
1155 1532 1
1532 1155 1
1156 1157 1
1157 1156 1
1156 1164 1
1164 1156 1
1156 1211 1
1211 1156 1
1156 1533 1
1533 1156 1
1157 1165 1
1165 1157 1
1157 1212 1
1212 1157 1
1157 1534 1
1534 1157 1
1158 1159 1
1159 1158 1
1158 1160 1
1160 1158 1
1158 1213 1
1213 1158 1
1158 1535 1
1535 1158 1
1159 1214 1
1214 1159 1
1159 1536 1
1536 1159 1
1160 1215 1
1215 1160 1
1160 1537 1
1537 1160 1
1161 1162 1
1162 1161 1
1161 1163 1
1163 1161 1
1161 1164 1
1164 1161 1
1161 1216 1
1216 1161 1
1161 1538 1
1538 1161 1
1162 1165 1
1165 1162 1
1162 1217 1
1217 1162 1
1162 1539 1
1539 1162 1
1163 1218 1
1218 1163 1
1163 1540 1
1540 1163 1
1164 1165 1
1165 1164 1
1164 1219 1
1219 1164 1
1164 1541 1
1541 1164 1
1165 1220 1
1220 1165 1
1165 1542 1
1542 1165 1
1166 1167 1
1167 1166 1
1166 1168 1
1168 1166 1
1166 1169 1
1169 1166 1
1166 1171 1
1171 1166 1
1166 1174 1
1174 1166 1
1166 1179 1
1179 1166 1
1166 1543 1
1543 1166 1
1167 1170 1
1170 1167 1
1167 1172 1
1172 1167 1
1167 1175 1
1175 1167 1
1167 1180 1
1180 1167 1
1167 1544 1
1544 1167 1
1168 1173 1
1173 1168 1
1168 1176 1
1176 1168 1
1168 1181 1
1181 1168 1
1168 1545 1
1545 1168 1
1169 1170 1
1170 1169 1
1169 1177 1
1177 1169 1
1169 1182 1
1182 1169 1
1169 1546 1
1546 1169 1
1170 1178 1
1178 1170 1
1170 1183 1
1183 1170 1
1170 1547 1
1547 1170 1
1171 1172 1
1172 1171 1
1171 1173 1
1173 1171 1
1171 1184 1
1184 1171 1
1171 1548 1
1548 1171 1
1172 1185 1
1185 1172 1
1172 1549 1
1549 1172 1
1173 1186 1
1186 1173 1
1173 1550 1
1550 1173 1
1174 1175 1
1175 1174 1
1174 1176 1
1176 1174 1
1174 1177 1
1177 1174 1
1174 1551 1
1551 1174 1
1175 1178 1
1178 1175 1
1175 1552 1
1552 1175 1
1176 1553 1
1553 1176 1
1177 1178 1
1178 1177 1
1177 1554 1
1554 1177 1
1178 1555 1
1555 1178 1
1179 1180 1
1180 1179 1
1179 1181 1
1181 1179 1
1179 1182 1
1182 1179 1
1179 1184 1
1184 1179 1
1179 1556 1
1556 1179 1
1180 1183 1
1183 1180 1
1180 1185 1
1185 1180 1
1180 1557 1
1557 1180 1
1181 1186 1
1186 1181 1
1181 1558 1
1558 1181 1
1182 1183 1
1183 1182 1
1182 1559 1
1559 1182 1
1183 1560 1
1560 1183 1
1184 1185 1
1185 1184 1
1184 1186 1
1186 1184 1
1184 1561 1
1561 1184 1
1185 1562 1
1562 1185 1
1186 1563 1
1563 1186 1
1187 1188 1
1188 1187 1
1187 1189 1
1189 1187 1
1187 1190 1
1190 1187 1
1187 1192 1
1192 1187 1
1187 1195 1
1195 1187 1
1187 1200 1
1200 1187 1
1187 1208 1
1208 1187 1
1187 1564 1
1564 1187 1
1188 1191 1
1191 1188 1
1188 1193 1
1193 1188 1
1188 1196 1
1196 1188 1
1188 1201 1
1201 1188 1
1188 1209 1
1209 1188 1
1188 1565 1
1565 1188 1
1189 1194 1
1194 1189 1
1189 1197 1
1197 1189 1
1189 1202 1
1202 1189 1
1189 1210 1
1210 1189 1
1189 1566 1
1566 1189 1
1190 1191 1
1191 1190 1
1190 1198 1
1198 1190 1
1190 1203 1
1203 1190 1
1190 1211 1
1211 1190 1
1190 1567 1
1567 1190 1
1191 1199 1
1199 1191 1
1191 1204 1
1204 1191 1
1191 1212 1
1212 1191 1
1191 1568 1
1568 1191 1
1192 1193 1
1193 1192 1
1192 1194 1
1194 1192 1
1192 1205 1
1205 1192 1
1192 1213 1
1213 1192 1
1192 1569 1
1569 1192 1
1193 1206 1
1206 1193 1
1193 1214 1
1214 1193 1
1193 1570 1
1570 1193 1
1194 1207 1
1207 1194 1
1194 1215 1
1215 1194 1
1194 1571 1
1571 1194 1
1195 1196 1
1196 1195 1
1195 1197 1
1197 1195 1
1195 1198 1
1198 1195 1
1195 1216 1
1216 1195 1
1195 1572 1
1572 1195 1
1196 1199 1
1199 1196 1
1196 1217 1
1217 1196 1
1196 1573 1
1573 1196 1
1197 1218 1
1218 1197 1
1197 1574 1
1574 1197 1
1198 1199 1
1199 1198 1
1198 1219 1
1219 1198 1
1198 1575 1
1575 1198 1
1199 1220 1
1220 1199 1
1199 1576 1
1576 1199 1
1200 1201 1
1201 1200 1
1200 1202 1
1202 1200 1
1200 1203 1
1203 1200 1
1200 1205 1
1205 1200 1
1200 1577 1
1577 1200 1
1201 1204 1
1204 1201 1
1201 1206 1
1206 1201 1
1201 1578 1
1578 1201 1
1202 1207 1
1207 1202 1
1202 1579 1
1579 1202 1
1203 1204 1
1204 1203 1
1203 1580 1
1580 1203 1
1204 1581 1
1581 1204 1
1205 1206 1
1206 1205 1
1205 1207 1
1207 1205 1
1205 1582 1
1582 1205 1
1206 1583 1
1583 1206 1
1207 1584 1
1584 1207 1
1208 1209 1
1209 1208 1
1208 1210 1
1210 1208 1
1208 1211 1
1211 1208 1
1208 1213 1
1213 1208 1
1208 1216 1
1216 1208 1
1208 1585 1
1585 1208 1
1209 1212 1
1212 1209 1
1209 1214 1
1214 1209 1
1209 1217 1
1217 1209 1
1209 1586 1
1586 1209 1
1210 1215 1
1215 1210 1
1210 1218 1
1218 1210 1
1210 1587 1
1587 1210 1
1211 1212 1
1212 1211 1
1211 1219 1
1219 1211 1
1211 1588 1
1588 1211 1
1212 1220 1
1220 1212 1
1212 1589 1
1589 1212 1
1213 1214 1
1214 1213 1
1213 1215 1
1215 1213 1
1213 1590 1
1590 1213 1
1214 1591 1
1591 1214 1
1215 1592 1
1592 1215 1
1216 1217 1
1217 1216 1
1216 1218 1
1218 1216 1
1216 1219 1
1219 1216 1
1216 1593 1
1593 1216 1
1217 1220 1
1220 1217 1
1217 1594 1
1594 1217 1
1218 1595 1
1595 1218 1
1219 1220 1
1220 1219 1
1219 1596 1
1596 1219 1
1220 1597 1
1597 1220 1
1221 1222 1
1222 1221 1
1221 1223 1
1223 1221 1
1221 1224 1
1224 1221 1
1221 1226 1
1226 1221 1
1221 1229 1
1229 1221 1
1221 1234 1
1234 1221 1
1221 1242 1
1242 1221 1
1221 1255 1
1255 1221 1
1221 1276 1
1276 1221 1
1221 1310 1
1310 1221 1
1222 1225 1
1225 1222 1
1222 1227 1
1227 1222 1
1222 1230 1
1230 1222 1
1222 1235 1
1235 1222 1
1222 1243 1
1243 1222 1
1222 1256 1
1256 1222 1
1222 1277 1
1277 1222 1
1222 1311 1
1311 1222 1
1223 1228 1
1228 1223 1
1223 1231 1
1231 1223 1
1223 1236 1
1236 1223 1
1223 1244 1
1244 1223 1
1223 1257 1
1257 1223 1
1223 1278 1
1278 1223 1
1223 1312 1
1312 1223 1
1224 1225 1
1225 1224 1
1224 1232 1
1232 1224 1
1224 1237 1
1237 1224 1
1224 1245 1
1245 1224 1
1224 1258 1
1258 1224 1
1224 1279 1
1279 1224 1
1224 1313 1
1313 1224 1
1225 1233 1
1233 1225 1
1225 1238 1
1238 1225 1
1225 1246 1
1246 1225 1
1225 1259 1
1259 1225 1
1225 1280 1
1280 1225 1
1225 1314 1
1314 1225 1
1226 1227 1
1227 1226 1
1226 1228 1
1228 1226 1
1226 1239 1
1239 1226 1
1226 1247 1
1247 1226 1
1226 1260 1
1260 1226 1
1226 1281 1
1281 1226 1
1226 1315 1
1315 1226 1
1227 1240 1
1240 1227 1
1227 1248 1
1248 1227 1
1227 1261 1
1261 1227 1
1227 1282 1
1282 1227 1
1227 1316 1
1316 1227 1
1228 1241 1
1241 1228 1
1228 1249 1
1249 1228 1
1228 1262 1
1262 1228 1
1228 1283 1
1283 1228 1
1228 1317 1
1317 1228 1
1229 1230 1
1230 1229 1
1229 1231 1
1231 1229 1
1229 1232 1
1232 1229 1
1229 1250 1
1250 1229 1
1229 1263 1
1263 1229 1
1229 1284 1
1284 1229 1
1229 1318 1
1318 1229 1
1230 1233 1
1233 1230 1
1230 1251 1
1251 1230 1
1230 1264 1
1264 1230 1
1230 1285 1
1285 1230 1
1230 1319 1
1319 1230 1
1231 1252 1
1252 1231 1
1231 1265 1
1265 1231 1
1231 1286 1
1286 1231 1
1231 1320 1
1320 1231 1
1232 1233 1
1233 1232 1
1232 1253 1
1253 1232 1
1232 1266 1
1266 1232 1
1232 1287 1
1287 1232 1
1232 1321 1
1321 1232 1
1233 1254 1
1254 1233 1
1233 1267 1
1267 1233 1
1233 1288 1
1288 1233 1
1233 1322 1
1322 1233 1
1234 1235 1
1235 1234 1
1234 1236 1
1236 1234 1
1234 1237 1
1237 1234 1
1234 1239 1
1239 1234 1
1234 1268 1
1268 1234 1
1234 1289 1
1289 1234 1
1234 1323 1
1323 1234 1
1235 1238 1
1238 1235 1
1235 1240 1
1240 1235 1
1235 1269 1
1269 1235 1
1235 1290 1
1290 1235 1
1235 1324 1
1324 1235 1
1236 1241 1
1241 1236 1
1236 1270 1
1270 1236 1
1236 1291 1
1291 1236 1
1236 1325 1
1325 1236 1
1237 1238 1
1238 1237 1
1237 1271 1
1271 1237 1
1237 1292 1
1292 1237 1
1237 1326 1
1326 1237 1
1238 1272 1
1272 1238 1
1238 1293 1
1293 1238 1
1238 1327 1
1327 1238 1
1239 1240 1
1240 1239 1
1239 1241 1
1241 1239 1
1239 1273 1
1273 1239 1
1239 1294 1
1294 1239 1
1239 1328 1
1328 1239 1
1240 1274 1
1274 1240 1
1240 1295 1
1295 1240 1
1240 1329 1
1329 1240 1
1241 1275 1
1275 1241 1
1241 1296 1
1296 1241 1
1241 1330 1
1330 1241 1
1242 1243 1
1243 1242 1
1242 1244 1
1244 1242 1
1242 1245 1
1245 1242 1
1242 1247 1
1247 1242 1
1242 1250 1
1250 1242 1
1242 1297 1
1297 1242 1
1242 1331 1
1331 1242 1
1243 1246 1
1246 1243 1
1243 1248 1
1248 1243 1
1243 1251 1
1251 1243 1
1243 1298 1
1298 1243 1
1243 1332 1
1332 1243 1
1244 1249 1
1249 1244 1
1244 1252 1
1252 1244 1
1244 1299 1
1299 1244 1
1244 1333 1
1333 1244 1
1245 1246 1
1246 1245 1
1245 1253 1
1253 1245 1
1245 1300 1
1300 1245 1
1245 1334 1
1334 1245 1
1246 1254 1
1254 1246 1
1246 1301 1
1301 1246 1
1246 1335 1
1335 1246 1
1247 1248 1
1248 1247 1
1247 1249 1
1249 1247 1
1247 1302 1
1302 1247 1
1247 1336 1
1336 1247 1
1248 1303 1
1303 1248 1
1248 1337 1
1337 1248 1
1249 1304 1
1304 1249 1
1249 1338 1
1338 1249 1
1250 1251 1
1251 1250 1
1250 1252 1
1252 1250 1
1250 1253 1
1253 1250 1
1250 1305 1
1305 1250 1
1250 1339 1
1339 1250 1
1251 1254 1
1254 1251 1
1251 1306 1
1306 1251 1
1251 1340 1
1340 1251 1
1252 1307 1
1307 1252 1
1252 1341 1
1341 1252 1
1253 1254 1
1254 1253 1
1253 1308 1
1308 1253 1
1253 1342 1
1342 1253 1
1254 1309 1
1309 1254 1
1254 1343 1
1343 1254 1
1255 1256 1
1256 1255 1
1255 1257 1
1257 1255 1
1255 1258 1
1258 1255 1
1255 1260 1
1260 1255 1
1255 1263 1
1263 1255 1
1255 1268 1
1268 1255 1
1255 1344 1
1344 1255 1
1256 1259 1
1259 1256 1
1256 1261 1
1261 1256 1
1256 1264 1
1264 1256 1
1256 1269 1
1269 1256 1
1256 1345 1
1345 1256 1
1257 1262 1
1262 1257 1
1257 1265 1
1265 1257 1
1257 1270 1
1270 1257 1
1257 1346 1
1346 1257 1
1258 1259 1
1259 1258 1
1258 1266 1
1266 1258 1
1258 1271 1
1271 1258 1
1258 1347 1
1347 1258 1
1259 1267 1
1267 1259 1
1259 1272 1
1272 1259 1
1259 1348 1
1348 1259 1
1260 1261 1
1261 1260 1
1260 1262 1
1262 1260 1
1260 1273 1
1273 1260 1
1260 1349 1
1349 1260 1
1261 1274 1
1274 1261 1
1261 1350 1
1350 1261 1
1262 1275 1
1275 1262 1
1262 1351 1
1351 1262 1
1263 1264 1
1264 1263 1
1263 1265 1
1265 1263 1
1263 1266 1
1266 1263 1
1263 1352 1
1352 1263 1
1264 1267 1
1267 1264 1
1264 1353 1
1353 1264 1
1265 1354 1
1354 1265 1
1266 1267 1
1267 1266 1
1266 1355 1
1355 1266 1
1267 1356 1
1356 1267 1
1268 1269 1
1269 1268 1
1268 1270 1
1270 1268 1
1268 1271 1
1271 1268 1
1268 1273 1
1273 1268 1
1268 1357 1
1357 1268 1
1269 1272 1
1272 1269 1
1269 1274 1
1274 1269 1
1269 1358 1
1358 1269 1
1270 1275 1
1275 1270 1
1270 1359 1
1359 1270 1
1271 1272 1
1272 1271 1
1271 1360 1
1360 1271 1
1272 1361 1
1361 1272 1
1273 1274 1
1274 1273 1
1273 1275 1
1275 1273 1
1273 1362 1
1362 1273 1
1274 1363 1
1363 1274 1
1275 1364 1
1364 1275 1
1276 1277 1
1277 1276 1
1276 1278 1
1278 1276 1
1276 1279 1
1279 1276 1
1276 1281 1
1281 1276 1
1276 1284 1
1284 1276 1
1276 1289 1
1289 1276 1
1276 1297 1
1297 1276 1
1277 1280 1
1280 1277 1
1277 1282 1
1282 1277 1
1277 1285 1
1285 1277 1
1277 1290 1
1290 1277 1
1277 1298 1
1298 1277 1
1278 1283 1
1283 1278 1
1278 1286 1
1286 1278 1
1278 1291 1
1291 1278 1
1278 1299 1
1299 1278 1
1279 1280 1
1280 1279 1
1279 1287 1
1287 1279 1
1279 1292 1
1292 1279 1
1279 1300 1
1300 1279 1
1280 1288 1
1288 1280 1
1280 1293 1
1293 1280 1
1280 1301 1
1301 1280 1
1281 1282 1
1282 1281 1
1281 1283 1
1283 1281 1
1281 1294 1
1294 1281 1
1281 1302 1
1302 1281 1
1282 1295 1
1295 1282 1
1282 1303 1
1303 1282 1
1283 1296 1
1296 1283 1
1283 1304 1
1304 1283 1
1284 1285 1
1285 1284 1
1284 1286 1
1286 1284 1
1284 1287 1
1287 1284 1
1284 1305 1
1305 1284 1
1285 1288 1
1288 1285 1
1285 1306 1
1306 1285 1
1286 1307 1
1307 1286 1
1287 1288 1
1288 1287 1
1287 1308 1
1308 1287 1
1288 1309 1
1309 1288 1
1289 1290 1
1290 1289 1
1289 1291 1
1291 1289 1
1289 1292 1
1292 1289 1
1289 1294 1
1294 1289 1
1290 1293 1
1293 1290 1
1290 1295 1
1295 1290 1
1291 1296 1
1296 1291 1
1292 1293 1
1293 1292 1
1294 1295 1
1295 1294 1
1294 1296 1
1296 1294 1
1297 1298 1
1298 1297 1
1297 1299 1
1299 1297 1
1297 1300 1
1300 1297 1
1297 1302 1
1302 1297 1
1297 1305 1
1305 1297 1
1298 1301 1
1301 1298 1
1298 1303 1
1303 1298 1
1298 1306 1
1306 1298 1
1299 1304 1
1304 1299 1
1299 1307 1
1307 1299 1
1300 1301 1
1301 1300 1
1300 1308 1
1308 1300 1
1301 1309 1
1309 1301 1
1302 1303 1
1303 1302 1
1302 1304 1
1304 1302 1
1305 1306 1
1306 1305 1
1305 1307 1
1307 1305 1
1305 1308 1
1308 1305 1
1306 1309 1
1309 1306 1
1308 1309 1
1309 1308 1
1310 1311 1
1311 1310 1
1310 1312 1
1312 1310 1
1310 1313 1
1313 1310 1
1310 1315 1
1315 1310 1
1310 1318 1
1318 1310 1
1310 1323 1
1323 1310 1
1310 1331 1
1331 1310 1
1310 1344 1
1344 1310 1
1311 1314 1
1314 1311 1
1311 1316 1
1316 1311 1
1311 1319 1
1319 1311 1
1311 1324 1
1324 1311 1
1311 1332 1
1332 1311 1
1311 1345 1
1345 1311 1
1312 1317 1
1317 1312 1
1312 1320 1
1320 1312 1
1312 1325 1
1325 1312 1
1312 1333 1
1333 1312 1
1312 1346 1
1346 1312 1
1313 1314 1
1314 1313 1
1313 1321 1
1321 1313 1
1313 1326 1
1326 1313 1
1313 1334 1
1334 1313 1
1313 1347 1
1347 1313 1
1314 1322 1
1322 1314 1
1314 1327 1
1327 1314 1
1314 1335 1
1335 1314 1
1314 1348 1
1348 1314 1
1315 1316 1
1316 1315 1
1315 1317 1
1317 1315 1
1315 1328 1
1328 1315 1
1315 1336 1
1336 1315 1
1315 1349 1
1349 1315 1
1316 1329 1
1329 1316 1
1316 1337 1
1337 1316 1
1316 1350 1
1350 1316 1
1317 1330 1
1330 1317 1
1317 1338 1
1338 1317 1
1317 1351 1
1351 1317 1
1318 1319 1
1319 1318 1
1318 1320 1
1320 1318 1
1318 1321 1
1321 1318 1
1318 1339 1
1339 1318 1
1318 1352 1
1352 1318 1
1319 1322 1
1322 1319 1
1319 1340 1
1340 1319 1
1319 1353 1
1353 1319 1
1320 1341 1
1341 1320 1
1320 1354 1
1354 1320 1
1321 1322 1
1322 1321 1
1321 1342 1
1342 1321 1
1321 1355 1
1355 1321 1
1322 1343 1
1343 1322 1
1322 1356 1
1356 1322 1
1323 1324 1
1324 1323 1
1323 1325 1
1325 1323 1
1323 1326 1
1326 1323 1
1323 1328 1
1328 1323 1
1323 1357 1
1357 1323 1
1324 1327 1
1327 1324 1
1324 1329 1
1329 1324 1
1324 1358 1
1358 1324 1
1325 1330 1
1330 1325 1
1325 1359 1
1359 1325 1
1326 1327 1
1327 1326 1
1326 1360 1
1360 1326 1
1327 1361 1
1361 1327 1
1328 1329 1
1329 1328 1
1328 1330 1
1330 1328 1
1328 1362 1
1362 1328 1
1329 1363 1
1363 1329 1
1330 1364 1
1364 1330 1
1331 1332 1
1332 1331 1
1331 1333 1
1333 1331 1
1331 1334 1
1334 1331 1
1331 1336 1
1336 1331 1
1331 1339 1
1339 1331 1
1332 1335 1
1335 1332 1
1332 1337 1
1337 1332 1
1332 1340 1
1340 1332 1
1333 1338 1
1338 1333 1
1333 1341 1
1341 1333 1
1334 1335 1
1335 1334 1
1334 1342 1
1342 1334 1
1335 1343 1
1343 1335 1
1336 1337 1
1337 1336 1
1336 1338 1
1338 1336 1
1339 1340 1
1340 1339 1
1339 1341 1
1341 1339 1
1339 1342 1
1342 1339 1
1340 1343 1
1343 1340 1
1342 1343 1
1343 1342 1
1344 1345 1
1345 1344 1
1344 1346 1
1346 1344 1
1344 1347 1
1347 1344 1
1344 1349 1
1349 1344 1
1344 1352 1
1352 1344 1
1344 1357 1
1357 1344 1
1345 1348 1
1348 1345 1
1345 1350 1
1350 1345 1
1345 1353 1
1353 1345 1
1345 1358 1
1358 1345 1
1346 1351 1
1351 1346 1
1346 1354 1
1354 1346 1
1346 1359 1
1359 1346 1
1347 1348 1
1348 1347 1
1347 1355 1
1355 1347 1
1347 1360 1
1360 1347 1
1348 1356 1
1356 1348 1
1348 1361 1
1361 1348 1
1349 1350 1
1350 1349 1
1349 1351 1
1351 1349 1
1349 1362 1
1362 1349 1
1350 1363 1
1363 1350 1
1351 1364 1
1364 1351 1
1352 1353 1
1353 1352 1
1352 1354 1
1354 1352 1
1352 1355 1
1355 1352 1
1353 1356 1
1356 1353 1
1355 1356 1
1356 1355 1
1357 1358 1
1358 1357 1
1357 1359 1
1359 1357 1
1357 1360 1
1360 1357 1
1357 1362 1
1362 1357 1
1358 1361 1
1361 1358 1
1358 1363 1
1363 1358 1
1359 1364 1
1364 1359 1
1360 1361 1
1361 1360 1
1362 1363 1
1363 1362 1
1362 1364 1
1364 1362 1
1365 1366 1
1366 1365 1
1365 1367 1
1367 1365 1
1365 1368 1
1368 1365 1
1365 1370 1
1370 1365 1
1365 1373 1
1373 1365 1
1365 1378 1
1378 1365 1
1365 1386 1
1386 1365 1
1365 1399 1
1399 1365 1
1365 1420 1
1420 1365 1
1365 1454 1
1454 1365 1
1365 1509 1
1509 1365 1
1366 1369 1
1369 1366 1
1366 1371 1
1371 1366 1
1366 1374 1
1374 1366 1
1366 1379 1
1379 1366 1
1366 1387 1
1387 1366 1
1366 1400 1
1400 1366 1
1366 1421 1
1421 1366 1
1366 1455 1
1455 1366 1
1366 1510 1
1510 1366 1
1367 1372 1
1372 1367 1
1367 1375 1
1375 1367 1
1367 1380 1
1380 1367 1
1367 1388 1
1388 1367 1
1367 1401 1
1401 1367 1
1367 1422 1
1422 1367 1
1367 1456 1
1456 1367 1
1367 1511 1
1511 1367 1
1368 1369 1
1369 1368 1
1368 1376 1
1376 1368 1
1368 1381 1
1381 1368 1
1368 1389 1
1389 1368 1
1368 1402 1
1402 1368 1
1368 1423 1
1423 1368 1
1368 1457 1
1457 1368 1
1368 1512 1
1512 1368 1
1369 1377 1
1377 1369 1
1369 1382 1
1382 1369 1
1369 1390 1
1390 1369 1
1369 1403 1
1403 1369 1
1369 1424 1
1424 1369 1
1369 1458 1
1458 1369 1
1369 1513 1
1513 1369 1
1370 1371 1
1371 1370 1
1370 1372 1
1372 1370 1
1370 1383 1
1383 1370 1
1370 1391 1
1391 1370 1
1370 1404 1
1404 1370 1
1370 1425 1
1425 1370 1
1370 1459 1
1459 1370 1
1370 1514 1
1514 1370 1
1371 1384 1
1384 1371 1
1371 1392 1
1392 1371 1
1371 1405 1
1405 1371 1
1371 1426 1
1426 1371 1
1371 1460 1
1460 1371 1
1371 1515 1
1515 1371 1
1372 1385 1
1385 1372 1
1372 1393 1
1393 1372 1
1372 1406 1
1406 1372 1
1372 1427 1
1427 1372 1
1372 1461 1
1461 1372 1
1372 1516 1
1516 1372 1
1373 1374 1
1374 1373 1
1373 1375 1
1375 1373 1
1373 1376 1
1376 1373 1
1373 1394 1
1394 1373 1
1373 1407 1
1407 1373 1
1373 1428 1
1428 1373 1
1373 1462 1
1462 1373 1
1373 1517 1
1517 1373 1
1374 1377 1
1377 1374 1
1374 1395 1
1395 1374 1
1374 1408 1
1408 1374 1
1374 1429 1
1429 1374 1
1374 1463 1
1463 1374 1
1374 1518 1
1518 1374 1
1375 1396 1
1396 1375 1
1375 1409 1
1409 1375 1
1375 1430 1
1430 1375 1
1375 1464 1
1464 1375 1
1375 1519 1
1519 1375 1
1376 1377 1
1377 1376 1
1376 1397 1
1397 1376 1
1376 1410 1
1410 1376 1
1376 1431 1
1431 1376 1
1376 1465 1
1465 1376 1
1376 1520 1
1520 1376 1
1377 1398 1
1398 1377 1
1377 1411 1
1411 1377 1
1377 1432 1
1432 1377 1
1377 1466 1
1466 1377 1
1377 1521 1
1521 1377 1
1378 1379 1
1379 1378 1
1378 1380 1
1380 1378 1
1378 1381 1
1381 1378 1
1378 1383 1
1383 1378 1
1378 1412 1
1412 1378 1
1378 1433 1
1433 1378 1
1378 1467 1
1467 1378 1
1378 1522 1
1522 1378 1
1379 1382 1
1382 1379 1
1379 1384 1
1384 1379 1
1379 1413 1
1413 1379 1
1379 1434 1
1434 1379 1
1379 1468 1
1468 1379 1
1379 1523 1
1523 1379 1
1380 1385 1
1385 1380 1
1380 1414 1
1414 1380 1
1380 1435 1
1435 1380 1
1380 1469 1
1469 1380 1
1380 1524 1
1524 1380 1
1381 1382 1
1382 1381 1
1381 1415 1
1415 1381 1
1381 1436 1
1436 1381 1
1381 1470 1
1470 1381 1
1381 1525 1
1525 1381 1
1382 1416 1
1416 1382 1
1382 1437 1
1437 1382 1
1382 1471 1
1471 1382 1
1382 1526 1
1526 1382 1
1383 1384 1
1384 1383 1
1383 1385 1
1385 1383 1
1383 1417 1
1417 1383 1
1383 1438 1
1438 1383 1
1383 1472 1
1472 1383 1
1383 1527 1
1527 1383 1
1384 1418 1
1418 1384 1
1384 1439 1
1439 1384 1
1384 1473 1
1473 1384 1
1384 1528 1
1528 1384 1
1385 1419 1
1419 1385 1
1385 1440 1
1440 1385 1
1385 1474 1
1474 1385 1
1385 1529 1
1529 1385 1
1386 1387 1
1387 1386 1
1386 1388 1
1388 1386 1
1386 1389 1
1389 1386 1
1386 1391 1
1391 1386 1
1386 1394 1
1394 1386 1
1386 1441 1
1441 1386 1
1386 1475 1
1475 1386 1
1386 1530 1
1530 1386 1
1387 1390 1
1390 1387 1
1387 1392 1
1392 1387 1
1387 1395 1
1395 1387 1
1387 1442 1
1442 1387 1
1387 1476 1
1476 1387 1
1387 1531 1
1531 1387 1
1388 1393 1
1393 1388 1
1388 1396 1
1396 1388 1
1388 1443 1
1443 1388 1
1388 1477 1
1477 1388 1
1388 1532 1
1532 1388 1
1389 1390 1
1390 1389 1
1389 1397 1
1397 1389 1
1389 1444 1
1444 1389 1
1389 1478 1
1478 1389 1
1389 1533 1
1533 1389 1
1390 1398 1
1398 1390 1
1390 1445 1
1445 1390 1
1390 1479 1
1479 1390 1
1390 1534 1
1534 1390 1
1391 1392 1
1392 1391 1
1391 1393 1
1393 1391 1
1391 1446 1
1446 1391 1
1391 1480 1
1480 1391 1
1391 1535 1
1535 1391 1
1392 1447 1
1447 1392 1
1392 1481 1
1481 1392 1
1392 1536 1
1536 1392 1
1393 1448 1
1448 1393 1
1393 1482 1
1482 1393 1
1393 1537 1
1537 1393 1
1394 1395 1
1395 1394 1
1394 1396 1
1396 1394 1
1394 1397 1
1397 1394 1
1394 1449 1
1449 1394 1
1394 1483 1
1483 1394 1
1394 1538 1
1538 1394 1
1395 1398 1
1398 1395 1
1395 1450 1
1450 1395 1
1395 1484 1
1484 1395 1
1395 1539 1
1539 1395 1
1396 1451 1
1451 1396 1
1396 1485 1
1485 1396 1
1396 1540 1
1540 1396 1
1397 1398 1
1398 1397 1
1397 1452 1
1452 1397 1
1397 1486 1
1486 1397 1
1397 1541 1
1541 1397 1
1398 1453 1
1453 1398 1
1398 1487 1
1487 1398 1
1398 1542 1
1542 1398 1
1399 1400 1
1400 1399 1
1399 1401 1
1401 1399 1
1399 1402 1
1402 1399 1
1399 1404 1
1404 1399 1
1399 1407 1
1407 1399 1
1399 1412 1
1412 1399 1
1399 1488 1
1488 1399 1
1399 1543 1
1543 1399 1
1400 1403 1
1403 1400 1
1400 1405 1
1405 1400 1
1400 1408 1
1408 1400 1
1400 1413 1
1413 1400 1
1400 1489 1
1489 1400 1
1400 1544 1
1544 1400 1
1401 1406 1
1406 1401 1
1401 1409 1
1409 1401 1
1401 1414 1
1414 1401 1
1401 1490 1
1490 1401 1
1401 1545 1
1545 1401 1
1402 1403 1
1403 1402 1
1402 1410 1
1410 1402 1
1402 1415 1
1415 1402 1
1402 1491 1
1491 1402 1
1402 1546 1
1546 1402 1
1403 1411 1
1411 1403 1
1403 1416 1
1416 1403 1
1403 1492 1
1492 1403 1
1403 1547 1
1547 1403 1
1404 1405 1
1405 1404 1
1404 1406 1
1406 1404 1
1404 1417 1
1417 1404 1
1404 1493 1
1493 1404 1
1404 1548 1
1548 1404 1
1405 1418 1
1418 1405 1
1405 1494 1
1494 1405 1
1405 1549 1
1549 1405 1
1406 1419 1
1419 1406 1
1406 1495 1
1495 1406 1
1406 1550 1
1550 1406 1
1407 1408 1
1408 1407 1
1407 1409 1
1409 1407 1
1407 1410 1
1410 1407 1
1407 1496 1
1496 1407 1
1407 1551 1
1551 1407 1
1408 1411 1
1411 1408 1
1408 1497 1
1497 1408 1
1408 1552 1
1552 1408 1
1409 1498 1
1498 1409 1
1409 1553 1
1553 1409 1
1410 1411 1
1411 1410 1
1410 1499 1
1499 1410 1
1410 1554 1
1554 1410 1
1411 1500 1
1500 1411 1
1411 1555 1
1555 1411 1
1412 1413 1
1413 1412 1
1412 1414 1
1414 1412 1
1412 1415 1
1415 1412 1
1412 1417 1
1417 1412 1
1412 1501 1
1501 1412 1
1412 1556 1
1556 1412 1
1413 1416 1
1416 1413 1
1413 1418 1
1418 1413 1
1413 1502 1
1502 1413 1
1413 1557 1
1557 1413 1
1414 1419 1
1419 1414 1
1414 1503 1
1503 1414 1
1414 1558 1
1558 1414 1
1415 1416 1
1416 1415 1
1415 1504 1
1504 1415 1
1415 1559 1
1559 1415 1
1416 1505 1
1505 1416 1
1416 1560 1
1560 1416 1
1417 1418 1
1418 1417 1
1417 1419 1
1419 1417 1
1417 1506 1
1506 1417 1
1417 1561 1
1561 1417 1
1418 1507 1
1507 1418 1
1418 1562 1
1562 1418 1
1419 1508 1
1508 1419 1
1419 1563 1
1563 1419 1
1420 1421 1
1421 1420 1
1420 1422 1
1422 1420 1
1420 1423 1
1423 1420 1
1420 1425 1
1425 1420 1
1420 1428 1
1428 1420 1
1420 1433 1
1433 1420 1
1420 1441 1
1441 1420 1
1420 1564 1
1564 1420 1
1421 1424 1
1424 1421 1
1421 1426 1
1426 1421 1
1421 1429 1
1429 1421 1
1421 1434 1
1434 1421 1
1421 1442 1
1442 1421 1
1421 1565 1
1565 1421 1
1422 1427 1
1427 1422 1
1422 1430 1
1430 1422 1
1422 1435 1
1435 1422 1
1422 1443 1
1443 1422 1
1422 1566 1
1566 1422 1
1423 1424 1
1424 1423 1
1423 1431 1
1431 1423 1
1423 1436 1
1436 1423 1
1423 1444 1
1444 1423 1
1423 1567 1
1567 1423 1
1424 1432 1
1432 1424 1
1424 1437 1
1437 1424 1
1424 1445 1
1445 1424 1
1424 1568 1
1568 1424 1
1425 1426 1
1426 1425 1
1425 1427 1
1427 1425 1
1425 1438 1
1438 1425 1
1425 1446 1
1446 1425 1
1425 1569 1
1569 1425 1
1426 1439 1
1439 1426 1
1426 1447 1
1447 1426 1
1426 1570 1
1570 1426 1
1427 1440 1
1440 1427 1
1427 1448 1
1448 1427 1
1427 1571 1
1571 1427 1
1428 1429 1
1429 1428 1
1428 1430 1
1430 1428 1
1428 1431 1
1431 1428 1
1428 1449 1
1449 1428 1
1428 1572 1
1572 1428 1
1429 1432 1
1432 1429 1
1429 1450 1
1450 1429 1
1429 1573 1
1573 1429 1
1430 1451 1
1451 1430 1
1430 1574 1
1574 1430 1
1431 1432 1
1432 1431 1
1431 1452 1
1452 1431 1
1431 1575 1
1575 1431 1
1432 1453 1
1453 1432 1
1432 1576 1
1576 1432 1
1433 1434 1
1434 1433 1
1433 1435 1
1435 1433 1
1433 1436 1
1436 1433 1
1433 1438 1
1438 1433 1
1433 1577 1
1577 1433 1
1434 1437 1
1437 1434 1
1434 1439 1
1439 1434 1
1434 1578 1
1578 1434 1
1435 1440 1
1440 1435 1
1435 1579 1
1579 1435 1
1436 1437 1
1437 1436 1
1436 1580 1
1580 1436 1
1437 1581 1
1581 1437 1
1438 1439 1
1439 1438 1
1438 1440 1
1440 1438 1
1438 1582 1
1582 1438 1
1439 1583 1
1583 1439 1
1440 1584 1
1584 1440 1
1441 1442 1
1442 1441 1
1441 1443 1
1443 1441 1
1441 1444 1
1444 1441 1
1441 1446 1
1446 1441 1
1441 1449 1
1449 1441 1
1441 1585 1
1585 1441 1
1442 1445 1
1445 1442 1
1442 1447 1
1447 1442 1
1442 1450 1
1450 1442 1
1442 1586 1
1586 1442 1
1443 1448 1
1448 1443 1
1443 1451 1
1451 1443 1
1443 1587 1
1587 1443 1
1444 1445 1
1445 1444 1
1444 1452 1
1452 1444 1
1444 1588 1
1588 1444 1
1445 1453 1
1453 1445 1
1445 1589 1
1589 1445 1
1446 1447 1
1447 1446 1
1446 1448 1
1448 1446 1
1446 1590 1
1590 1446 1
1447 1591 1
1591 1447 1
1448 1592 1
1592 1448 1
1449 1450 1
1450 1449 1
1449 1451 1
1451 1449 1
1449 1452 1
1452 1449 1
1449 1593 1
1593 1449 1
1450 1453 1
1453 1450 1
1450 1594 1
1594 1450 1
1451 1595 1
1595 1451 1
1452 1453 1
1453 1452 1
1452 1596 1
1596 1452 1
1453 1597 1
1597 1453 1
1454 1455 1
1455 1454 1
1454 1456 1
1456 1454 1
1454 1457 1
1457 1454 1
1454 1459 1
1459 1454 1
1454 1462 1
1462 1454 1
1454 1467 1
1467 1454 1
1454 1475 1
1475 1454 1
1454 1488 1
1488 1454 1
1455 1458 1
1458 1455 1
1455 1460 1
1460 1455 1
1455 1463 1
1463 1455 1
1455 1468 1
1468 1455 1
1455 1476 1
1476 1455 1
1455 1489 1
1489 1455 1
1456 1461 1
1461 1456 1
1456 1464 1
1464 1456 1
1456 1469 1
1469 1456 1
1456 1477 1
1477 1456 1
1456 1490 1
1490 1456 1
1457 1458 1
1458 1457 1
1457 1465 1
1465 1457 1
1457 1470 1
1470 1457 1
1457 1478 1
1478 1457 1
1457 1491 1
1491 1457 1
1458 1466 1
1466 1458 1
1458 1471 1
1471 1458 1
1458 1479 1
1479 1458 1
1458 1492 1
1492 1458 1
1459 1460 1
1460 1459 1
1459 1461 1
1461 1459 1
1459 1472 1
1472 1459 1
1459 1480 1
1480 1459 1
1459 1493 1
1493 1459 1
1460 1473 1
1473 1460 1
1460 1481 1
1481 1460 1
1460 1494 1
1494 1460 1
1461 1474 1
1474 1461 1
1461 1482 1
1482 1461 1
1461 1495 1
1495 1461 1
1462 1463 1
1463 1462 1
1462 1464 1
1464 1462 1
1462 1465 1
1465 1462 1
1462 1483 1
1483 1462 1
1462 1496 1
1496 1462 1
1463 1466 1
1466 1463 1
1463 1484 1
1484 1463 1
1463 1497 1
1497 1463 1
1464 1485 1
1485 1464 1
1464 1498 1
1498 1464 1
1465 1466 1
1466 1465 1
1465 1486 1
1486 1465 1
1465 1499 1
1499 1465 1
1466 1487 1
1487 1466 1
1466 1500 1
1500 1466 1
1467 1468 1
1468 1467 1
1467 1469 1
1469 1467 1
1467 1470 1
1470 1467 1
1467 1472 1
1472 1467 1
1467 1501 1
1501 1467 1
1468 1471 1
1471 1468 1
1468 1473 1
1473 1468 1
1468 1502 1
1502 1468 1
1469 1474 1
1474 1469 1
1469 1503 1
1503 1469 1
1470 1471 1
1471 1470 1
1470 1504 1
1504 1470 1
1471 1505 1
1505 1471 1
1472 1473 1
1473 1472 1
1472 1474 1
1474 1472 1
1472 1506 1
1506 1472 1
1473 1507 1
1507 1473 1
1474 1508 1
1508 1474 1
1475 1476 1
1476 1475 1
1475 1477 1
1477 1475 1
1475 1478 1
1478 1475 1
1475 1480 1
1480 1475 1
1475 1483 1
1483 1475 1
1476 1479 1
1479 1476 1
1476 1481 1
1481 1476 1
1476 1484 1
1484 1476 1
1477 1482 1
1482 1477 1
1477 1485 1
1485 1477 1
1478 1479 1
1479 1478 1
1478 1486 1
1486 1478 1
1479 1487 1
1487 1479 1
1480 1481 1
1481 1480 1
1480 1482 1
1482 1480 1
1483 1484 1
1484 1483 1
1483 1485 1
1485 1483 1
1483 1486 1
1486 1483 1
1484 1487 1
1487 1484 1
1486 1487 1
1487 1486 1
1488 1489 1
1489 1488 1
1488 1490 1
1490 1488 1
1488 1491 1
1491 1488 1
1488 1493 1
1493 1488 1
1488 1496 1
1496 1488 1
1488 1501 1
1501 1488 1
1489 1492 1
1492 1489 1
1489 1494 1
1494 1489 1
1489 1497 1
1497 1489 1
1489 1502 1
1502 1489 1
1490 1495 1
1495 1490 1
1490 1498 1
1498 1490 1
1490 1503 1
1503 1490 1
1491 1492 1
1492 1491 1
1491 1499 1
1499 1491 1
1491 1504 1
1504 1491 1
1492 1500 1
1500 1492 1
1492 1505 1
1505 1492 1
1493 1494 1
1494 1493 1
1493 1495 1
1495 1493 1
1493 1506 1
1506 1493 1
1494 1507 1
1507 1494 1
1495 1508 1
1508 1495 1
1496 1497 1
1497 1496 1
1496 1498 1
1498 1496 1
1496 1499 1
1499 1496 1
1497 1500 1
1500 1497 1
1499 1500 1
1500 1499 1
1501 1502 1
1502 1501 1
1501 1503 1
1503 1501 1
1501 1504 1
1504 1501 1
1501 1506 1
1506 1501 1
1502 1505 1
1505 1502 1
1502 1507 1
1507 1502 1
1503 1508 1
1508 1503 1
1504 1505 1
1505 1504 1
1506 1507 1
1507 1506 1
1506 1508 1
1508 1506 1
1509 1510 1
1510 1509 1
1509 1511 1
1511 1509 1
1509 1512 1
1512 1509 1
1509 1514 1
1514 1509 1
1509 1517 1
1517 1509 1
1509 1522 1
1522 1509 1
1509 1530 1
1530 1509 1
1509 1543 1
1543 1509 1
1509 1564 1
1564 1509 1
1510 1513 1
1513 1510 1
1510 1515 1
1515 1510 1
1510 1518 1
1518 1510 1
1510 1523 1
1523 1510 1
1510 1531 1
1531 1510 1
1510 1544 1
1544 1510 1
1510 1565 1
1565 1510 1
1511 1516 1
1516 1511 1
1511 1519 1
1519 1511 1
1511 1524 1
1524 1511 1
1511 1532 1
1532 1511 1
1511 1545 1
1545 1511 1
1511 1566 1
1566 1511 1
1512 1513 1
1513 1512 1
1512 1520 1
1520 1512 1
1512 1525 1
1525 1512 1
1512 1533 1
1533 1512 1
1512 1546 1
1546 1512 1
1512 1567 1
1567 1512 1
1513 1521 1
1521 1513 1
1513 1526 1
1526 1513 1
1513 1534 1
1534 1513 1
1513 1547 1
1547 1513 1
1513 1568 1
1568 1513 1
1514 1515 1
1515 1514 1
1514 1516 1
1516 1514 1
1514 1527 1
1527 1514 1
1514 1535 1
1535 1514 1
1514 1548 1
1548 1514 1
1514 1569 1
1569 1514 1
1515 1528 1
1528 1515 1
1515 1536 1
1536 1515 1
1515 1549 1
1549 1515 1
1515 1570 1
1570 1515 1
1516 1529 1
1529 1516 1
1516 1537 1
1537 1516 1
1516 1550 1
1550 1516 1
1516 1571 1
1571 1516 1
1517 1518 1
1518 1517 1
1517 1519 1
1519 1517 1
1517 1520 1
1520 1517 1
1517 1538 1
1538 1517 1
1517 1551 1
1551 1517 1
1517 1572 1
1572 1517 1
1518 1521 1
1521 1518 1
1518 1539 1
1539 1518 1
1518 1552 1
1552 1518 1
1518 1573 1
1573 1518 1
1519 1540 1
1540 1519 1
1519 1553 1
1553 1519 1
1519 1574 1
1574 1519 1
1520 1521 1
1521 1520 1
1520 1541 1
1541 1520 1
1520 1554 1
1554 1520 1
1520 1575 1
1575 1520 1
1521 1542 1
1542 1521 1
1521 1555 1
1555 1521 1
1521 1576 1
1576 1521 1
1522 1523 1
1523 1522 1
1522 1524 1
1524 1522 1
1522 1525 1
1525 1522 1
1522 1527 1
1527 1522 1
1522 1556 1
1556 1522 1
1522 1577 1
1577 1522 1
1523 1526 1
1526 1523 1
1523 1528 1
1528 1523 1
1523 1557 1
1557 1523 1
1523 1578 1
1578 1523 1
1524 1529 1
1529 1524 1
1524 1558 1
1558 1524 1
1524 1579 1
1579 1524 1
1525 1526 1
1526 1525 1
1525 1559 1
1559 1525 1
1525 1580 1
1580 1525 1
1526 1560 1
1560 1526 1
1526 1581 1
1581 1526 1
1527 1528 1
1528 1527 1
1527 1529 1
1529 1527 1
1527 1561 1
1561 1527 1
1527 1582 1
1582 1527 1
1528 1562 1
1562 1528 1
1528 1583 1
1583 1528 1
1529 1563 1
1563 1529 1
1529 1584 1
1584 1529 1
1530 1531 1
1531 1530 1
1530 1532 1
1532 1530 1
1530 1533 1
1533 1530 1
1530 1535 1
1535 1530 1
1530 1538 1
1538 1530 1
1530 1585 1
1585 1530 1
1531 1534 1
1534 1531 1
1531 1536 1
1536 1531 1
1531 1539 1
1539 1531 1
1531 1586 1
1586 1531 1
1532 1537 1
1537 1532 1
1532 1540 1
1540 1532 1
1532 1587 1
1587 1532 1
1533 1534 1
1534 1533 1
1533 1541 1
1541 1533 1
1533 1588 1
1588 1533 1
1534 1542 1
1542 1534 1
1534 1589 1
1589 1534 1
1535 1536 1
1536 1535 1
1535 1537 1
1537 1535 1
1535 1590 1
1590 1535 1
1536 1591 1
1591 1536 1
1537 1592 1
1592 1537 1
1538 1539 1
1539 1538 1
1538 1540 1
1540 1538 1
1538 1541 1
1541 1538 1
1538 1593 1
1593 1538 1
1539 1542 1
1542 1539 1
1539 1594 1
1594 1539 1
1540 1595 1
1595 1540 1
1541 1542 1
1542 1541 1
1541 1596 1
1596 1541 1
1542 1597 1
1597 1542 1
1543 1544 1
1544 1543 1
1543 1545 1
1545 1543 1
1543 1546 1
1546 1543 1
1543 1548 1
1548 1543 1
1543 1551 1
1551 1543 1
1543 1556 1
1556 1543 1
1544 1547 1
1547 1544 1
1544 1549 1
1549 1544 1
1544 1552 1
1552 1544 1
1544 1557 1
1557 1544 1
1545 1550 1
1550 1545 1
1545 1553 1
1553 1545 1
1545 1558 1
1558 1545 1
1546 1547 1
1547 1546 1
1546 1554 1
1554 1546 1
1546 1559 1
1559 1546 1
1547 1555 1
1555 1547 1
1547 1560 1
1560 1547 1
1548 1549 1
1549 1548 1
1548 1550 1
1550 1548 1
1548 1561 1
1561 1548 1
1549 1562 1
1562 1549 1
1550 1563 1
1563 1550 1
1551 1552 1
1552 1551 1
1551 1553 1
1553 1551 1
1551 1554 1
1554 1551 1
1552 1555 1
1555 1552 1
1554 1555 1
1555 1554 1
1556 1557 1
1557 1556 1
1556 1558 1
1558 1556 1
1556 1559 1
1559 1556 1
1556 1561 1
1561 1556 1
1557 1560 1
1560 1557 1
1557 1562 1
1562 1557 1
1558 1563 1
1563 1558 1
1559 1560 1
1560 1559 1
1561 1562 1
1562 1561 1
1561 1563 1
1563 1561 1
1564 1565 1
1565 1564 1
1564 1566 1
1566 1564 1
1564 1567 1
1567 1564 1
1564 1569 1
1569 1564 1
1564 1572 1
1572 1564 1
1564 1577 1
1577 1564 1
1564 1585 1
1585 1564 1
1565 1568 1
1568 1565 1
1565 1570 1
1570 1565 1
1565 1573 1
1573 1565 1
1565 1578 1
1578 1565 1
1565 1586 1
1586 1565 1
1566 1571 1
1571 1566 1
1566 1574 1
1574 1566 1
1566 1579 1
1579 1566 1
1566 1587 1
1587 1566 1
1567 1568 1
1568 1567 1
1567 1575 1
1575 1567 1
1567 1580 1
1580 1567 1
1567 1588 1
1588 1567 1
1568 1576 1
1576 1568 1
1568 1581 1
1581 1568 1
1568 1589 1
1589 1568 1
1569 1570 1
1570 1569 1
1569 1571 1
1571 1569 1
1569 1582 1
1582 1569 1
1569 1590 1
1590 1569 1
1570 1583 1
1583 1570 1
1570 1591 1
1591 1570 1
1571 1584 1
1584 1571 1
1571 1592 1
1592 1571 1
1572 1573 1
1573 1572 1
1572 1574 1
1574 1572 1
1572 1575 1
1575 1572 1
1572 1593 1
1593 1572 1
1573 1576 1
1576 1573 1
1573 1594 1
1594 1573 1
1574 1595 1
1595 1574 1
1575 1576 1
1576 1575 1
1575 1596 1
1596 1575 1
1576 1597 1
1597 1576 1
1577 1578 1
1578 1577 1
1577 1579 1
1579 1577 1
1577 1580 1
1580 1577 1
1577 1582 1
1582 1577 1
1578 1581 1
1581 1578 1
1578 1583 1
1583 1578 1
1579 1584 1
1584 1579 1
1580 1581 1
1581 1580 1
1582 1583 1
1583 1582 1
1582 1584 1
1584 1582 1
1585 1586 1
1586 1585 1
1585 1587 1
1587 1585 1
1585 1588 1
1588 1585 1
1585 1590 1
1590 1585 1
1585 1593 1
1593 1585 1
1586 1589 1
1589 1586 1
1586 1591 1
1591 1586 1
1586 1594 1
1594 1586 1
1587 1592 1
1592 1587 1
1587 1595 1
1595 1587 1
1588 1589 1
1589 1588 1
1588 1596 1
1596 1588 1
1589 1597 1
1597 1589 1
1590 1591 1
1591 1590 1
1590 1592 1
1592 1590 1
1593 1594 1
1594 1593 1
1593 1595 1
1595 1593 1
1593 1596 1
1596 1593 1
1594 1597 1
1597 1594 1
1596 1597 1
1597 1596 1
1598 1599 1
1599 1598 1
1598 1600 1
1600 1598 1
1598 1601 1
1601 1598 1
1598 1603 1
1603 1598 1
1598 1606 1
1606 1598 1
1598 1611 1
1611 1598 1
1598 1619 1
1619 1598 1
1598 1632 1
1632 1598 1
1598 1653 1
1653 1598 1
1598 1687 1
1687 1598 1
1598 1742 1
1742 1598 1
1598 1831 1
1831 1598 1
1598 1975 1
1975 1598 1
1598 2208 1
2208 1598 1
1599 1602 1
1602 1599 1
1599 1604 1
1604 1599 1
1599 1607 1
1607 1599 1
1599 1612 1
1612 1599 1
1599 1620 1
1620 1599 1
1599 1633 1
1633 1599 1
1599 1654 1
1654 1599 1
1599 1688 1
1688 1599 1
1599 1743 1
1743 1599 1
1599 1832 1
1832 1599 1
1599 1976 1
1976 1599 1
1599 2209 1
2209 1599 1
1600 1605 1
1605 1600 1
1600 1608 1
1608 1600 1
1600 1613 1
1613 1600 1
1600 1621 1
1621 1600 1
1600 1634 1
1634 1600 1
1600 1655 1
1655 1600 1
1600 1689 1
1689 1600 1
1600 1744 1
1744 1600 1
1600 1833 1
1833 1600 1
1600 1977 1
1977 1600 1
1600 2210 1
2210 1600 1
1601 1602 1
1602 1601 1
1601 1609 1
1609 1601 1
1601 1614 1
1614 1601 1
1601 1622 1
1622 1601 1
1601 1635 1
1635 1601 1
1601 1656 1
1656 1601 1
1601 1690 1
1690 1601 1
1601 1745 1
1745 1601 1
1601 1834 1
1834 1601 1
1601 1978 1
1978 1601 1
1601 2211 1
2211 1601 1
1602 1610 1
1610 1602 1
1602 1615 1
1615 1602 1
1602 1623 1
1623 1602 1
1602 1636 1
1636 1602 1
1602 1657 1
1657 1602 1
1602 1691 1
1691 1602 1
1602 1746 1
1746 1602 1
1602 1835 1
1835 1602 1
1602 1979 1
1979 1602 1
1602 2212 1
2212 1602 1
1603 1604 1
1604 1603 1
1603 1605 1
1605 1603 1
1603 1616 1
1616 1603 1
1603 1624 1
1624 1603 1
1603 1637 1
1637 1603 1
1603 1658 1
1658 1603 1
1603 1692 1
1692 1603 1
1603 1747 1
1747 1603 1
1603 1836 1
1836 1603 1
1603 1980 1
1980 1603 1
1603 2213 1
2213 1603 1
1604 1617 1
1617 1604 1
1604 1625 1
1625 1604 1
1604 1638 1
1638 1604 1
1604 1659 1
1659 1604 1
1604 1693 1
1693 1604 1
1604 1748 1
1748 1604 1
1604 1837 1
1837 1604 1
1604 1981 1
1981 1604 1
1604 2214 1
2214 1604 1
1605 1618 1
1618 1605 1
1605 1626 1
1626 1605 1
1605 1639 1
1639 1605 1
1605 1660 1
1660 1605 1
1605 1694 1
1694 1605 1
1605 1749 1
1749 1605 1
1605 1838 1
1838 1605 1
1605 1982 1
1982 1605 1
1605 2215 1
2215 1605 1
1606 1607 1
1607 1606 1
1606 1608 1
1608 1606 1
1606 1609 1
1609 1606 1
1606 1627 1
1627 1606 1
1606 1640 1
1640 1606 1
1606 1661 1
1661 1606 1
1606 1695 1
1695 1606 1
1606 1750 1
1750 1606 1
1606 1839 1
1839 1606 1
1606 1983 1
1983 1606 1
1606 2216 1
2216 1606 1
1607 1610 1
1610 1607 1
1607 1628 1
1628 1607 1
1607 1641 1
1641 1607 1
1607 1662 1
1662 1607 1
1607 1696 1
1696 1607 1
1607 1751 1
1751 1607 1
1607 1840 1
1840 1607 1
1607 1984 1
1984 1607 1
1607 2217 1
2217 1607 1
1608 1629 1
1629 1608 1
1608 1642 1
1642 1608 1
1608 1663 1
1663 1608 1
1608 1697 1
1697 1608 1
1608 1752 1
1752 1608 1
1608 1841 1
1841 1608 1
1608 1985 1
1985 1608 1
1608 2218 1
2218 1608 1
1609 1610 1
1610 1609 1
1609 1630 1
1630 1609 1
1609 1643 1
1643 1609 1
1609 1664 1
1664 1609 1
1609 1698 1
1698 1609 1
1609 1753 1
1753 1609 1
1609 1842 1
1842 1609 1
1609 1986 1
1986 1609 1
1609 2219 1
2219 1609 1
1610 1631 1
1631 1610 1
1610 1644 1
1644 1610 1
1610 1665 1
1665 1610 1
1610 1699 1
1699 1610 1
1610 1754 1
1754 1610 1
1610 1843 1
1843 1610 1
1610 1987 1
1987 1610 1
1610 2220 1
2220 1610 1
1611 1612 1
1612 1611 1
1611 1613 1
1613 1611 1
1611 1614 1
1614 1611 1
1611 1616 1
1616 1611 1
1611 1645 1
1645 1611 1
1611 1666 1
1666 1611 1
1611 1700 1
1700 1611 1
1611 1755 1
1755 1611 1
1611 1844 1
1844 1611 1
1611 1988 1
1988 1611 1
1611 2221 1
2221 1611 1
1612 1615 1
1615 1612 1
1612 1617 1
1617 1612 1
1612 1646 1
1646 1612 1
1612 1667 1
1667 1612 1
1612 1701 1
1701 1612 1
1612 1756 1
1756 1612 1
1612 1845 1
1845 1612 1
1612 1989 1
1989 1612 1
1612 2222 1
2222 1612 1
1613 1618 1
1618 1613 1
1613 1647 1
1647 1613 1
1613 1668 1
1668 1613 1
1613 1702 1
1702 1613 1
1613 1757 1
1757 1613 1
1613 1846 1
1846 1613 1
1613 1990 1
1990 1613 1
1613 2223 1
2223 1613 1
1614 1615 1
1615 1614 1
1614 1648 1
1648 1614 1
1614 1669 1
1669 1614 1
1614 1703 1
1703 1614 1
1614 1758 1
1758 1614 1
1614 1847 1
1847 1614 1
1614 1991 1
1991 1614 1
1614 2224 1
2224 1614 1
1615 1649 1
1649 1615 1
1615 1670 1
1670 1615 1
1615 1704 1
1704 1615 1
1615 1759 1
1759 1615 1
1615 1848 1
1848 1615 1
1615 1992 1
1992 1615 1
1615 2225 1
2225 1615 1
1616 1617 1
1617 1616 1
1616 1618 1
1618 1616 1
1616 1650 1
1650 1616 1
1616 1671 1
1671 1616 1
1616 1705 1
1705 1616 1
1616 1760 1
1760 1616 1
1616 1849 1
1849 1616 1
1616 1993 1
1993 1616 1
1616 2226 1
2226 1616 1
1617 1651 1
1651 1617 1
1617 1672 1
1672 1617 1
1617 1706 1
1706 1617 1
1617 1761 1
1761 1617 1
1617 1850 1
1850 1617 1
1617 1994 1
1994 1617 1
1617 2227 1
2227 1617 1
1618 1652 1
1652 1618 1
1618 1673 1
1673 1618 1
1618 1707 1
1707 1618 1
1618 1762 1
1762 1618 1
1618 1851 1
1851 1618 1
1618 1995 1
1995 1618 1
1618 2228 1
2228 1618 1
1619 1620 1
1620 1619 1
1619 1621 1
1621 1619 1
1619 1622 1
1622 1619 1
1619 1624 1
1624 1619 1
1619 1627 1
1627 1619 1
1619 1674 1
1674 1619 1
1619 1708 1
1708 1619 1
1619 1763 1
1763 1619 1
1619 1852 1
1852 1619 1
1619 1996 1
1996 1619 1
1619 2229 1
2229 1619 1
1620 1623 1
1623 1620 1
1620 1625 1
1625 1620 1
1620 1628 1
1628 1620 1
1620 1675 1
1675 1620 1
1620 1709 1
1709 1620 1
1620 1764 1
1764 1620 1
1620 1853 1
1853 1620 1
1620 1997 1
1997 1620 1
1620 2230 1
2230 1620 1
1621 1626 1
1626 1621 1
1621 1629 1
1629 1621 1
1621 1676 1
1676 1621 1
1621 1710 1
1710 1621 1
1621 1765 1
1765 1621 1
1621 1854 1
1854 1621 1
1621 1998 1
1998 1621 1
1621 2231 1
2231 1621 1
1622 1623 1
1623 1622 1
1622 1630 1
1630 1622 1
1622 1677 1
1677 1622 1
1622 1711 1
1711 1622 1
1622 1766 1
1766 1622 1
1622 1855 1
1855 1622 1
1622 1999 1
1999 1622 1
1622 2232 1
2232 1622 1
1623 1631 1
1631 1623 1
1623 1678 1
1678 1623 1
1623 1712 1
1712 1623 1
1623 1767 1
1767 1623 1
1623 1856 1
1856 1623 1
1623 2000 1
2000 1623 1
1623 2233 1
2233 1623 1
1624 1625 1
1625 1624 1
1624 1626 1
1626 1624 1
1624 1679 1
1679 1624 1
1624 1713 1
1713 1624 1
1624 1768 1
1768 1624 1
1624 1857 1
1857 1624 1
1624 2001 1
2001 1624 1
1624 2234 1
2234 1624 1
1625 1680 1
1680 1625 1
1625 1714 1
1714 1625 1
1625 1769 1
1769 1625 1
1625 1858 1
1858 1625 1
1625 2002 1
2002 1625 1
1625 2235 1
2235 1625 1
1626 1681 1
1681 1626 1
1626 1715 1
1715 1626 1
1626 1770 1
1770 1626 1
1626 1859 1
1859 1626 1
1626 2003 1
2003 1626 1
1626 2236 1
2236 1626 1
1627 1628 1
1628 1627 1
1627 1629 1
1629 1627 1
1627 1630 1
1630 1627 1
1627 1682 1
1682 1627 1
1627 1716 1
1716 1627 1
1627 1771 1
1771 1627 1
1627 1860 1
1860 1627 1
1627 2004 1
2004 1627 1
1627 2237 1
2237 1627 1
1628 1631 1
1631 1628 1
1628 1683 1
1683 1628 1
1628 1717 1
1717 1628 1
1628 1772 1
1772 1628 1
1628 1861 1
1861 1628 1
1628 2005 1
2005 1628 1
1628 2238 1
2238 1628 1
1629 1684 1
1684 1629 1
1629 1718 1
1718 1629 1
1629 1773 1
1773 1629 1
1629 1862 1
1862 1629 1
1629 2006 1
2006 1629 1
1629 2239 1
2239 1629 1
1630 1631 1
1631 1630 1
1630 1685 1
1685 1630 1
1630 1719 1
1719 1630 1
1630 1774 1
1774 1630 1
1630 1863 1
1863 1630 1
1630 2007 1
2007 1630 1
1630 2240 1
2240 1630 1
1631 1686 1
1686 1631 1
1631 1720 1
1720 1631 1
1631 1775 1
1775 1631 1
1631 1864 1
1864 1631 1
1631 2008 1
2008 1631 1
1631 2241 1
2241 1631 1
1632 1633 1
1633 1632 1
1632 1634 1
1634 1632 1
1632 1635 1
1635 1632 1
1632 1637 1
1637 1632 1
1632 1640 1
1640 1632 1
1632 1645 1
1645 1632 1
1632 1721 1
1721 1632 1
1632 1776 1
1776 1632 1
1632 1865 1
1865 1632 1
1632 2009 1
2009 1632 1
1632 2242 1
2242 1632 1
1633 1636 1
1636 1633 1
1633 1638 1
1638 1633 1
1633 1641 1
1641 1633 1
1633 1646 1
1646 1633 1
1633 1722 1
1722 1633 1
1633 1777 1
1777 1633 1
1633 1866 1
1866 1633 1
1633 2010 1
2010 1633 1
1633 2243 1
2243 1633 1
1634 1639 1
1639 1634 1
1634 1642 1
1642 1634 1
1634 1647 1
1647 1634 1
1634 1723 1
1723 1634 1
1634 1778 1
1778 1634 1
1634 1867 1
1867 1634 1
1634 2011 1
2011 1634 1
1634 2244 1
2244 1634 1
1635 1636 1
1636 1635 1
1635 1643 1
1643 1635 1
1635 1648 1
1648 1635 1
1635 1724 1
1724 1635 1
1635 1779 1
1779 1635 1
1635 1868 1
1868 1635 1
1635 2012 1
2012 1635 1
1635 2245 1
2245 1635 1
1636 1644 1
1644 1636 1
1636 1649 1
1649 1636 1
1636 1725 1
1725 1636 1
1636 1780 1
1780 1636 1
1636 1869 1
1869 1636 1
1636 2013 1
2013 1636 1
1636 2246 1
2246 1636 1
1637 1638 1
1638 1637 1
1637 1639 1
1639 1637 1
1637 1650 1
1650 1637 1
1637 1726 1
1726 1637 1
1637 1781 1
1781 1637 1
1637 1870 1
1870 1637 1
1637 2014 1
2014 1637 1
1637 2247 1
2247 1637 1
1638 1651 1
1651 1638 1
1638 1727 1
1727 1638 1
1638 1782 1
1782 1638 1
1638 1871 1
1871 1638 1
1638 2015 1
2015 1638 1
1638 2248 1
2248 1638 1
1639 1652 1
1652 1639 1
1639 1728 1
1728 1639 1
1639 1783 1
1783 1639 1
1639 1872 1
1872 1639 1
1639 2016 1
2016 1639 1
1639 2249 1
2249 1639 1
1640 1641 1
1641 1640 1
1640 1642 1
1642 1640 1
1640 1643 1
1643 1640 1
1640 1729 1
1729 1640 1
1640 1784 1
1784 1640 1
1640 1873 1
1873 1640 1
1640 2017 1
2017 1640 1
1640 2250 1
2250 1640 1
1641 1644 1
1644 1641 1
1641 1730 1
1730 1641 1
1641 1785 1
1785 1641 1
1641 1874 1
1874 1641 1
1641 2018 1
2018 1641 1
1641 2251 1
2251 1641 1
1642 1731 1
1731 1642 1
1642 1786 1
1786 1642 1
1642 1875 1
1875 1642 1
1642 2019 1
2019 1642 1
1642 2252 1
2252 1642 1
1643 1644 1
1644 1643 1
1643 1732 1
1732 1643 1
1643 1787 1
1787 1643 1
1643 1876 1
1876 1643 1
1643 2020 1
2020 1643 1
1643 2253 1
2253 1643 1
1644 1733 1
1733 1644 1
1644 1788 1
1788 1644 1
1644 1877 1
1877 1644 1
1644 2021 1
2021 1644 1
1644 2254 1
2254 1644 1
1645 1646 1
1646 1645 1
1645 1647 1
1647 1645 1
1645 1648 1
1648 1645 1
1645 1650 1
1650 1645 1
1645 1734 1
1734 1645 1
1645 1789 1
1789 1645 1
1645 1878 1
1878 1645 1
1645 2022 1
2022 1645 1
1645 2255 1
2255 1645 1
1646 1649 1
1649 1646 1
1646 1651 1
1651 1646 1
1646 1735 1
1735 1646 1
1646 1790 1
1790 1646 1
1646 1879 1
1879 1646 1
1646 2023 1
2023 1646 1
1646 2256 1
2256 1646 1
1647 1652 1
1652 1647 1
1647 1736 1
1736 1647 1
1647 1791 1
1791 1647 1
1647 1880 1
1880 1647 1
1647 2024 1
2024 1647 1
1647 2257 1
2257 1647 1
1648 1649 1
1649 1648 1
1648 1737 1
1737 1648 1
1648 1792 1
1792 1648 1
1648 1881 1
1881 1648 1
1648 2025 1
2025 1648 1
1648 2258 1
2258 1648 1
1649 1738 1
1738 1649 1
1649 1793 1
1793 1649 1
1649 1882 1
1882 1649 1
1649 2026 1
2026 1649 1
1649 2259 1
2259 1649 1
1650 1651 1
1651 1650 1
1650 1652 1
1652 1650 1
1650 1739 1
1739 1650 1
1650 1794 1
1794 1650 1
1650 1883 1
1883 1650 1
1650 2027 1
2027 1650 1
1650 2260 1
2260 1650 1
1651 1740 1
1740 1651 1
1651 1795 1
1795 1651 1
1651 1884 1
1884 1651 1
1651 2028 1
2028 1651 1
1651 2261 1
2261 1651 1
1652 1741 1
1741 1652 1
1652 1796 1
1796 1652 1
1652 1885 1
1885 1652 1
1652 2029 1
2029 1652 1
1652 2262 1
2262 1652 1
1653 1654 1
1654 1653 1
1653 1655 1
1655 1653 1
1653 1656 1
1656 1653 1
1653 1658 1
1658 1653 1
1653 1661 1
1661 1653 1
1653 1666 1
1666 1653 1
1653 1674 1
1674 1653 1
1653 1797 1
1797 1653 1
1653 1886 1
1886 1653 1
1653 2030 1
2030 1653 1
1653 2263 1
2263 1653 1
1654 1657 1
1657 1654 1
1654 1659 1
1659 1654 1
1654 1662 1
1662 1654 1
1654 1667 1
1667 1654 1
1654 1675 1
1675 1654 1
1654 1798 1
1798 1654 1
1654 1887 1
1887 1654 1
1654 2031 1
2031 1654 1
1654 2264 1
2264 1654 1
1655 1660 1
1660 1655 1
1655 1663 1
1663 1655 1
1655 1668 1
1668 1655 1
1655 1676 1
1676 1655 1
1655 1799 1
1799 1655 1
1655 1888 1
1888 1655 1
1655 2032 1
2032 1655 1
1655 2265 1
2265 1655 1
1656 1657 1
1657 1656 1
1656 1664 1
1664 1656 1
1656 1669 1
1669 1656 1
1656 1677 1
1677 1656 1
1656 1800 1
1800 1656 1
1656 1889 1
1889 1656 1
1656 2033 1
2033 1656 1
1656 2266 1
2266 1656 1
1657 1665 1
1665 1657 1
1657 1670 1
1670 1657 1
1657 1678 1
1678 1657 1
1657 1801 1
1801 1657 1
1657 1890 1
1890 1657 1
1657 2034 1
2034 1657 1
1657 2267 1
2267 1657 1
1658 1659 1
1659 1658 1
1658 1660 1
1660 1658 1
1658 1671 1
1671 1658 1
1658 1679 1
1679 1658 1
1658 1802 1
1802 1658 1
1658 1891 1
1891 1658 1
1658 2035 1
2035 1658 1
1658 2268 1
2268 1658 1
1659 1672 1
1672 1659 1
1659 1680 1
1680 1659 1
1659 1803 1
1803 1659 1
1659 1892 1
1892 1659 1
1659 2036 1
2036 1659 1
1659 2269 1
2269 1659 1
1660 1673 1
1673 1660 1
1660 1681 1
1681 1660 1
1660 1804 1
1804 1660 1
1660 1893 1
1893 1660 1
1660 2037 1
2037 1660 1
1660 2270 1
2270 1660 1
1661 1662 1
1662 1661 1
1661 1663 1
1663 1661 1
1661 1664 1
1664 1661 1
1661 1682 1
1682 1661 1
1661 1805 1
1805 1661 1
1661 1894 1
1894 1661 1
1661 2038 1
2038 1661 1
1661 2271 1
2271 1661 1
1662 1665 1
1665 1662 1
1662 1683 1
1683 1662 1
1662 1806 1
1806 1662 1
1662 1895 1
1895 1662 1
1662 2039 1
2039 1662 1
1662 2272 1
2272 1662 1
1663 1684 1
1684 1663 1
1663 1807 1
1807 1663 1
1663 1896 1
1896 1663 1
1663 2040 1
2040 1663 1
1663 2273 1
2273 1663 1
1664 1665 1
1665 1664 1
1664 1685 1
1685 1664 1
1664 1808 1
1808 1664 1
1664 1897 1
1897 1664 1
1664 2041 1
2041 1664 1
1664 2274 1
2274 1664 1
1665 1686 1
1686 1665 1
1665 1809 1
1809 1665 1
1665 1898 1
1898 1665 1
1665 2042 1
2042 1665 1
1665 2275 1
2275 1665 1
1666 1667 1
1667 1666 1
1666 1668 1
1668 1666 1
1666 1669 1
1669 1666 1
1666 1671 1
1671 1666 1
1666 1810 1
1810 1666 1
1666 1899 1
1899 1666 1
1666 2043 1
2043 1666 1
1666 2276 1
2276 1666 1
1667 1670 1
1670 1667 1
1667 1672 1
1672 1667 1
1667 1811 1
1811 1667 1
1667 1900 1
1900 1667 1
1667 2044 1
2044 1667 1
1667 2277 1
2277 1667 1
1668 1673 1
1673 1668 1
1668 1812 1
1812 1668 1
1668 1901 1
1901 1668 1
1668 2045 1
2045 1668 1
1668 2278 1
2278 1668 1
1669 1670 1
1670 1669 1
1669 1813 1
1813 1669 1
1669 1902 1
1902 1669 1
1669 2046 1
2046 1669 1
1669 2279 1
2279 1669 1
1670 1814 1
1814 1670 1
1670 1903 1
1903 1670 1
1670 2047 1
2047 1670 1
1670 2280 1
2280 1670 1
1671 1672 1
1672 1671 1
1671 1673 1
1673 1671 1
1671 1815 1
1815 1671 1
1671 1904 1
1904 1671 1
1671 2048 1
2048 1671 1
1671 2281 1
2281 1671 1
1672 1816 1
1816 1672 1
1672 1905 1
1905 1672 1
1672 2049 1
2049 1672 1
1672 2282 1
2282 1672 1
1673 1817 1
1817 1673 1
1673 1906 1
1906 1673 1
1673 2050 1
2050 1673 1
1673 2283 1
2283 1673 1
1674 1675 1
1675 1674 1
1674 1676 1
1676 1674 1
1674 1677 1
1677 1674 1
1674 1679 1
1679 1674 1
1674 1682 1
1682 1674 1
1674 1818 1
1818 1674 1
1674 1907 1
1907 1674 1
1674 2051 1
2051 1674 1
1674 2284 1
2284 1674 1
1675 1678 1
1678 1675 1
1675 1680 1
1680 1675 1
1675 1683 1
1683 1675 1
1675 1819 1
1819 1675 1
1675 1908 1
1908 1675 1
1675 2052 1
2052 1675 1
1675 2285 1
2285 1675 1
1676 1681 1
1681 1676 1
1676 1684 1
1684 1676 1
1676 1820 1
1820 1676 1
1676 1909 1
1909 1676 1
1676 2053 1
2053 1676 1
1676 2286 1
2286 1676 1
1677 1678 1
1678 1677 1
1677 1685 1
1685 1677 1
1677 1821 1
1821 1677 1
1677 1910 1
1910 1677 1
1677 2054 1
2054 1677 1
1677 2287 1
2287 1677 1
1678 1686 1
1686 1678 1
1678 1822 1
1822 1678 1
1678 1911 1
1911 1678 1
1678 2055 1
2055 1678 1
1678 2288 1
2288 1678 1
1679 1680 1
1680 1679 1
1679 1681 1
1681 1679 1
1679 1823 1
1823 1679 1
1679 1912 1
1912 1679 1
1679 2056 1
2056 1679 1
1679 2289 1
2289 1679 1
1680 1824 1
1824 1680 1
1680 1913 1
1913 1680 1
1680 2057 1
2057 1680 1
1680 2290 1
2290 1680 1
1681 1825 1
1825 1681 1
1681 1914 1
1914 1681 1
1681 2058 1
2058 1681 1
1681 2291 1
2291 1681 1
1682 1683 1
1683 1682 1
1682 1684 1
1684 1682 1
1682 1685 1
1685 1682 1
1682 1826 1
1826 1682 1
1682 1915 1
1915 1682 1
1682 2059 1
2059 1682 1
1682 2292 1
2292 1682 1
1683 1686 1
1686 1683 1
1683 1827 1
1827 1683 1
1683 1916 1
1916 1683 1
1683 2060 1
2060 1683 1
1683 2293 1
2293 1683 1
1684 1828 1
1828 1684 1
1684 1917 1
1917 1684 1
1684 2061 1
2061 1684 1
1684 2294 1
2294 1684 1
1685 1686 1
1686 1685 1
1685 1829 1
1829 1685 1
1685 1918 1
1918 1685 1
1685 2062 1
2062 1685 1
1685 2295 1
2295 1685 1
1686 1830 1
1830 1686 1
1686 1919 1
1919 1686 1
1686 2063 1
2063 1686 1
1686 2296 1
2296 1686 1
1687 1688 1
1688 1687 1
1687 1689 1
1689 1687 1
1687 1690 1
1690 1687 1
1687 1692 1
1692 1687 1
1687 1695 1
1695 1687 1
1687 1700 1
1700 1687 1
1687 1708 1
1708 1687 1
1687 1721 1
1721 1687 1
1687 1920 1
1920 1687 1
1687 2064 1
2064 1687 1
1687 2297 1
2297 1687 1
1688 1691 1
1691 1688 1
1688 1693 1
1693 1688 1
1688 1696 1
1696 1688 1
1688 1701 1
1701 1688 1
1688 1709 1
1709 1688 1
1688 1722 1
1722 1688 1
1688 1921 1
1921 1688 1
1688 2065 1
2065 1688 1
1688 2298 1
2298 1688 1
1689 1694 1
1694 1689 1
1689 1697 1
1697 1689 1
1689 1702 1
1702 1689 1
1689 1710 1
1710 1689 1
1689 1723 1
1723 1689 1
1689 1922 1
1922 1689 1
1689 2066 1
2066 1689 1
1689 2299 1
2299 1689 1
1690 1691 1
1691 1690 1
1690 1698 1
1698 1690 1
1690 1703 1
1703 1690 1
1690 1711 1
1711 1690 1
1690 1724 1
1724 1690 1
1690 1923 1
1923 1690 1
1690 2067 1
2067 1690 1
1690 2300 1
2300 1690 1
1691 1699 1
1699 1691 1
1691 1704 1
1704 1691 1
1691 1712 1
1712 1691 1
1691 1725 1
1725 1691 1
1691 1924 1
1924 1691 1
1691 2068 1
2068 1691 1
1691 2301 1
2301 1691 1
1692 1693 1
1693 1692 1
1692 1694 1
1694 1692 1
1692 1705 1
1705 1692 1
1692 1713 1
1713 1692 1
1692 1726 1
1726 1692 1
1692 1925 1
1925 1692 1
1692 2069 1
2069 1692 1
1692 2302 1
2302 1692 1
1693 1706 1
1706 1693 1
1693 1714 1
1714 1693 1
1693 1727 1
1727 1693 1
1693 1926 1
1926 1693 1
1693 2070 1
2070 1693 1
1693 2303 1
2303 1693 1
1694 1707 1
1707 1694 1
1694 1715 1
1715 1694 1
1694 1728 1
1728 1694 1
1694 1927 1
1927 1694 1
1694 2071 1
2071 1694 1
1694 2304 1
2304 1694 1
1695 1696 1
1696 1695 1
1695 1697 1
1697 1695 1
1695 1698 1
1698 1695 1
1695 1716 1
1716 1695 1
1695 1729 1
1729 1695 1
1695 1928 1
1928 1695 1
1695 2072 1
2072 1695 1
1695 2305 1
2305 1695 1
1696 1699 1
1699 1696 1
1696 1717 1
1717 1696 1
1696 1730 1
1730 1696 1
1696 1929 1
1929 1696 1
1696 2073 1
2073 1696 1
1696 2306 1
2306 1696 1
1697 1718 1
1718 1697 1
1697 1731 1
1731 1697 1
1697 1930 1
1930 1697 1
1697 2074 1
2074 1697 1
1697 2307 1
2307 1697 1
1698 1699 1
1699 1698 1
1698 1719 1
1719 1698 1
1698 1732 1
1732 1698 1
1698 1931 1
1931 1698 1
1698 2075 1
2075 1698 1
1698 2308 1
2308 1698 1
1699 1720 1
1720 1699 1
1699 1733 1
1733 1699 1
1699 1932 1
1932 1699 1
1699 2076 1
2076 1699 1
1699 2309 1
2309 1699 1
1700 1701 1
1701 1700 1
1700 1702 1
1702 1700 1
1700 1703 1
1703 1700 1
1700 1705 1
1705 1700 1
1700 1734 1
1734 1700 1
1700 1933 1
1933 1700 1
1700 2077 1
2077 1700 1
1700 2310 1
2310 1700 1
1701 1704 1
1704 1701 1
1701 1706 1
1706 1701 1
1701 1735 1
1735 1701 1
1701 1934 1
1934 1701 1
1701 2078 1
2078 1701 1
1701 2311 1
2311 1701 1
1702 1707 1
1707 1702 1
1702 1736 1
1736 1702 1
1702 1935 1
1935 1702 1
1702 2079 1
2079 1702 1
1702 2312 1
2312 1702 1
1703 1704 1
1704 1703 1
1703 1737 1
1737 1703 1
1703 1936 1
1936 1703 1
1703 2080 1
2080 1703 1
1703 2313 1
2313 1703 1
1704 1738 1
1738 1704 1
1704 1937 1
1937 1704 1
1704 2081 1
2081 1704 1
1704 2314 1
2314 1704 1
1705 1706 1
1706 1705 1
1705 1707 1
1707 1705 1
1705 1739 1
1739 1705 1
1705 1938 1
1938 1705 1
1705 2082 1
2082 1705 1
1705 2315 1
2315 1705 1
1706 1740 1
1740 1706 1
1706 1939 1
1939 1706 1
1706 2083 1
2083 1706 1
1706 2316 1
2316 1706 1
1707 1741 1
1741 1707 1
1707 1940 1
1940 1707 1
1707 2084 1
2084 1707 1
1707 2317 1
2317 1707 1
1708 1709 1
1709 1708 1
1708 1710 1
1710 1708 1
1708 1711 1
1711 1708 1
1708 1713 1
1713 1708 1
1708 1716 1
1716 1708 1
1708 1941 1
1941 1708 1
1708 2085 1
2085 1708 1
1708 2318 1
2318 1708 1
1709 1712 1
1712 1709 1
1709 1714 1
1714 1709 1
1709 1717 1
1717 1709 1
1709 1942 1
1942 1709 1
1709 2086 1
2086 1709 1
1709 2319 1
2319 1709 1
1710 1715 1
1715 1710 1
1710 1718 1
1718 1710 1
1710 1943 1
1943 1710 1
1710 2087 1
2087 1710 1
1710 2320 1
2320 1710 1
1711 1712 1
1712 1711 1
1711 1719 1
1719 1711 1
1711 1944 1
1944 1711 1
1711 2088 1
2088 1711 1
1711 2321 1
2321 1711 1
1712 1720 1
1720 1712 1
1712 1945 1
1945 1712 1
1712 2089 1
2089 1712 1
1712 2322 1
2322 1712 1
1713 1714 1
1714 1713 1
1713 1715 1
1715 1713 1
1713 1946 1
1946 1713 1
1713 2090 1
2090 1713 1
1713 2323 1
2323 1713 1
1714 1947 1
1947 1714 1
1714 2091 1
2091 1714 1
1714 2324 1
2324 1714 1
1715 1948 1
1948 1715 1
1715 2092 1
2092 1715 1
1715 2325 1
2325 1715 1
1716 1717 1
1717 1716 1
1716 1718 1
1718 1716 1
1716 1719 1
1719 1716 1
1716 1949 1
1949 1716 1
1716 2093 1
2093 1716 1
1716 2326 1
2326 1716 1
1717 1720 1
1720 1717 1
1717 1950 1
1950 1717 1
1717 2094 1
2094 1717 1
1717 2327 1
2327 1717 1
1718 1951 1
1951 1718 1
1718 2095 1
2095 1718 1
1718 2328 1
2328 1718 1
1719 1720 1
1720 1719 1
1719 1952 1
1952 1719 1
1719 2096 1
2096 1719 1
1719 2329 1
2329 1719 1
1720 1953 1
1953 1720 1
1720 2097 1
2097 1720 1
1720 2330 1
2330 1720 1
1721 1722 1
1722 1721 1
1721 1723 1
1723 1721 1
1721 1724 1
1724 1721 1
1721 1726 1
1726 1721 1
1721 1729 1
1729 1721 1
1721 1734 1
1734 1721 1
1721 1954 1
1954 1721 1
1721 2098 1
2098 1721 1
1721 2331 1
2331 1721 1
1722 1725 1
1725 1722 1
1722 1727 1
1727 1722 1
1722 1730 1
1730 1722 1
1722 1735 1
1735 1722 1
1722 1955 1
1955 1722 1
1722 2099 1
2099 1722 1
1722 2332 1
2332 1722 1
1723 1728 1
1728 1723 1
1723 1731 1
1731 1723 1
1723 1736 1
1736 1723 1
1723 1956 1
1956 1723 1
1723 2100 1
2100 1723 1
1723 2333 1
2333 1723 1
1724 1725 1
1725 1724 1
1724 1732 1
1732 1724 1
1724 1737 1
1737 1724 1
1724 1957 1
1957 1724 1
1724 2101 1
2101 1724 1
1724 2334 1
2334 1724 1
1725 1733 1
1733 1725 1
1725 1738 1
1738 1725 1
1725 1958 1
1958 1725 1
1725 2102 1
2102 1725 1
1725 2335 1
2335 1725 1
1726 1727 1
1727 1726 1
1726 1728 1
1728 1726 1
1726 1739 1
1739 1726 1
1726 1959 1
1959 1726 1
1726 2103 1
2103 1726 1
1726 2336 1
2336 1726 1
1727 1740 1
1740 1727 1
1727 1960 1
1960 1727 1
1727 2104 1
2104 1727 1
1727 2337 1
2337 1727 1
1728 1741 1
1741 1728 1
1728 1961 1
1961 1728 1
1728 2105 1
2105 1728 1
1728 2338 1
2338 1728 1
1729 1730 1
1730 1729 1
1729 1731 1
1731 1729 1
1729 1732 1
1732 1729 1
1729 1962 1
1962 1729 1
1729 2106 1
2106 1729 1
1729 2339 1
2339 1729 1
1730 1733 1
1733 1730 1
1730 1963 1
1963 1730 1
1730 2107 1
2107 1730 1
1730 2340 1
2340 1730 1
1731 1964 1
1964 1731 1
1731 2108 1
2108 1731 1
1731 2341 1
2341 1731 1
1732 1733 1
1733 1732 1
1732 1965 1
1965 1732 1
1732 2109 1
2109 1732 1
1732 2342 1
2342 1732 1
1733 1966 1
1966 1733 1
1733 2110 1
2110 1733 1
1733 2343 1
2343 1733 1
1734 1735 1
1735 1734 1
1734 1736 1
1736 1734 1
1734 1737 1
1737 1734 1
1734 1739 1
1739 1734 1
1734 1967 1
1967 1734 1
1734 2111 1
2111 1734 1
1734 2344 1
2344 1734 1
1735 1738 1
1738 1735 1
1735 1740 1
1740 1735 1
1735 1968 1
1968 1735 1
1735 2112 1
2112 1735 1
1735 2345 1
2345 1735 1
1736 1741 1
1741 1736 1
1736 1969 1
1969 1736 1
1736 2113 1
2113 1736 1
1736 2346 1
2346 1736 1
1737 1738 1
1738 1737 1
1737 1970 1
1970 1737 1
1737 2114 1
2114 1737 1
1737 2347 1
2347 1737 1
1738 1971 1
1971 1738 1
1738 2115 1
2115 1738 1
1738 2348 1
2348 1738 1
1739 1740 1
1740 1739 1
1739 1741 1
1741 1739 1
1739 1972 1
1972 1739 1
1739 2116 1
2116 1739 1
1739 2349 1
2349 1739 1
1740 1973 1
1973 1740 1
1740 2117 1
2117 1740 1
1740 2350 1
2350 1740 1
1741 1974 1
1974 1741 1
1741 2118 1
2118 1741 1
1741 2351 1
2351 1741 1
1742 1743 1
1743 1742 1
1742 1744 1
1744 1742 1
1742 1745 1
1745 1742 1
1742 1747 1
1747 1742 1
1742 1750 1
1750 1742 1
1742 1755 1
1755 1742 1
1742 1763 1
1763 1742 1
1742 1776 1
1776 1742 1
1742 1797 1
1797 1742 1
1742 2119 1
2119 1742 1
1742 2352 1
2352 1742 1
1743 1746 1
1746 1743 1
1743 1748 1
1748 1743 1
1743 1751 1
1751 1743 1
1743 1756 1
1756 1743 1
1743 1764 1
1764 1743 1
1743 1777 1
1777 1743 1
1743 1798 1
1798 1743 1
1743 2120 1
2120 1743 1
1743 2353 1
2353 1743 1
1744 1749 1
1749 1744 1
1744 1752 1
1752 1744 1
1744 1757 1
1757 1744 1
1744 1765 1
1765 1744 1
1744 1778 1
1778 1744 1
1744 1799 1
1799 1744 1
1744 2121 1
2121 1744 1
1744 2354 1
2354 1744 1
1745 1746 1
1746 1745 1
1745 1753 1
1753 1745 1
1745 1758 1
1758 1745 1
1745 1766 1
1766 1745 1
1745 1779 1
1779 1745 1
1745 1800 1
1800 1745 1
1745 2122 1
2122 1745 1
1745 2355 1
2355 1745 1
1746 1754 1
1754 1746 1
1746 1759 1
1759 1746 1
1746 1767 1
1767 1746 1
1746 1780 1
1780 1746 1
1746 1801 1
1801 1746 1
1746 2123 1
2123 1746 1
1746 2356 1
2356 1746 1
1747 1748 1
1748 1747 1
1747 1749 1
1749 1747 1
1747 1760 1
1760 1747 1
1747 1768 1
1768 1747 1
1747 1781 1
1781 1747 1
1747 1802 1
1802 1747 1
1747 2124 1
2124 1747 1
1747 2357 1
2357 1747 1
1748 1761 1
1761 1748 1
1748 1769 1
1769 1748 1
1748 1782 1
1782 1748 1
1748 1803 1
1803 1748 1
1748 2125 1
2125 1748 1
1748 2358 1
2358 1748 1
1749 1762 1
1762 1749 1
1749 1770 1
1770 1749 1
1749 1783 1
1783 1749 1
1749 1804 1
1804 1749 1
1749 2126 1
2126 1749 1
1749 2359 1
2359 1749 1
1750 1751 1
1751 1750 1
1750 1752 1
1752 1750 1
1750 1753 1
1753 1750 1
1750 1771 1
1771 1750 1
1750 1784 1
1784 1750 1
1750 1805 1
1805 1750 1
1750 2127 1
2127 1750 1
1750 2360 1
2360 1750 1
1751 1754 1
1754 1751 1
1751 1772 1
1772 1751 1
1751 1785 1
1785 1751 1
1751 1806 1
1806 1751 1
1751 2128 1
2128 1751 1
1751 2361 1
2361 1751 1
1752 1773 1
1773 1752 1
1752 1786 1
1786 1752 1
1752 1807 1
1807 1752 1
1752 2129 1
2129 1752 1
1752 2362 1
2362 1752 1
1753 1754 1
1754 1753 1
1753 1774 1
1774 1753 1
1753 1787 1
1787 1753 1
1753 1808 1
1808 1753 1
1753 2130 1
2130 1753 1
1753 2363 1
2363 1753 1
1754 1775 1
1775 1754 1
1754 1788 1
1788 1754 1
1754 1809 1
1809 1754 1
1754 2131 1
2131 1754 1
1754 2364 1
2364 1754 1
1755 1756 1
1756 1755 1
1755 1757 1
1757 1755 1
1755 1758 1
1758 1755 1
1755 1760 1
1760 1755 1
1755 1789 1
1789 1755 1
1755 1810 1
1810 1755 1
1755 2132 1
2132 1755 1
1755 2365 1
2365 1755 1
1756 1759 1
1759 1756 1
1756 1761 1
1761 1756 1
1756 1790 1
1790 1756 1
1756 1811 1
1811 1756 1
1756 2133 1
2133 1756 1
1756 2366 1
2366 1756 1
1757 1762 1
1762 1757 1
1757 1791 1
1791 1757 1
1757 1812 1
1812 1757 1
1757 2134 1
2134 1757 1
1757 2367 1
2367 1757 1
1758 1759 1
1759 1758 1
1758 1792 1
1792 1758 1
1758 1813 1
1813 1758 1
1758 2135 1
2135 1758 1
1758 2368 1
2368 1758 1
1759 1793 1
1793 1759 1
1759 1814 1
1814 1759 1
1759 2136 1
2136 1759 1
1759 2369 1
2369 1759 1
1760 1761 1
1761 1760 1
1760 1762 1
1762 1760 1
1760 1794 1
1794 1760 1
1760 1815 1
1815 1760 1
1760 2137 1
2137 1760 1
1760 2370 1
2370 1760 1
1761 1795 1
1795 1761 1
1761 1816 1
1816 1761 1
1761 2138 1
2138 1761 1
1761 2371 1
2371 1761 1
1762 1796 1
1796 1762 1
1762 1817 1
1817 1762 1
1762 2139 1
2139 1762 1
1762 2372 1
2372 1762 1
1763 1764 1
1764 1763 1
1763 1765 1
1765 1763 1
1763 1766 1
1766 1763 1
1763 1768 1
1768 1763 1
1763 1771 1
1771 1763 1
1763 1818 1
1818 1763 1
1763 2140 1
2140 1763 1
1763 2373 1
2373 1763 1
1764 1767 1
1767 1764 1
1764 1769 1
1769 1764 1
1764 1772 1
1772 1764 1
1764 1819 1
1819 1764 1
1764 2141 1
2141 1764 1
1764 2374 1
2374 1764 1
1765 1770 1
1770 1765 1
1765 1773 1
1773 1765 1
1765 1820 1
1820 1765 1
1765 2142 1
2142 1765 1
1765 2375 1
2375 1765 1
1766 1767 1
1767 1766 1
1766 1774 1
1774 1766 1
1766 1821 1
1821 1766 1
1766 2143 1
2143 1766 1
1766 2376 1
2376 1766 1
1767 1775 1
1775 1767 1
1767 1822 1
1822 1767 1
1767 2144 1
2144 1767 1
1767 2377 1
2377 1767 1
1768 1769 1
1769 1768 1
1768 1770 1
1770 1768 1
1768 1823 1
1823 1768 1
1768 2145 1
2145 1768 1
1768 2378 1
2378 1768 1
1769 1824 1
1824 1769 1
1769 2146 1
2146 1769 1
1769 2379 1
2379 1769 1
1770 1825 1
1825 1770 1
1770 2147 1
2147 1770 1
1770 2380 1
2380 1770 1
1771 1772 1
1772 1771 1
1771 1773 1
1773 1771 1
1771 1774 1
1774 1771 1
1771 1826 1
1826 1771 1
1771 2148 1
2148 1771 1
1771 2381 1
2381 1771 1
1772 1775 1
1775 1772 1
1772 1827 1
1827 1772 1
1772 2149 1
2149 1772 1
1772 2382 1
2382 1772 1
1773 1828 1
1828 1773 1
1773 2150 1
2150 1773 1
1773 2383 1
2383 1773 1
1774 1775 1
1775 1774 1
1774 1829 1
1829 1774 1
1774 2151 1
2151 1774 1
1774 2384 1
2384 1774 1
1775 1830 1
1830 1775 1
1775 2152 1
2152 1775 1
1775 2385 1
2385 1775 1
1776 1777 1
1777 1776 1
1776 1778 1
1778 1776 1
1776 1779 1
1779 1776 1
1776 1781 1
1781 1776 1
1776 1784 1
1784 1776 1
1776 1789 1
1789 1776 1
1776 2153 1
2153 1776 1
1776 2386 1
2386 1776 1
1777 1780 1
1780 1777 1
1777 1782 1
1782 1777 1
1777 1785 1
1785 1777 1
1777 1790 1
1790 1777 1
1777 2154 1
2154 1777 1
1777 2387 1
2387 1777 1
1778 1783 1
1783 1778 1
1778 1786 1
1786 1778 1
1778 1791 1
1791 1778 1
1778 2155 1
2155 1778 1
1778 2388 1
2388 1778 1
1779 1780 1
1780 1779 1
1779 1787 1
1787 1779 1
1779 1792 1
1792 1779 1
1779 2156 1
2156 1779 1
1779 2389 1
2389 1779 1
1780 1788 1
1788 1780 1
1780 1793 1
1793 1780 1
1780 2157 1
2157 1780 1
1780 2390 1
2390 1780 1
1781 1782 1
1782 1781 1
1781 1783 1
1783 1781 1
1781 1794 1
1794 1781 1
1781 2158 1
2158 1781 1
1781 2391 1
2391 1781 1
1782 1795 1
1795 1782 1
1782 2159 1
2159 1782 1
1782 2392 1
2392 1782 1
1783 1796 1
1796 1783 1
1783 2160 1
2160 1783 1
1783 2393 1
2393 1783 1
1784 1785 1
1785 1784 1
1784 1786 1
1786 1784 1
1784 1787 1
1787 1784 1
1784 2161 1
2161 1784 1
1784 2394 1
2394 1784 1
1785 1788 1
1788 1785 1
1785 2162 1
2162 1785 1
1785 2395 1
2395 1785 1
1786 2163 1
2163 1786 1
1786 2396 1
2396 1786 1
1787 1788 1
1788 1787 1
1787 2164 1
2164 1787 1
1787 2397 1
2397 1787 1
1788 2165 1
2165 1788 1
1788 2398 1
2398 1788 1
1789 1790 1
1790 1789 1
1789 1791 1
1791 1789 1
1789 1792 1
1792 1789 1
1789 1794 1
1794 1789 1
1789 2166 1
2166 1789 1
1789 2399 1
2399 1789 1
1790 1793 1
1793 1790 1
1790 1795 1
1795 1790 1
1790 2167 1
2167 1790 1
1790 2400 1
2400 1790 1
1791 1796 1
1796 1791 1
1791 2168 1
2168 1791 1
1791 2401 1
2401 1791 1
1792 1793 1
1793 1792 1
1792 2169 1
2169 1792 1
1792 2402 1
2402 1792 1
1793 2170 1
2170 1793 1
1793 2403 1
2403 1793 1
1794 1795 1
1795 1794 1
1794 1796 1
1796 1794 1
1794 2171 1
2171 1794 1
1794 2404 1
2404 1794 1
1795 2172 1
2172 1795 1
1795 2405 1
2405 1795 1
1796 2173 1
2173 1796 1
1796 2406 1
2406 1796 1
1797 1798 1
1798 1797 1
1797 1799 1
1799 1797 1
1797 1800 1
1800 1797 1
1797 1802 1
1802 1797 1
1797 1805 1
1805 1797 1
1797 1810 1
1810 1797 1
1797 1818 1
1818 1797 1
1797 2174 1
2174 1797 1
1797 2407 1
2407 1797 1
1798 1801 1
1801 1798 1
1798 1803 1
1803 1798 1
1798 1806 1
1806 1798 1
1798 1811 1
1811 1798 1
1798 1819 1
1819 1798 1
1798 2175 1
2175 1798 1
1798 2408 1
2408 1798 1
1799 1804 1
1804 1799 1
1799 1807 1
1807 1799 1
1799 1812 1
1812 1799 1
1799 1820 1
1820 1799 1
1799 2176 1
2176 1799 1
1799 2409 1
2409 1799 1
1800 1801 1
1801 1800 1
1800 1808 1
1808 1800 1
1800 1813 1
1813 1800 1
1800 1821 1
1821 1800 1
1800 2177 1
2177 1800 1
1800 2410 1
2410 1800 1
1801 1809 1
1809 1801 1
1801 1814 1
1814 1801 1
1801 1822 1
1822 1801 1
1801 2178 1
2178 1801 1
1801 2411 1
2411 1801 1
1802 1803 1
1803 1802 1
1802 1804 1
1804 1802 1
1802 1815 1
1815 1802 1
1802 1823 1
1823 1802 1
1802 2179 1
2179 1802 1
1802 2412 1
2412 1802 1
1803 1816 1
1816 1803 1
1803 1824 1
1824 1803 1
1803 2180 1
2180 1803 1
1803 2413 1
2413 1803 1
1804 1817 1
1817 1804 1
1804 1825 1
1825 1804 1
1804 2181 1
2181 1804 1
1804 2414 1
2414 1804 1
1805 1806 1
1806 1805 1
1805 1807 1
1807 1805 1
1805 1808 1
1808 1805 1
1805 1826 1
1826 1805 1
1805 2182 1
2182 1805 1
1805 2415 1
2415 1805 1
1806 1809 1
1809 1806 1
1806 1827 1
1827 1806 1
1806 2183 1
2183 1806 1
1806 2416 1
2416 1806 1
1807 1828 1
1828 1807 1
1807 2184 1
2184 1807 1
1807 2417 1
2417 1807 1
1808 1809 1
1809 1808 1
1808 1829 1
1829 1808 1
1808 2185 1
2185 1808 1
1808 2418 1
2418 1808 1
1809 1830 1
1830 1809 1
1809 2186 1
2186 1809 1
1809 2419 1
2419 1809 1
1810 1811 1
1811 1810 1
1810 1812 1
1812 1810 1
1810 1813 1
1813 1810 1
1810 1815 1
1815 1810 1
1810 2187 1
2187 1810 1
1810 2420 1
2420 1810 1
1811 1814 1
1814 1811 1
1811 1816 1
1816 1811 1
1811 2188 1
2188 1811 1
1811 2421 1
2421 1811 1
1812 1817 1
1817 1812 1
1812 2189 1
2189 1812 1
1812 2422 1
2422 1812 1
1813 1814 1
1814 1813 1
1813 2190 1
2190 1813 1
1813 2423 1
2423 1813 1
1814 2191 1
2191 1814 1
1814 2424 1
2424 1814 1
1815 1816 1
1816 1815 1
1815 1817 1
1817 1815 1
1815 2192 1
2192 1815 1
1815 2425 1
2425 1815 1
1816 2193 1
2193 1816 1
1816 2426 1
2426 1816 1
1817 2194 1
2194 1817 1
1817 2427 1
2427 1817 1
1818 1819 1
1819 1818 1
1818 1820 1
1820 1818 1
1818 1821 1
1821 1818 1
1818 1823 1
1823 1818 1
1818 1826 1
1826 1818 1
1818 2195 1
2195 1818 1
1818 2428 1
2428 1818 1
1819 1822 1
1822 1819 1
1819 1824 1
1824 1819 1
1819 1827 1
1827 1819 1
1819 2196 1
2196 1819 1
1819 2429 1
2429 1819 1
1820 1825 1
1825 1820 1
1820 1828 1
1828 1820 1
1820 2197 1
2197 1820 1
1820 2430 1
2430 1820 1
1821 1822 1
1822 1821 1
1821 1829 1
1829 1821 1
1821 2198 1
2198 1821 1
1821 2431 1
2431 1821 1
1822 1830 1
1830 1822 1
1822 2199 1
2199 1822 1
1822 2432 1
2432 1822 1
1823 1824 1
1824 1823 1
1823 1825 1
1825 1823 1
1823 2200 1
2200 1823 1
1823 2433 1
2433 1823 1
1824 2201 1
2201 1824 1
1824 2434 1
2434 1824 1
1825 2202 1
2202 1825 1
1825 2435 1
2435 1825 1
1826 1827 1
1827 1826 1
1826 1828 1
1828 1826 1
1826 1829 1
1829 1826 1
1826 2203 1
2203 1826 1
1826 2436 1
2436 1826 1
1827 1830 1
1830 1827 1
1827 2204 1
2204 1827 1
1827 2437 1
2437 1827 1
1828 2205 1
2205 1828 1
1828 2438 1
2438 1828 1
1829 1830 1
1830 1829 1
1829 2206 1
2206 1829 1
1829 2439 1
2439 1829 1
1830 2207 1
2207 1830 1
1830 2440 1
2440 1830 1
1831 1832 1
1832 1831 1
1831 1833 1
1833 1831 1
1831 1834 1
1834 1831 1
1831 1836 1
1836 1831 1
1831 1839 1
1839 1831 1
1831 1844 1
1844 1831 1
1831 1852 1
1852 1831 1
1831 1865 1
1865 1831 1
1831 1886 1
1886 1831 1
1831 1920 1
1920 1831 1
1831 2441 1
2441 1831 1
1832 1835 1
1835 1832 1
1832 1837 1
1837 1832 1
1832 1840 1
1840 1832 1
1832 1845 1
1845 1832 1
1832 1853 1
1853 1832 1
1832 1866 1
1866 1832 1
1832 1887 1
1887 1832 1
1832 1921 1
1921 1832 1
1832 2442 1
2442 1832 1
1833 1838 1
1838 1833 1
1833 1841 1
1841 1833 1
1833 1846 1
1846 1833 1
1833 1854 1
1854 1833 1
1833 1867 1
1867 1833 1
1833 1888 1
1888 1833 1
1833 1922 1
1922 1833 1
1833 2443 1
2443 1833 1
1834 1835 1
1835 1834 1
1834 1842 1
1842 1834 1
1834 1847 1
1847 1834 1
1834 1855 1
1855 1834 1
1834 1868 1
1868 1834 1
1834 1889 1
1889 1834 1
1834 1923 1
1923 1834 1
1834 2444 1
2444 1834 1
1835 1843 1
1843 1835 1
1835 1848 1
1848 1835 1
1835 1856 1
1856 1835 1
1835 1869 1
1869 1835 1
1835 1890 1
1890 1835 1
1835 1924 1
1924 1835 1
1835 2445 1
2445 1835 1
1836 1837 1
1837 1836 1
1836 1838 1
1838 1836 1
1836 1849 1
1849 1836 1
1836 1857 1
1857 1836 1
1836 1870 1
1870 1836 1
1836 1891 1
1891 1836 1
1836 1925 1
1925 1836 1
1836 2446 1
2446 1836 1
1837 1850 1
1850 1837 1
1837 1858 1
1858 1837 1
1837 1871 1
1871 1837 1
1837 1892 1
1892 1837 1
1837 1926 1
1926 1837 1
1837 2447 1
2447 1837 1
1838 1851 1
1851 1838 1
1838 1859 1
1859 1838 1
1838 1872 1
1872 1838 1
1838 1893 1
1893 1838 1
1838 1927 1
1927 1838 1
1838 2448 1
2448 1838 1
1839 1840 1
1840 1839 1
1839 1841 1
1841 1839 1
1839 1842 1
1842 1839 1
1839 1860 1
1860 1839 1
1839 1873 1
1873 1839 1
1839 1894 1
1894 1839 1
1839 1928 1
1928 1839 1
1839 2449 1
2449 1839 1
1840 1843 1
1843 1840 1
1840 1861 1
1861 1840 1
1840 1874 1
1874 1840 1
1840 1895 1
1895 1840 1
1840 1929 1
1929 1840 1
1840 2450 1
2450 1840 1
1841 1862 1
1862 1841 1
1841 1875 1
1875 1841 1
1841 1896 1
1896 1841 1
1841 1930 1
1930 1841 1
1841 2451 1
2451 1841 1
1842 1843 1
1843 1842 1
1842 1863 1
1863 1842 1
1842 1876 1
1876 1842 1
1842 1897 1
1897 1842 1
1842 1931 1
1931 1842 1
1842 2452 1
2452 1842 1
1843 1864 1
1864 1843 1
1843 1877 1
1877 1843 1
1843 1898 1
1898 1843 1
1843 1932 1
1932 1843 1
1843 2453 1
2453 1843 1
1844 1845 1
1845 1844 1
1844 1846 1
1846 1844 1
1844 1847 1
1847 1844 1
1844 1849 1
1849 1844 1
1844 1878 1
1878 1844 1
1844 1899 1
1899 1844 1
1844 1933 1
1933 1844 1
1844 2454 1
2454 1844 1
1845 1848 1
1848 1845 1
1845 1850 1
1850 1845 1
1845 1879 1
1879 1845 1
1845 1900 1
1900 1845 1
1845 1934 1
1934 1845 1
1845 2455 1
2455 1845 1
1846 1851 1
1851 1846 1
1846 1880 1
1880 1846 1
1846 1901 1
1901 1846 1
1846 1935 1
1935 1846 1
1846 2456 1
2456 1846 1
1847 1848 1
1848 1847 1
1847 1881 1
1881 1847 1
1847 1902 1
1902 1847 1
1847 1936 1
1936 1847 1
1847 2457 1
2457 1847 1
1848 1882 1
1882 1848 1
1848 1903 1
1903 1848 1
1848 1937 1
1937 1848 1
1848 2458 1
2458 1848 1
1849 1850 1
1850 1849 1
1849 1851 1
1851 1849 1
1849 1883 1
1883 1849 1
1849 1904 1
1904 1849 1
1849 1938 1
1938 1849 1
1849 2459 1
2459 1849 1
1850 1884 1
1884 1850 1
1850 1905 1
1905 1850 1
1850 1939 1
1939 1850 1
1850 2460 1
2460 1850 1
1851 1885 1
1885 1851 1
1851 1906 1
1906 1851 1
1851 1940 1
1940 1851 1
1851 2461 1
2461 1851 1
1852 1853 1
1853 1852 1
1852 1854 1
1854 1852 1
1852 1855 1
1855 1852 1
1852 1857 1
1857 1852 1
1852 1860 1
1860 1852 1
1852 1907 1
1907 1852 1
1852 1941 1
1941 1852 1
1852 2462 1
2462 1852 1
1853 1856 1
1856 1853 1
1853 1858 1
1858 1853 1
1853 1861 1
1861 1853 1
1853 1908 1
1908 1853 1
1853 1942 1
1942 1853 1
1853 2463 1
2463 1853 1
1854 1859 1
1859 1854 1
1854 1862 1
1862 1854 1
1854 1909 1
1909 1854 1
1854 1943 1
1943 1854 1
1854 2464 1
2464 1854 1
1855 1856 1
1856 1855 1
1855 1863 1
1863 1855 1
1855 1910 1
1910 1855 1
1855 1944 1
1944 1855 1
1855 2465 1
2465 1855 1
1856 1864 1
1864 1856 1
1856 1911 1
1911 1856 1
1856 1945 1
1945 1856 1
1856 2466 1
2466 1856 1
1857 1858 1
1858 1857 1
1857 1859 1
1859 1857 1
1857 1912 1
1912 1857 1
1857 1946 1
1946 1857 1
1857 2467 1
2467 1857 1
1858 1913 1
1913 1858 1
1858 1947 1
1947 1858 1
1858 2468 1
2468 1858 1
1859 1914 1
1914 1859 1
1859 1948 1
1948 1859 1
1859 2469 1
2469 1859 1
1860 1861 1
1861 1860 1
1860 1862 1
1862 1860 1
1860 1863 1
1863 1860 1
1860 1915 1
1915 1860 1
1860 1949 1
1949 1860 1
1860 2470 1
2470 1860 1
1861 1864 1
1864 1861 1
1861 1916 1
1916 1861 1
1861 1950 1
1950 1861 1
1861 2471 1
2471 1861 1
1862 1917 1
1917 1862 1
1862 1951 1
1951 1862 1
1862 2472 1
2472 1862 1
1863 1864 1
1864 1863 1
1863 1918 1
1918 1863 1
1863 1952 1
1952 1863 1
1863 2473 1
2473 1863 1
1864 1919 1
1919 1864 1
1864 1953 1
1953 1864 1
1864 2474 1
2474 1864 1
1865 1866 1
1866 1865 1
1865 1867 1
1867 1865 1
1865 1868 1
1868 1865 1
1865 1870 1
1870 1865 1
1865 1873 1
1873 1865 1
1865 1878 1
1878 1865 1
1865 1954 1
1954 1865 1
1865 2475 1
2475 1865 1
1866 1869 1
1869 1866 1
1866 1871 1
1871 1866 1
1866 1874 1
1874 1866 1
1866 1879 1
1879 1866 1
1866 1955 1
1955 1866 1
1866 2476 1
2476 1866 1
1867 1872 1
1872 1867 1
1867 1875 1
1875 1867 1
1867 1880 1
1880 1867 1
1867 1956 1
1956 1867 1
1867 2477 1
2477 1867 1
1868 1869 1
1869 1868 1
1868 1876 1
1876 1868 1
1868 1881 1
1881 1868 1
1868 1957 1
1957 1868 1
1868 2478 1
2478 1868 1
1869 1877 1
1877 1869 1
1869 1882 1
1882 1869 1
1869 1958 1
1958 1869 1
1869 2479 1
2479 1869 1
1870 1871 1
1871 1870 1
1870 1872 1
1872 1870 1
1870 1883 1
1883 1870 1
1870 1959 1
1959 1870 1
1870 2480 1
2480 1870 1
1871 1884 1
1884 1871 1
1871 1960 1
1960 1871 1
1871 2481 1
2481 1871 1
1872 1885 1
1885 1872 1
1872 1961 1
1961 1872 1
1872 2482 1
2482 1872 1
1873 1874 1
1874 1873 1
1873 1875 1
1875 1873 1
1873 1876 1
1876 1873 1
1873 1962 1
1962 1873 1
1873 2483 1
2483 1873 1
1874 1877 1
1877 1874 1
1874 1963 1
1963 1874 1
1874 2484 1
2484 1874 1
1875 1964 1
1964 1875 1
1875 2485 1
2485 1875 1
1876 1877 1
1877 1876 1
1876 1965 1
1965 1876 1
1876 2486 1
2486 1876 1
1877 1966 1
1966 1877 1
1877 2487 1
2487 1877 1
1878 1879 1
1879 1878 1
1878 1880 1
1880 1878 1
1878 1881 1
1881 1878 1
1878 1883 1
1883 1878 1
1878 1967 1
1967 1878 1
1878 2488 1
2488 1878 1
1879 1882 1
1882 1879 1
1879 1884 1
1884 1879 1
1879 1968 1
1968 1879 1
1879 2489 1
2489 1879 1
1880 1885 1
1885 1880 1
1880 1969 1
1969 1880 1
1880 2490 1
2490 1880 1
1881 1882 1
1882 1881 1
1881 1970 1
1970 1881 1
1881 2491 1
2491 1881 1
1882 1971 1
1971 1882 1
1882 2492 1
2492 1882 1
1883 1884 1
1884 1883 1
1883 1885 1
1885 1883 1
1883 1972 1
1972 1883 1
1883 2493 1
2493 1883 1
1884 1973 1
1973 1884 1
1884 2494 1
2494 1884 1
1885 1974 1
1974 1885 1
1885 2495 1
2495 1885 1
1886 1887 1
1887 1886 1
1886 1888 1
1888 1886 1
1886 1889 1
1889 1886 1
1886 1891 1
1891 1886 1
1886 1894 1
1894 1886 1
1886 1899 1
1899 1886 1
1886 1907 1
1907 1886 1
1886 2496 1
2496 1886 1
1887 1890 1
1890 1887 1
1887 1892 1
1892 1887 1
1887 1895 1
1895 1887 1
1887 1900 1
1900 1887 1
1887 1908 1
1908 1887 1
1887 2497 1
2497 1887 1
1888 1893 1
1893 1888 1
1888 1896 1
1896 1888 1
1888 1901 1
1901 1888 1
1888 1909 1
1909 1888 1
1888 2498 1
2498 1888 1
1889 1890 1
1890 1889 1
1889 1897 1
1897 1889 1
1889 1902 1
1902 1889 1
1889 1910 1
1910 1889 1
1889 2499 1
2499 1889 1
1890 1898 1
1898 1890 1
1890 1903 1
1903 1890 1
1890 1911 1
1911 1890 1
1890 2500 1
2500 1890 1
1891 1892 1
1892 1891 1
1891 1893 1
1893 1891 1
1891 1904 1
1904 1891 1
1891 1912 1
1912 1891 1
1891 2501 1
2501 1891 1
1892 1905 1
1905 1892 1
1892 1913 1
1913 1892 1
1892 2502 1
2502 1892 1
1893 1906 1
1906 1893 1
1893 1914 1
1914 1893 1
1893 2503 1
2503 1893 1
1894 1895 1
1895 1894 1
1894 1896 1
1896 1894 1
1894 1897 1
1897 1894 1
1894 1915 1
1915 1894 1
1894 2504 1
2504 1894 1
1895 1898 1
1898 1895 1
1895 1916 1
1916 1895 1
1895 2505 1
2505 1895 1
1896 1917 1
1917 1896 1
1896 2506 1
2506 1896 1
1897 1898 1
1898 1897 1
1897 1918 1
1918 1897 1
1897 2507 1
2507 1897 1
1898 1919 1
1919 1898 1
1898 2508 1
2508 1898 1
1899 1900 1
1900 1899 1
1899 1901 1
1901 1899 1
1899 1902 1
1902 1899 1
1899 1904 1
1904 1899 1
1899 2509 1
2509 1899 1
1900 1903 1
1903 1900 1
1900 1905 1
1905 1900 1
1900 2510 1
2510 1900 1
1901 1906 1
1906 1901 1
1901 2511 1
2511 1901 1
1902 1903 1
1903 1902 1
1902 2512 1
2512 1902 1
1903 2513 1
2513 1903 1
1904 1905 1
1905 1904 1
1904 1906 1
1906 1904 1
1904 2514 1
2514 1904 1
1905 2515 1
2515 1905 1
1906 2516 1
2516 1906 1
1907 1908 1
1908 1907 1
1907 1909 1
1909 1907 1
1907 1910 1
1910 1907 1
1907 1912 1
1912 1907 1
1907 1915 1
1915 1907 1
1907 2517 1
2517 1907 1
1908 1911 1
1911 1908 1
1908 1913 1
1913 1908 1
1908 1916 1
1916 1908 1
1908 2518 1
2518 1908 1
1909 1914 1
1914 1909 1
1909 1917 1
1917 1909 1
1909 2519 1
2519 1909 1
1910 1911 1
1911 1910 1
1910 1918 1
1918 1910 1
1910 2520 1
2520 1910 1
1911 1919 1
1919 1911 1
1911 2521 1
2521 1911 1
1912 1913 1
1913 1912 1
1912 1914 1
1914 1912 1
1912 2522 1
2522 1912 1
1913 2523 1
2523 1913 1
1914 2524 1
2524 1914 1
1915 1916 1
1916 1915 1
1915 1917 1
1917 1915 1
1915 1918 1
1918 1915 1
1915 2525 1
2525 1915 1
1916 1919 1
1919 1916 1
1916 2526 1
2526 1916 1
1917 2527 1
2527 1917 1
1918 1919 1
1919 1918 1
1918 2528 1
2528 1918 1
1919 2529 1
2529 1919 1
1920 1921 1
1921 1920 1
1920 1922 1
1922 1920 1
1920 1923 1
1923 1920 1
1920 1925 1
1925 1920 1
1920 1928 1
1928 1920 1
1920 1933 1
1933 1920 1
1920 1941 1
1941 1920 1
1920 1954 1
1954 1920 1
1920 2530 1
2530 1920 1
1921 1924 1
1924 1921 1
1921 1926 1
1926 1921 1
1921 1929 1
1929 1921 1
1921 1934 1
1934 1921 1
1921 1942 1
1942 1921 1
1921 1955 1
1955 1921 1
1921 2531 1
2531 1921 1
1922 1927 1
1927 1922 1
1922 1930 1
1930 1922 1
1922 1935 1
1935 1922 1
1922 1943 1
1943 1922 1
1922 1956 1
1956 1922 1
1922 2532 1
2532 1922 1
1923 1924 1
1924 1923 1
1923 1931 1
1931 1923 1
1923 1936 1
1936 1923 1
1923 1944 1
1944 1923 1
1923 1957 1
1957 1923 1
1923 2533 1
2533 1923 1
1924 1932 1
1932 1924 1
1924 1937 1
1937 1924 1
1924 1945 1
1945 1924 1
1924 1958 1
1958 1924 1
1924 2534 1
2534 1924 1
1925 1926 1
1926 1925 1
1925 1927 1
1927 1925 1
1925 1938 1
1938 1925 1
1925 1946 1
1946 1925 1
1925 1959 1
1959 1925 1
1925 2535 1
2535 1925 1
1926 1939 1
1939 1926 1
1926 1947 1
1947 1926 1
1926 1960 1
1960 1926 1
1926 2536 1
2536 1926 1
1927 1940 1
1940 1927 1
1927 1948 1
1948 1927 1
1927 1961 1
1961 1927 1
1927 2537 1
2537 1927 1
1928 1929 1
1929 1928 1
1928 1930 1
1930 1928 1
1928 1931 1
1931 1928 1
1928 1949 1
1949 1928 1
1928 1962 1
1962 1928 1
1928 2538 1
2538 1928 1
1929 1932 1
1932 1929 1
1929 1950 1
1950 1929 1
1929 1963 1
1963 1929 1
1929 2539 1
2539 1929 1
1930 1951 1
1951 1930 1
1930 1964 1
1964 1930 1
1930 2540 1
2540 1930 1
1931 1932 1
1932 1931 1
1931 1952 1
1952 1931 1
1931 1965 1
1965 1931 1
1931 2541 1
2541 1931 1
1932 1953 1
1953 1932 1
1932 1966 1
1966 1932 1
1932 2542 1
2542 1932 1
1933 1934 1
1934 1933 1
1933 1935 1
1935 1933 1
1933 1936 1
1936 1933 1
1933 1938 1
1938 1933 1
1933 1967 1
1967 1933 1
1933 2543 1
2543 1933 1
1934 1937 1
1937 1934 1
1934 1939 1
1939 1934 1
1934 1968 1
1968 1934 1
1934 2544 1
2544 1934 1
1935 1940 1
1940 1935 1
1935 1969 1
1969 1935 1
1935 2545 1
2545 1935 1
1936 1937 1
1937 1936 1
1936 1970 1
1970 1936 1
1936 2546 1
2546 1936 1
1937 1971 1
1971 1937 1
1937 2547 1
2547 1937 1
1938 1939 1
1939 1938 1
1938 1940 1
1940 1938 1
1938 1972 1
1972 1938 1
1938 2548 1
2548 1938 1
1939 1973 1
1973 1939 1
1939 2549 1
2549 1939 1
1940 1974 1
1974 1940 1
1940 2550 1
2550 1940 1
1941 1942 1
1942 1941 1
1941 1943 1
1943 1941 1
1941 1944 1
1944 1941 1
1941 1946 1
1946 1941 1
1941 1949 1
1949 1941 1
1941 2551 1
2551 1941 1
1942 1945 1
1945 1942 1
1942 1947 1
1947 1942 1
1942 1950 1
1950 1942 1
1942 2552 1
2552 1942 1
1943 1948 1
1948 1943 1
1943 1951 1
1951 1943 1
1943 2553 1
2553 1943 1
1944 1945 1
1945 1944 1
1944 1952 1
1952 1944 1
1944 2554 1
2554 1944 1
1945 1953 1
1953 1945 1
1945 2555 1
2555 1945 1
1946 1947 1
1947 1946 1
1946 1948 1
1948 1946 1
1946 2556 1
2556 1946 1
1947 2557 1
2557 1947 1
1948 2558 1
2558 1948 1
1949 1950 1
1950 1949 1
1949 1951 1
1951 1949 1
1949 1952 1
1952 1949 1
1949 2559 1
2559 1949 1
1950 1953 1
1953 1950 1
1950 2560 1
2560 1950 1
1951 2561 1
2561 1951 1
1952 1953 1
1953 1952 1
1952 2562 1
2562 1952 1
1953 2563 1
2563 1953 1
1954 1955 1
1955 1954 1
1954 1956 1
1956 1954 1
1954 1957 1
1957 1954 1
1954 1959 1
1959 1954 1
1954 1962 1
1962 1954 1
1954 1967 1
1967 1954 1
1954 2564 1
2564 1954 1
1955 1958 1
1958 1955 1
1955 1960 1
1960 1955 1
1955 1963 1
1963 1955 1
1955 1968 1
1968 1955 1
1955 2565 1
2565 1955 1
1956 1961 1
1961 1956 1
1956 1964 1
1964 1956 1
1956 1969 1
1969 1956 1
1956 2566 1
2566 1956 1
1957 1958 1
1958 1957 1
1957 1965 1
1965 1957 1
1957 1970 1
1970 1957 1
1957 2567 1
2567 1957 1
1958 1966 1
1966 1958 1
1958 1971 1
1971 1958 1
1958 2568 1
2568 1958 1
1959 1960 1
1960 1959 1
1959 1961 1
1961 1959 1
1959 1972 1
1972 1959 1
1959 2569 1
2569 1959 1
1960 1973 1
1973 1960 1
1960 2570 1
2570 1960 1
1961 1974 1
1974 1961 1
1961 2571 1
2571 1961 1
1962 1963 1
1963 1962 1
1962 1964 1
1964 1962 1
1962 1965 1
1965 1962 1
1962 2572 1
2572 1962 1
1963 1966 1
1966 1963 1
1963 2573 1
2573 1963 1
1964 2574 1
2574 1964 1
1965 1966 1
1966 1965 1
1965 2575 1
2575 1965 1
1966 2576 1
2576 1966 1
1967 1968 1
1968 1967 1
1967 1969 1
1969 1967 1
1967 1970 1
1970 1967 1
1967 1972 1
1972 1967 1
1967 2577 1
2577 1967 1
1968 1971 1
1971 1968 1
1968 1973 1
1973 1968 1
1968 2578 1
2578 1968 1
1969 1974 1
1974 1969 1
1969 2579 1
2579 1969 1
1970 1971 1
1971 1970 1
1970 2580 1
2580 1970 1
1971 2581 1
2581 1971 1
1972 1973 1
1973 1972 1
1972 1974 1
1974 1972 1
1972 2582 1
2582 1972 1
1973 2583 1
2583 1973 1
1974 2584 1
2584 1974 1
1975 1976 1
1976 1975 1
1975 1977 1
1977 1975 1
1975 1978 1
1978 1975 1
1975 1980 1
1980 1975 1
1975 1983 1
1983 1975 1
1975 1988 1
1988 1975 1
1975 1996 1
1996 1975 1
1975 2009 1
2009 1975 1
1975 2030 1
2030 1975 1
1975 2064 1
2064 1975 1
1975 2119 1
2119 1975 1
1976 1979 1
1979 1976 1
1976 1981 1
1981 1976 1
1976 1984 1
1984 1976 1
1976 1989 1
1989 1976 1
1976 1997 1
1997 1976 1
1976 2010 1
2010 1976 1
1976 2031 1
2031 1976 1
1976 2065 1
2065 1976 1
1976 2120 1
2120 1976 1
1977 1982 1
1982 1977 1
1977 1985 1
1985 1977 1
1977 1990 1
1990 1977 1
1977 1998 1
1998 1977 1
1977 2011 1
2011 1977 1
1977 2032 1
2032 1977 1
1977 2066 1
2066 1977 1
1977 2121 1
2121 1977 1
1978 1979 1
1979 1978 1
1978 1986 1
1986 1978 1
1978 1991 1
1991 1978 1
1978 1999 1
1999 1978 1
1978 2012 1
2012 1978 1
1978 2033 1
2033 1978 1
1978 2067 1
2067 1978 1
1978 2122 1
2122 1978 1
1979 1987 1
1987 1979 1
1979 1992 1
1992 1979 1
1979 2000 1
2000 1979 1
1979 2013 1
2013 1979 1
1979 2034 1
2034 1979 1
1979 2068 1
2068 1979 1
1979 2123 1
2123 1979 1
1980 1981 1
1981 1980 1
1980 1982 1
1982 1980 1
1980 1993 1
1993 1980 1
1980 2001 1
2001 1980 1
1980 2014 1
2014 1980 1
1980 2035 1
2035 1980 1
1980 2069 1
2069 1980 1
1980 2124 1
2124 1980 1
1981 1994 1
1994 1981 1
1981 2002 1
2002 1981 1
1981 2015 1
2015 1981 1
1981 2036 1
2036 1981 1
1981 2070 1
2070 1981 1
1981 2125 1
2125 1981 1
1982 1995 1
1995 1982 1
1982 2003 1
2003 1982 1
1982 2016 1
2016 1982 1
1982 2037 1
2037 1982 1
1982 2071 1
2071 1982 1
1982 2126 1
2126 1982 1
1983 1984 1
1984 1983 1
1983 1985 1
1985 1983 1
1983 1986 1
1986 1983 1
1983 2004 1
2004 1983 1
1983 2017 1
2017 1983 1
1983 2038 1
2038 1983 1
1983 2072 1
2072 1983 1
1983 2127 1
2127 1983 1
1984 1987 1
1987 1984 1
1984 2005 1
2005 1984 1
1984 2018 1
2018 1984 1
1984 2039 1
2039 1984 1
1984 2073 1
2073 1984 1
1984 2128 1
2128 1984 1
1985 2006 1
2006 1985 1
1985 2019 1
2019 1985 1
1985 2040 1
2040 1985 1
1985 2074 1
2074 1985 1
1985 2129 1
2129 1985 1
1986 1987 1
1987 1986 1
1986 2007 1
2007 1986 1
1986 2020 1
2020 1986 1
1986 2041 1
2041 1986 1
1986 2075 1
2075 1986 1
1986 2130 1
2130 1986 1
1987 2008 1
2008 1987 1
1987 2021 1
2021 1987 1
1987 2042 1
2042 1987 1
1987 2076 1
2076 1987 1
1987 2131 1
2131 1987 1
1988 1989 1
1989 1988 1
1988 1990 1
1990 1988 1
1988 1991 1
1991 1988 1
1988 1993 1
1993 1988 1
1988 2022 1
2022 1988 1
1988 2043 1
2043 1988 1
1988 2077 1
2077 1988 1
1988 2132 1
2132 1988 1
1989 1992 1
1992 1989 1
1989 1994 1
1994 1989 1
1989 2023 1
2023 1989 1
1989 2044 1
2044 1989 1
1989 2078 1
2078 1989 1
1989 2133 1
2133 1989 1
1990 1995 1
1995 1990 1
1990 2024 1
2024 1990 1
1990 2045 1
2045 1990 1
1990 2079 1
2079 1990 1
1990 2134 1
2134 1990 1
1991 1992 1
1992 1991 1
1991 2025 1
2025 1991 1
1991 2046 1
2046 1991 1
1991 2080 1
2080 1991 1
1991 2135 1
2135 1991 1
1992 2026 1
2026 1992 1
1992 2047 1
2047 1992 1
1992 2081 1
2081 1992 1
1992 2136 1
2136 1992 1
1993 1994 1
1994 1993 1
1993 1995 1
1995 1993 1
1993 2027 1
2027 1993 1
1993 2048 1
2048 1993 1
1993 2082 1
2082 1993 1
1993 2137 1
2137 1993 1
1994 2028 1
2028 1994 1
1994 2049 1
2049 1994 1
1994 2083 1
2083 1994 1
1994 2138 1
2138 1994 1
1995 2029 1
2029 1995 1
1995 2050 1
2050 1995 1
1995 2084 1
2084 1995 1
1995 2139 1
2139 1995 1
1996 1997 1
1997 1996 1
1996 1998 1
1998 1996 1
1996 1999 1
1999 1996 1
1996 2001 1
2001 1996 1
1996 2004 1
2004 1996 1
1996 2051 1
2051 1996 1
1996 2085 1
2085 1996 1
1996 2140 1
2140 1996 1
1997 2000 1
2000 1997 1
1997 2002 1
2002 1997 1
1997 2005 1
2005 1997 1
1997 2052 1
2052 1997 1
1997 2086 1
2086 1997 1
1997 2141 1
2141 1997 1
1998 2003 1
2003 1998 1
1998 2006 1
2006 1998 1
1998 2053 1
2053 1998 1
1998 2087 1
2087 1998 1
1998 2142 1
2142 1998 1
1999 2000 1
2000 1999 1
1999 2007 1
2007 1999 1
1999 2054 1
2054 1999 1
1999 2088 1
2088 1999 1
1999 2143 1
2143 1999 1
2000 2008 1
2008 2000 1
2000 2055 1
2055 2000 1
2000 2089 1
2089 2000 1
2000 2144 1
2144 2000 1
2001 2002 1
2002 2001 1
2001 2003 1
2003 2001 1
2001 2056 1
2056 2001 1
2001 2090 1
2090 2001 1
2001 2145 1
2145 2001 1
2002 2057 1
2057 2002 1
2002 2091 1
2091 2002 1
2002 2146 1
2146 2002 1
2003 2058 1
2058 2003 1
2003 2092 1
2092 2003 1
2003 2147 1
2147 2003 1
2004 2005 1
2005 2004 1
2004 2006 1
2006 2004 1
2004 2007 1
2007 2004 1
2004 2059 1
2059 2004 1
2004 2093 1
2093 2004 1
2004 2148 1
2148 2004 1
2005 2008 1
2008 2005 1
2005 2060 1
2060 2005 1
2005 2094 1
2094 2005 1
2005 2149 1
2149 2005 1
2006 2061 1
2061 2006 1
2006 2095 1
2095 2006 1
2006 2150 1
2150 2006 1
2007 2008 1
2008 2007 1
2007 2062 1
2062 2007 1
2007 2096 1
2096 2007 1
2007 2151 1
2151 2007 1
2008 2063 1
2063 2008 1
2008 2097 1
2097 2008 1
2008 2152 1
2152 2008 1
2009 2010 1
2010 2009 1
2009 2011 1
2011 2009 1
2009 2012 1
2012 2009 1
2009 2014 1
2014 2009 1
2009 2017 1
2017 2009 1
2009 2022 1
2022 2009 1
2009 2098 1
2098 2009 1
2009 2153 1
2153 2009 1
2010 2013 1
2013 2010 1
2010 2015 1
2015 2010 1
2010 2018 1
2018 2010 1
2010 2023 1
2023 2010 1
2010 2099 1
2099 2010 1
2010 2154 1
2154 2010 1
2011 2016 1
2016 2011 1
2011 2019 1
2019 2011 1
2011 2024 1
2024 2011 1
2011 2100 1
2100 2011 1
2011 2155 1
2155 2011 1
2012 2013 1
2013 2012 1
2012 2020 1
2020 2012 1
2012 2025 1
2025 2012 1
2012 2101 1
2101 2012 1
2012 2156 1
2156 2012 1
2013 2021 1
2021 2013 1
2013 2026 1
2026 2013 1
2013 2102 1
2102 2013 1
2013 2157 1
2157 2013 1
2014 2015 1
2015 2014 1
2014 2016 1
2016 2014 1
2014 2027 1
2027 2014 1
2014 2103 1
2103 2014 1
2014 2158 1
2158 2014 1
2015 2028 1
2028 2015 1
2015 2104 1
2104 2015 1
2015 2159 1
2159 2015 1
2016 2029 1
2029 2016 1
2016 2105 1
2105 2016 1
2016 2160 1
2160 2016 1
2017 2018 1
2018 2017 1
2017 2019 1
2019 2017 1
2017 2020 1
2020 2017 1
2017 2106 1
2106 2017 1
2017 2161 1
2161 2017 1
2018 2021 1
2021 2018 1
2018 2107 1
2107 2018 1
2018 2162 1
2162 2018 1
2019 2108 1
2108 2019 1
2019 2163 1
2163 2019 1
2020 2021 1
2021 2020 1
2020 2109 1
2109 2020 1
2020 2164 1
2164 2020 1
2021 2110 1
2110 2021 1
2021 2165 1
2165 2021 1
2022 2023 1
2023 2022 1
2022 2024 1
2024 2022 1
2022 2025 1
2025 2022 1
2022 2027 1
2027 2022 1
2022 2111 1
2111 2022 1
2022 2166 1
2166 2022 1
2023 2026 1
2026 2023 1
2023 2028 1
2028 2023 1
2023 2112 1
2112 2023 1
2023 2167 1
2167 2023 1
2024 2029 1
2029 2024 1
2024 2113 1
2113 2024 1
2024 2168 1
2168 2024 1
2025 2026 1
2026 2025 1
2025 2114 1
2114 2025 1
2025 2169 1
2169 2025 1
2026 2115 1
2115 2026 1
2026 2170 1
2170 2026 1
2027 2028 1
2028 2027 1
2027 2029 1
2029 2027 1
2027 2116 1
2116 2027 1
2027 2171 1
2171 2027 1
2028 2117 1
2117 2028 1
2028 2172 1
2172 2028 1
2029 2118 1
2118 2029 1
2029 2173 1
2173 2029 1
2030 2031 1
2031 2030 1
2030 2032 1
2032 2030 1
2030 2033 1
2033 2030 1
2030 2035 1
2035 2030 1
2030 2038 1
2038 2030 1
2030 2043 1
2043 2030 1
2030 2051 1
2051 2030 1
2030 2174 1
2174 2030 1
2031 2034 1
2034 2031 1
2031 2036 1
2036 2031 1
2031 2039 1
2039 2031 1
2031 2044 1
2044 2031 1
2031 2052 1
2052 2031 1
2031 2175 1
2175 2031 1
2032 2037 1
2037 2032 1
2032 2040 1
2040 2032 1
2032 2045 1
2045 2032 1
2032 2053 1
2053 2032 1
2032 2176 1
2176 2032 1
2033 2034 1
2034 2033 1
2033 2041 1
2041 2033 1
2033 2046 1
2046 2033 1
2033 2054 1
2054 2033 1
2033 2177 1
2177 2033 1
2034 2042 1
2042 2034 1
2034 2047 1
2047 2034 1
2034 2055 1
2055 2034 1
2034 2178 1
2178 2034 1
2035 2036 1
2036 2035 1
2035 2037 1
2037 2035 1
2035 2048 1
2048 2035 1
2035 2056 1
2056 2035 1
2035 2179 1
2179 2035 1
2036 2049 1
2049 2036 1
2036 2057 1
2057 2036 1
2036 2180 1
2180 2036 1
2037 2050 1
2050 2037 1
2037 2058 1
2058 2037 1
2037 2181 1
2181 2037 1
2038 2039 1
2039 2038 1
2038 2040 1
2040 2038 1
2038 2041 1
2041 2038 1
2038 2059 1
2059 2038 1
2038 2182 1
2182 2038 1
2039 2042 1
2042 2039 1
2039 2060 1
2060 2039 1
2039 2183 1
2183 2039 1
2040 2061 1
2061 2040 1
2040 2184 1
2184 2040 1
2041 2042 1
2042 2041 1
2041 2062 1
2062 2041 1
2041 2185 1
2185 2041 1
2042 2063 1
2063 2042 1
2042 2186 1
2186 2042 1
2043 2044 1
2044 2043 1
2043 2045 1
2045 2043 1
2043 2046 1
2046 2043 1
2043 2048 1
2048 2043 1
2043 2187 1
2187 2043 1
2044 2047 1
2047 2044 1
2044 2049 1
2049 2044 1
2044 2188 1
2188 2044 1
2045 2050 1
2050 2045 1
2045 2189 1
2189 2045 1
2046 2047 1
2047 2046 1
2046 2190 1
2190 2046 1
2047 2191 1
2191 2047 1
2048 2049 1
2049 2048 1
2048 2050 1
2050 2048 1
2048 2192 1
2192 2048 1
2049 2193 1
2193 2049 1
2050 2194 1
2194 2050 1
2051 2052 1
2052 2051 1
2051 2053 1
2053 2051 1
2051 2054 1
2054 2051 1
2051 2056 1
2056 2051 1
2051 2059 1
2059 2051 1
2051 2195 1
2195 2051 1
2052 2055 1
2055 2052 1
2052 2057 1
2057 2052 1
2052 2060 1
2060 2052 1
2052 2196 1
2196 2052 1
2053 2058 1
2058 2053 1
2053 2061 1
2061 2053 1
2053 2197 1
2197 2053 1
2054 2055 1
2055 2054 1
2054 2062 1
2062 2054 1
2054 2198 1
2198 2054 1
2055 2063 1
2063 2055 1
2055 2199 1
2199 2055 1
2056 2057 1
2057 2056 1
2056 2058 1
2058 2056 1
2056 2200 1
2200 2056 1
2057 2201 1
2201 2057 1
2058 2202 1
2202 2058 1
2059 2060 1
2060 2059 1
2059 2061 1
2061 2059 1
2059 2062 1
2062 2059 1
2059 2203 1
2203 2059 1
2060 2063 1
2063 2060 1
2060 2204 1
2204 2060 1
2061 2205 1
2205 2061 1
2062 2063 1
2063 2062 1
2062 2206 1
2206 2062 1
2063 2207 1
2207 2063 1
2064 2065 1
2065 2064 1
2064 2066 1
2066 2064 1
2064 2067 1
2067 2064 1
2064 2069 1
2069 2064 1
2064 2072 1
2072 2064 1
2064 2077 1
2077 2064 1
2064 2085 1
2085 2064 1
2064 2098 1
2098 2064 1
2065 2068 1
2068 2065 1
2065 2070 1
2070 2065 1
2065 2073 1
2073 2065 1
2065 2078 1
2078 2065 1
2065 2086 1
2086 2065 1
2065 2099 1
2099 2065 1
2066 2071 1
2071 2066 1
2066 2074 1
2074 2066 1
2066 2079 1
2079 2066 1
2066 2087 1
2087 2066 1
2066 2100 1
2100 2066 1
2067 2068 1
2068 2067 1
2067 2075 1
2075 2067 1
2067 2080 1
2080 2067 1
2067 2088 1
2088 2067 1
2067 2101 1
2101 2067 1
2068 2076 1
2076 2068 1
2068 2081 1
2081 2068 1
2068 2089 1
2089 2068 1
2068 2102 1
2102 2068 1
2069 2070 1
2070 2069 1
2069 2071 1
2071 2069 1
2069 2082 1
2082 2069 1
2069 2090 1
2090 2069 1
2069 2103 1
2103 2069 1
2070 2083 1
2083 2070 1
2070 2091 1
2091 2070 1
2070 2104 1
2104 2070 1
2071 2084 1
2084 2071 1
2071 2092 1
2092 2071 1
2071 2105 1
2105 2071 1
2072 2073 1
2073 2072 1
2072 2074 1
2074 2072 1
2072 2075 1
2075 2072 1
2072 2093 1
2093 2072 1
2072 2106 1
2106 2072 1
2073 2076 1
2076 2073 1
2073 2094 1
2094 2073 1
2073 2107 1
2107 2073 1
2074 2095 1
2095 2074 1
2074 2108 1
2108 2074 1
2075 2076 1
2076 2075 1
2075 2096 1
2096 2075 1
2075 2109 1
2109 2075 1
2076 2097 1
2097 2076 1
2076 2110 1
2110 2076 1
2077 2078 1
2078 2077 1
2077 2079 1
2079 2077 1
2077 2080 1
2080 2077 1
2077 2082 1
2082 2077 1
2077 2111 1
2111 2077 1
2078 2081 1
2081 2078 1
2078 2083 1
2083 2078 1
2078 2112 1
2112 2078 1
2079 2084 1
2084 2079 1
2079 2113 1
2113 2079 1
2080 2081 1
2081 2080 1
2080 2114 1
2114 2080 1
2081 2115 1
2115 2081 1
2082 2083 1
2083 2082 1
2082 2084 1
2084 2082 1
2082 2116 1
2116 2082 1
2083 2117 1
2117 2083 1
2084 2118 1
2118 2084 1
2085 2086 1
2086 2085 1
2085 2087 1
2087 2085 1
2085 2088 1
2088 2085 1
2085 2090 1
2090 2085 1
2085 2093 1
2093 2085 1
2086 2089 1
2089 2086 1
2086 2091 1
2091 2086 1
2086 2094 1
2094 2086 1
2087 2092 1
2092 2087 1
2087 2095 1
2095 2087 1
2088 2089 1
2089 2088 1
2088 2096 1
2096 2088 1
2089 2097 1
2097 2089 1
2090 2091 1
2091 2090 1
2090 2092 1
2092 2090 1
2093 2094 1
2094 2093 1
2093 2095 1
2095 2093 1
2093 2096 1
2096 2093 1
2094 2097 1
2097 2094 1
2096 2097 1
2097 2096 1
2098 2099 1
2099 2098 1
2098 2100 1
2100 2098 1
2098 2101 1
2101 2098 1
2098 2103 1
2103 2098 1
2098 2106 1
2106 2098 1
2098 2111 1
2111 2098 1
2099 2102 1
2102 2099 1
2099 2104 1
2104 2099 1
2099 2107 1
2107 2099 1
2099 2112 1
2112 2099 1
2100 2105 1
2105 2100 1
2100 2108 1
2108 2100 1
2100 2113 1
2113 2100 1
2101 2102 1
2102 2101 1
2101 2109 1
2109 2101 1
2101 2114 1
2114 2101 1
2102 2110 1
2110 2102 1
2102 2115 1
2115 2102 1
2103 2104 1
2104 2103 1
2103 2105 1
2105 2103 1
2103 2116 1
2116 2103 1
2104 2117 1
2117 2104 1
2105 2118 1
2118 2105 1
2106 2107 1
2107 2106 1
2106 2108 1
2108 2106 1
2106 2109 1
2109 2106 1
2107 2110 1
2110 2107 1
2109 2110 1
2110 2109 1
2111 2112 1
2112 2111 1
2111 2113 1
2113 2111 1
2111 2114 1
2114 2111 1
2111 2116 1
2116 2111 1
2112 2115 1
2115 2112 1
2112 2117 1
2117 2112 1
2113 2118 1
2118 2113 1
2114 2115 1
2115 2114 1
2116 2117 1
2117 2116 1
2116 2118 1
2118 2116 1
2119 2120 1
2120 2119 1
2119 2121 1
2121 2119 1
2119 2122 1
2122 2119 1
2119 2124 1
2124 2119 1
2119 2127 1
2127 2119 1
2119 2132 1
2132 2119 1
2119 2140 1
2140 2119 1
2119 2153 1
2153 2119 1
2119 2174 1
2174 2119 1
2120 2123 1
2123 2120 1
2120 2125 1
2125 2120 1
2120 2128 1
2128 2120 1
2120 2133 1
2133 2120 1
2120 2141 1
2141 2120 1
2120 2154 1
2154 2120 1
2120 2175 1
2175 2120 1
2121 2126 1
2126 2121 1
2121 2129 1
2129 2121 1
2121 2134 1
2134 2121 1
2121 2142 1
2142 2121 1
2121 2155 1
2155 2121 1
2121 2176 1
2176 2121 1
2122 2123 1
2123 2122 1
2122 2130 1
2130 2122 1
2122 2135 1
2135 2122 1
2122 2143 1
2143 2122 1
2122 2156 1
2156 2122 1
2122 2177 1
2177 2122 1
2123 2131 1
2131 2123 1
2123 2136 1
2136 2123 1
2123 2144 1
2144 2123 1
2123 2157 1
2157 2123 1
2123 2178 1
2178 2123 1
2124 2125 1
2125 2124 1
2124 2126 1
2126 2124 1
2124 2137 1
2137 2124 1
2124 2145 1
2145 2124 1
2124 2158 1
2158 2124 1
2124 2179 1
2179 2124 1
2125 2138 1
2138 2125 1
2125 2146 1
2146 2125 1
2125 2159 1
2159 2125 1
2125 2180 1
2180 2125 1
2126 2139 1
2139 2126 1
2126 2147 1
2147 2126 1
2126 2160 1
2160 2126 1
2126 2181 1
2181 2126 1
2127 2128 1
2128 2127 1
2127 2129 1
2129 2127 1
2127 2130 1
2130 2127 1
2127 2148 1
2148 2127 1
2127 2161 1
2161 2127 1
2127 2182 1
2182 2127 1
2128 2131 1
2131 2128 1
2128 2149 1
2149 2128 1
2128 2162 1
2162 2128 1
2128 2183 1
2183 2128 1
2129 2150 1
2150 2129 1
2129 2163 1
2163 2129 1
2129 2184 1
2184 2129 1
2130 2131 1
2131 2130 1
2130 2151 1
2151 2130 1
2130 2164 1
2164 2130 1
2130 2185 1
2185 2130 1
2131 2152 1
2152 2131 1
2131 2165 1
2165 2131 1
2131 2186 1
2186 2131 1
2132 2133 1
2133 2132 1
2132 2134 1
2134 2132 1
2132 2135 1
2135 2132 1
2132 2137 1
2137 2132 1
2132 2166 1
2166 2132 1
2132 2187 1
2187 2132 1
2133 2136 1
2136 2133 1
2133 2138 1
2138 2133 1
2133 2167 1
2167 2133 1
2133 2188 1
2188 2133 1
2134 2139 1
2139 2134 1
2134 2168 1
2168 2134 1
2134 2189 1
2189 2134 1
2135 2136 1
2136 2135 1
2135 2169 1
2169 2135 1
2135 2190 1
2190 2135 1
2136 2170 1
2170 2136 1
2136 2191 1
2191 2136 1
2137 2138 1
2138 2137 1
2137 2139 1
2139 2137 1
2137 2171 1
2171 2137 1
2137 2192 1
2192 2137 1
2138 2172 1
2172 2138 1
2138 2193 1
2193 2138 1
2139 2173 1
2173 2139 1
2139 2194 1
2194 2139 1
2140 2141 1
2141 2140 1
2140 2142 1
2142 2140 1
2140 2143 1
2143 2140 1
2140 2145 1
2145 2140 1
2140 2148 1
2148 2140 1
2140 2195 1
2195 2140 1
2141 2144 1
2144 2141 1
2141 2146 1
2146 2141 1
2141 2149 1
2149 2141 1
2141 2196 1
2196 2141 1
2142 2147 1
2147 2142 1
2142 2150 1
2150 2142 1
2142 2197 1
2197 2142 1
2143 2144 1
2144 2143 1
2143 2151 1
2151 2143 1
2143 2198 1
2198 2143 1
2144 2152 1
2152 2144 1
2144 2199 1
2199 2144 1
2145 2146 1
2146 2145 1
2145 2147 1
2147 2145 1
2145 2200 1
2200 2145 1
2146 2201 1
2201 2146 1
2147 2202 1
2202 2147 1
2148 2149 1
2149 2148 1
2148 2150 1
2150 2148 1
2148 2151 1
2151 2148 1
2148 2203 1
2203 2148 1
2149 2152 1
2152 2149 1
2149 2204 1
2204 2149 1
2150 2205 1
2205 2150 1
2151 2152 1
2152 2151 1
2151 2206 1
2206 2151 1
2152 2207 1
2207 2152 1
2153 2154 1
2154 2153 1
2153 2155 1
2155 2153 1
2153 2156 1
2156 2153 1
2153 2158 1
2158 2153 1
2153 2161 1
2161 2153 1
2153 2166 1
2166 2153 1
2154 2157 1
2157 2154 1
2154 2159 1
2159 2154 1
2154 2162 1
2162 2154 1
2154 2167 1
2167 2154 1
2155 2160 1
2160 2155 1
2155 2163 1
2163 2155 1
2155 2168 1
2168 2155 1
2156 2157 1
2157 2156 1
2156 2164 1
2164 2156 1
2156 2169 1
2169 2156 1
2157 2165 1
2165 2157 1
2157 2170 1
2170 2157 1
2158 2159 1
2159 2158 1
2158 2160 1
2160 2158 1
2158 2171 1
2171 2158 1
2159 2172 1
2172 2159 1
2160 2173 1
2173 2160 1
2161 2162 1
2162 2161 1
2161 2163 1
2163 2161 1
2161 2164 1
2164 2161 1
2162 2165 1
2165 2162 1
2164 2165 1
2165 2164 1
2166 2167 1
2167 2166 1
2166 2168 1
2168 2166 1
2166 2169 1
2169 2166 1
2166 2171 1
2171 2166 1
2167 2170 1
2170 2167 1
2167 2172 1
2172 2167 1
2168 2173 1
2173 2168 1
2169 2170 1
2170 2169 1
2171 2172 1
2172 2171 1
2171 2173 1
2173 2171 1
2174 2175 1
2175 2174 1
2174 2176 1
2176 2174 1
2174 2177 1
2177 2174 1
2174 2179 1
2179 2174 1
2174 2182 1
2182 2174 1
2174 2187 1
2187 2174 1
2174 2195 1
2195 2174 1
2175 2178 1
2178 2175 1
2175 2180 1
2180 2175 1
2175 2183 1
2183 2175 1
2175 2188 1
2188 2175 1
2175 2196 1
2196 2175 1
2176 2181 1
2181 2176 1
2176 2184 1
2184 2176 1
2176 2189 1
2189 2176 1
2176 2197 1
2197 2176 1
2177 2178 1
2178 2177 1
2177 2185 1
2185 2177 1
2177 2190 1
2190 2177 1
2177 2198 1
2198 2177 1
2178 2186 1
2186 2178 1
2178 2191 1
2191 2178 1
2178 2199 1
2199 2178 1
2179 2180 1
2180 2179 1
2179 2181 1
2181 2179 1
2179 2192 1
2192 2179 1
2179 2200 1
2200 2179 1
2180 2193 1
2193 2180 1
2180 2201 1
2201 2180 1
2181 2194 1
2194 2181 1
2181 2202 1
2202 2181 1
2182 2183 1
2183 2182 1
2182 2184 1
2184 2182 1
2182 2185 1
2185 2182 1
2182 2203 1
2203 2182 1
2183 2186 1
2186 2183 1
2183 2204 1
2204 2183 1
2184 2205 1
2205 2184 1
2185 2186 1
2186 2185 1
2185 2206 1
2206 2185 1
2186 2207 1
2207 2186 1
2187 2188 1
2188 2187 1
2187 2189 1
2189 2187 1
2187 2190 1
2190 2187 1
2187 2192 1
2192 2187 1
2188 2191 1
2191 2188 1
2188 2193 1
2193 2188 1
2189 2194 1
2194 2189 1
2190 2191 1
2191 2190 1
2192 2193 1
2193 2192 1
2192 2194 1
2194 2192 1
2195 2196 1
2196 2195 1
2195 2197 1
2197 2195 1
2195 2198 1
2198 2195 1
2195 2200 1
2200 2195 1
2195 2203 1
2203 2195 1
2196 2199 1
2199 2196 1
2196 2201 1
2201 2196 1
2196 2204 1
2204 2196 1
2197 2202 1
2202 2197 1
2197 2205 1
2205 2197 1
2198 2199 1
2199 2198 1
2198 2206 1
2206 2198 1
2199 2207 1
2207 2199 1
2200 2201 1
2201 2200 1
2200 2202 1
2202 2200 1
2203 2204 1
2204 2203 1
2203 2205 1
2205 2203 1
2203 2206 1
2206 2203 1
2204 2207 1
2207 2204 1
2206 2207 1
2207 2206 1
2208 2209 1
2209 2208 1
2208 2210 1
2210 2208 1
2208 2211 1
2211 2208 1
2208 2213 1
2213 2208 1
2208 2216 1
2216 2208 1
2208 2221 1
2221 2208 1
2208 2229 1
2229 2208 1
2208 2242 1
2242 2208 1
2208 2263 1
2263 2208 1
2208 2297 1
2297 2208 1
2208 2352 1
2352 2208 1
2208 2441 1
2441 2208 1
2209 2212 1
2212 2209 1
2209 2214 1
2214 2209 1
2209 2217 1
2217 2209 1
2209 2222 1
2222 2209 1
2209 2230 1
2230 2209 1
2209 2243 1
2243 2209 1
2209 2264 1
2264 2209 1
2209 2298 1
2298 2209 1
2209 2353 1
2353 2209 1
2209 2442 1
2442 2209 1
2210 2215 1
2215 2210 1
2210 2218 1
2218 2210 1
2210 2223 1
2223 2210 1
2210 2231 1
2231 2210 1
2210 2244 1
2244 2210 1
2210 2265 1
2265 2210 1
2210 2299 1
2299 2210 1
2210 2354 1
2354 2210 1
2210 2443 1
2443 2210 1
2211 2212 1
2212 2211 1
2211 2219 1
2219 2211 1
2211 2224 1
2224 2211 1
2211 2232 1
2232 2211 1
2211 2245 1
2245 2211 1
2211 2266 1
2266 2211 1
2211 2300 1
2300 2211 1
2211 2355 1
2355 2211 1
2211 2444 1
2444 2211 1
2212 2220 1
2220 2212 1
2212 2225 1
2225 2212 1
2212 2233 1
2233 2212 1
2212 2246 1
2246 2212 1
2212 2267 1
2267 2212 1
2212 2301 1
2301 2212 1
2212 2356 1
2356 2212 1
2212 2445 1
2445 2212 1
2213 2214 1
2214 2213 1
2213 2215 1
2215 2213 1
2213 2226 1
2226 2213 1
2213 2234 1
2234 2213 1
2213 2247 1
2247 2213 1
2213 2268 1
2268 2213 1
2213 2302 1
2302 2213 1
2213 2357 1
2357 2213 1
2213 2446 1
2446 2213 1
2214 2227 1
2227 2214 1
2214 2235 1
2235 2214 1
2214 2248 1
2248 2214 1
2214 2269 1
2269 2214 1
2214 2303 1
2303 2214 1
2214 2358 1
2358 2214 1
2214 2447 1
2447 2214 1
2215 2228 1
2228 2215 1
2215 2236 1
2236 2215 1
2215 2249 1
2249 2215 1
2215 2270 1
2270 2215 1
2215 2304 1
2304 2215 1
2215 2359 1
2359 2215 1
2215 2448 1
2448 2215 1
2216 2217 1
2217 2216 1
2216 2218 1
2218 2216 1
2216 2219 1
2219 2216 1
2216 2237 1
2237 2216 1
2216 2250 1
2250 2216 1
2216 2271 1
2271 2216 1
2216 2305 1
2305 2216 1
2216 2360 1
2360 2216 1
2216 2449 1
2449 2216 1
2217 2220 1
2220 2217 1
2217 2238 1
2238 2217 1
2217 2251 1
2251 2217 1
2217 2272 1
2272 2217 1
2217 2306 1
2306 2217 1
2217 2361 1
2361 2217 1
2217 2450 1
2450 2217 1
2218 2239 1
2239 2218 1
2218 2252 1
2252 2218 1
2218 2273 1
2273 2218 1
2218 2307 1
2307 2218 1
2218 2362 1
2362 2218 1
2218 2451 1
2451 2218 1
2219 2220 1
2220 2219 1
2219 2240 1
2240 2219 1
2219 2253 1
2253 2219 1
2219 2274 1
2274 2219 1
2219 2308 1
2308 2219 1
2219 2363 1
2363 2219 1
2219 2452 1
2452 2219 1
2220 2241 1
2241 2220 1
2220 2254 1
2254 2220 1
2220 2275 1
2275 2220 1
2220 2309 1
2309 2220 1
2220 2364 1
2364 2220 1
2220 2453 1
2453 2220 1
2221 2222 1
2222 2221 1
2221 2223 1
2223 2221 1
2221 2224 1
2224 2221 1
2221 2226 1
2226 2221 1
2221 2255 1
2255 2221 1
2221 2276 1
2276 2221 1
2221 2310 1
2310 2221 1
2221 2365 1
2365 2221 1
2221 2454 1
2454 2221 1
2222 2225 1
2225 2222 1
2222 2227 1
2227 2222 1
2222 2256 1
2256 2222 1
2222 2277 1
2277 2222 1
2222 2311 1
2311 2222 1
2222 2366 1
2366 2222 1
2222 2455 1
2455 2222 1
2223 2228 1
2228 2223 1
2223 2257 1
2257 2223 1
2223 2278 1
2278 2223 1
2223 2312 1
2312 2223 1
2223 2367 1
2367 2223 1
2223 2456 1
2456 2223 1
2224 2225 1
2225 2224 1
2224 2258 1
2258 2224 1
2224 2279 1
2279 2224 1
2224 2313 1
2313 2224 1
2224 2368 1
2368 2224 1
2224 2457 1
2457 2224 1
2225 2259 1
2259 2225 1
2225 2280 1
2280 2225 1
2225 2314 1
2314 2225 1
2225 2369 1
2369 2225 1
2225 2458 1
2458 2225 1
2226 2227 1
2227 2226 1
2226 2228 1
2228 2226 1
2226 2260 1
2260 2226 1
2226 2281 1
2281 2226 1
2226 2315 1
2315 2226 1
2226 2370 1
2370 2226 1
2226 2459 1
2459 2226 1
2227 2261 1
2261 2227 1
2227 2282 1
2282 2227 1
2227 2316 1
2316 2227 1
2227 2371 1
2371 2227 1
2227 2460 1
2460 2227 1
2228 2262 1
2262 2228 1
2228 2283 1
2283 2228 1
2228 2317 1
2317 2228 1
2228 2372 1
2372 2228 1
2228 2461 1
2461 2228 1
2229 2230 1
2230 2229 1
2229 2231 1
2231 2229 1
2229 2232 1
2232 2229 1
2229 2234 1
2234 2229 1
2229 2237 1
2237 2229 1
2229 2284 1
2284 2229 1
2229 2318 1
2318 2229 1
2229 2373 1
2373 2229 1
2229 2462 1
2462 2229 1
2230 2233 1
2233 2230 1
2230 2235 1
2235 2230 1
2230 2238 1
2238 2230 1
2230 2285 1
2285 2230 1
2230 2319 1
2319 2230 1
2230 2374 1
2374 2230 1
2230 2463 1
2463 2230 1
2231 2236 1
2236 2231 1
2231 2239 1
2239 2231 1
2231 2286 1
2286 2231 1
2231 2320 1
2320 2231 1
2231 2375 1
2375 2231 1
2231 2464 1
2464 2231 1
2232 2233 1
2233 2232 1
2232 2240 1
2240 2232 1
2232 2287 1
2287 2232 1
2232 2321 1
2321 2232 1
2232 2376 1
2376 2232 1
2232 2465 1
2465 2232 1
2233 2241 1
2241 2233 1
2233 2288 1
2288 2233 1
2233 2322 1
2322 2233 1
2233 2377 1
2377 2233 1
2233 2466 1
2466 2233 1
2234 2235 1
2235 2234 1
2234 2236 1
2236 2234 1
2234 2289 1
2289 2234 1
2234 2323 1
2323 2234 1
2234 2378 1
2378 2234 1
2234 2467 1
2467 2234 1
2235 2290 1
2290 2235 1
2235 2324 1
2324 2235 1
2235 2379 1
2379 2235 1
2235 2468 1
2468 2235 1
2236 2291 1
2291 2236 1
2236 2325 1
2325 2236 1
2236 2380 1
2380 2236 1
2236 2469 1
2469 2236 1
2237 2238 1
2238 2237 1
2237 2239 1
2239 2237 1
2237 2240 1
2240 2237 1
2237 2292 1
2292 2237 1
2237 2326 1
2326 2237 1
2237 2381 1
2381 2237 1
2237 2470 1
2470 2237 1
2238 2241 1
2241 2238 1
2238 2293 1
2293 2238 1
2238 2327 1
2327 2238 1
2238 2382 1
2382 2238 1
2238 2471 1
2471 2238 1
2239 2294 1
2294 2239 1
2239 2328 1
2328 2239 1
2239 2383 1
2383 2239 1
2239 2472 1
2472 2239 1
2240 2241 1
2241 2240 1
2240 2295 1
2295 2240 1
2240 2329 1
2329 2240 1
2240 2384 1
2384 2240 1
2240 2473 1
2473 2240 1
2241 2296 1
2296 2241 1
2241 2330 1
2330 2241 1
2241 2385 1
2385 2241 1
2241 2474 1
2474 2241 1
2242 2243 1
2243 2242 1
2242 2244 1
2244 2242 1
2242 2245 1
2245 2242 1
2242 2247 1
2247 2242 1
2242 2250 1
2250 2242 1
2242 2255 1
2255 2242 1
2242 2331 1
2331 2242 1
2242 2386 1
2386 2242 1
2242 2475 1
2475 2242 1
2243 2246 1
2246 2243 1
2243 2248 1
2248 2243 1
2243 2251 1
2251 2243 1
2243 2256 1
2256 2243 1
2243 2332 1
2332 2243 1
2243 2387 1
2387 2243 1
2243 2476 1
2476 2243 1
2244 2249 1
2249 2244 1
2244 2252 1
2252 2244 1
2244 2257 1
2257 2244 1
2244 2333 1
2333 2244 1
2244 2388 1
2388 2244 1
2244 2477 1
2477 2244 1
2245 2246 1
2246 2245 1
2245 2253 1
2253 2245 1
2245 2258 1
2258 2245 1
2245 2334 1
2334 2245 1
2245 2389 1
2389 2245 1
2245 2478 1
2478 2245 1
2246 2254 1
2254 2246 1
2246 2259 1
2259 2246 1
2246 2335 1
2335 2246 1
2246 2390 1
2390 2246 1
2246 2479 1
2479 2246 1
2247 2248 1
2248 2247 1
2247 2249 1
2249 2247 1
2247 2260 1
2260 2247 1
2247 2336 1
2336 2247 1
2247 2391 1
2391 2247 1
2247 2480 1
2480 2247 1
2248 2261 1
2261 2248 1
2248 2337 1
2337 2248 1
2248 2392 1
2392 2248 1
2248 2481 1
2481 2248 1
2249 2262 1
2262 2249 1
2249 2338 1
2338 2249 1
2249 2393 1
2393 2249 1
2249 2482 1
2482 2249 1
2250 2251 1
2251 2250 1
2250 2252 1
2252 2250 1
2250 2253 1
2253 2250 1
2250 2339 1
2339 2250 1
2250 2394 1
2394 2250 1
2250 2483 1
2483 2250 1
2251 2254 1
2254 2251 1
2251 2340 1
2340 2251 1
2251 2395 1
2395 2251 1
2251 2484 1
2484 2251 1
2252 2341 1
2341 2252 1
2252 2396 1
2396 2252 1
2252 2485 1
2485 2252 1
2253 2254 1
2254 2253 1
2253 2342 1
2342 2253 1
2253 2397 1
2397 2253 1
2253 2486 1
2486 2253 1
2254 2343 1
2343 2254 1
2254 2398 1
2398 2254 1
2254 2487 1
2487 2254 1
2255 2256 1
2256 2255 1
2255 2257 1
2257 2255 1
2255 2258 1
2258 2255 1
2255 2260 1
2260 2255 1
2255 2344 1
2344 2255 1
2255 2399 1
2399 2255 1
2255 2488 1
2488 2255 1
2256 2259 1
2259 2256 1
2256 2261 1
2261 2256 1
2256 2345 1
2345 2256 1
2256 2400 1
2400 2256 1
2256 2489 1
2489 2256 1
2257 2262 1
2262 2257 1
2257 2346 1
2346 2257 1
2257 2401 1
2401 2257 1
2257 2490 1
2490 2257 1
2258 2259 1
2259 2258 1
2258 2347 1
2347 2258 1
2258 2402 1
2402 2258 1
2258 2491 1
2491 2258 1
2259 2348 1
2348 2259 1
2259 2403 1
2403 2259 1
2259 2492 1
2492 2259 1
2260 2261 1
2261 2260 1
2260 2262 1
2262 2260 1
2260 2349 1
2349 2260 1
2260 2404 1
2404 2260 1
2260 2493 1
2493 2260 1
2261 2350 1
2350 2261 1
2261 2405 1
2405 2261 1
2261 2494 1
2494 2261 1
2262 2351 1
2351 2262 1
2262 2406 1
2406 2262 1
2262 2495 1
2495 2262 1
2263 2264 1
2264 2263 1
2263 2265 1
2265 2263 1
2263 2266 1
2266 2263 1
2263 2268 1
2268 2263 1
2263 2271 1
2271 2263 1
2263 2276 1
2276 2263 1
2263 2284 1
2284 2263 1
2263 2407 1
2407 2263 1
2263 2496 1
2496 2263 1
2264 2267 1
2267 2264 1
2264 2269 1
2269 2264 1
2264 2272 1
2272 2264 1
2264 2277 1
2277 2264 1
2264 2285 1
2285 2264 1
2264 2408 1
2408 2264 1
2264 2497 1
2497 2264 1
2265 2270 1
2270 2265 1
2265 2273 1
2273 2265 1
2265 2278 1
2278 2265 1
2265 2286 1
2286 2265 1
2265 2409 1
2409 2265 1
2265 2498 1
2498 2265 1
2266 2267 1
2267 2266 1
2266 2274 1
2274 2266 1
2266 2279 1
2279 2266 1
2266 2287 1
2287 2266 1
2266 2410 1
2410 2266 1
2266 2499 1
2499 2266 1
2267 2275 1
2275 2267 1
2267 2280 1
2280 2267 1
2267 2288 1
2288 2267 1
2267 2411 1
2411 2267 1
2267 2500 1
2500 2267 1
2268 2269 1
2269 2268 1
2268 2270 1
2270 2268 1
2268 2281 1
2281 2268 1
2268 2289 1
2289 2268 1
2268 2412 1
2412 2268 1
2268 2501 1
2501 2268 1
2269 2282 1
2282 2269 1
2269 2290 1
2290 2269 1
2269 2413 1
2413 2269 1
2269 2502 1
2502 2269 1
2270 2283 1
2283 2270 1
2270 2291 1
2291 2270 1
2270 2414 1
2414 2270 1
2270 2503 1
2503 2270 1
2271 2272 1
2272 2271 1
2271 2273 1
2273 2271 1
2271 2274 1
2274 2271 1
2271 2292 1
2292 2271 1
2271 2415 1
2415 2271 1
2271 2504 1
2504 2271 1
2272 2275 1
2275 2272 1
2272 2293 1
2293 2272 1
2272 2416 1
2416 2272 1
2272 2505 1
2505 2272 1
2273 2294 1
2294 2273 1
2273 2417 1
2417 2273 1
2273 2506 1
2506 2273 1
2274 2275 1
2275 2274 1
2274 2295 1
2295 2274 1
2274 2418 1
2418 2274 1
2274 2507 1
2507 2274 1
2275 2296 1
2296 2275 1
2275 2419 1
2419 2275 1
2275 2508 1
2508 2275 1
2276 2277 1
2277 2276 1
2276 2278 1
2278 2276 1
2276 2279 1
2279 2276 1
2276 2281 1
2281 2276 1
2276 2420 1
2420 2276 1
2276 2509 1
2509 2276 1
2277 2280 1
2280 2277 1
2277 2282 1
2282 2277 1
2277 2421 1
2421 2277 1
2277 2510 1
2510 2277 1
2278 2283 1
2283 2278 1
2278 2422 1
2422 2278 1
2278 2511 1
2511 2278 1
2279 2280 1
2280 2279 1
2279 2423 1
2423 2279 1
2279 2512 1
2512 2279 1
2280 2424 1
2424 2280 1
2280 2513 1
2513 2280 1
2281 2282 1
2282 2281 1
2281 2283 1
2283 2281 1
2281 2425 1
2425 2281 1
2281 2514 1
2514 2281 1
2282 2426 1
2426 2282 1
2282 2515 1
2515 2282 1
2283 2427 1
2427 2283 1
2283 2516 1
2516 2283 1
2284 2285 1
2285 2284 1
2284 2286 1
2286 2284 1
2284 2287 1
2287 2284 1
2284 2289 1
2289 2284 1
2284 2292 1
2292 2284 1
2284 2428 1
2428 2284 1
2284 2517 1
2517 2284 1
2285 2288 1
2288 2285 1
2285 2290 1
2290 2285 1
2285 2293 1
2293 2285 1
2285 2429 1
2429 2285 1
2285 2518 1
2518 2285 1
2286 2291 1
2291 2286 1
2286 2294 1
2294 2286 1
2286 2430 1
2430 2286 1
2286 2519 1
2519 2286 1
2287 2288 1
2288 2287 1
2287 2295 1
2295 2287 1
2287 2431 1
2431 2287 1
2287 2520 1
2520 2287 1
2288 2296 1
2296 2288 1
2288 2432 1
2432 2288 1
2288 2521 1
2521 2288 1
2289 2290 1
2290 2289 1
2289 2291 1
2291 2289 1
2289 2433 1
2433 2289 1
2289 2522 1
2522 2289 1
2290 2434 1
2434 2290 1
2290 2523 1
2523 2290 1
2291 2435 1
2435 2291 1
2291 2524 1
2524 2291 1
2292 2293 1
2293 2292 1
2292 2294 1
2294 2292 1
2292 2295 1
2295 2292 1
2292 2436 1
2436 2292 1
2292 2525 1
2525 2292 1
2293 2296 1
2296 2293 1
2293 2437 1
2437 2293 1
2293 2526 1
2526 2293 1
2294 2438 1
2438 2294 1
2294 2527 1
2527 2294 1
2295 2296 1
2296 2295 1
2295 2439 1
2439 2295 1
2295 2528 1
2528 2295 1
2296 2440 1
2440 2296 1
2296 2529 1
2529 2296 1
2297 2298 1
2298 2297 1
2297 2299 1
2299 2297 1
2297 2300 1
2300 2297 1
2297 2302 1
2302 2297 1
2297 2305 1
2305 2297 1
2297 2310 1
2310 2297 1
2297 2318 1
2318 2297 1
2297 2331 1
2331 2297 1
2297 2530 1
2530 2297 1
2298 2301 1
2301 2298 1
2298 2303 1
2303 2298 1
2298 2306 1
2306 2298 1
2298 2311 1
2311 2298 1
2298 2319 1
2319 2298 1
2298 2332 1
2332 2298 1
2298 2531 1
2531 2298 1
2299 2304 1
2304 2299 1
2299 2307 1
2307 2299 1
2299 2312 1
2312 2299 1
2299 2320 1
2320 2299 1
2299 2333 1
2333 2299 1
2299 2532 1
2532 2299 1
2300 2301 1
2301 2300 1
2300 2308 1
2308 2300 1
2300 2313 1
2313 2300 1
2300 2321 1
2321 2300 1
2300 2334 1
2334 2300 1
2300 2533 1
2533 2300 1
2301 2309 1
2309 2301 1
2301 2314 1
2314 2301 1
2301 2322 1
2322 2301 1
2301 2335 1
2335 2301 1
2301 2534 1
2534 2301 1
2302 2303 1
2303 2302 1
2302 2304 1
2304 2302 1
2302 2315 1
2315 2302 1
2302 2323 1
2323 2302 1
2302 2336 1
2336 2302 1
2302 2535 1
2535 2302 1
2303 2316 1
2316 2303 1
2303 2324 1
2324 2303 1
2303 2337 1
2337 2303 1
2303 2536 1
2536 2303 1
2304 2317 1
2317 2304 1
2304 2325 1
2325 2304 1
2304 2338 1
2338 2304 1
2304 2537 1
2537 2304 1
2305 2306 1
2306 2305 1
2305 2307 1
2307 2305 1
2305 2308 1
2308 2305 1
2305 2326 1
2326 2305 1
2305 2339 1
2339 2305 1
2305 2538 1
2538 2305 1
2306 2309 1
2309 2306 1
2306 2327 1
2327 2306 1
2306 2340 1
2340 2306 1
2306 2539 1
2539 2306 1
2307 2328 1
2328 2307 1
2307 2341 1
2341 2307 1
2307 2540 1
2540 2307 1
2308 2309 1
2309 2308 1
2308 2329 1
2329 2308 1
2308 2342 1
2342 2308 1
2308 2541 1
2541 2308 1
2309 2330 1
2330 2309 1
2309 2343 1
2343 2309 1
2309 2542 1
2542 2309 1
2310 2311 1
2311 2310 1
2310 2312 1
2312 2310 1
2310 2313 1
2313 2310 1
2310 2315 1
2315 2310 1
2310 2344 1
2344 2310 1
2310 2543 1
2543 2310 1
2311 2314 1
2314 2311 1
2311 2316 1
2316 2311 1
2311 2345 1
2345 2311 1
2311 2544 1
2544 2311 1
2312 2317 1
2317 2312 1
2312 2346 1
2346 2312 1
2312 2545 1
2545 2312 1
2313 2314 1
2314 2313 1
2313 2347 1
2347 2313 1
2313 2546 1
2546 2313 1
2314 2348 1
2348 2314 1
2314 2547 1
2547 2314 1
2315 2316 1
2316 2315 1
2315 2317 1
2317 2315 1
2315 2349 1
2349 2315 1
2315 2548 1
2548 2315 1
2316 2350 1
2350 2316 1
2316 2549 1
2549 2316 1
2317 2351 1
2351 2317 1
2317 2550 1
2550 2317 1
2318 2319 1
2319 2318 1
2318 2320 1
2320 2318 1
2318 2321 1
2321 2318 1
2318 2323 1
2323 2318 1
2318 2326 1
2326 2318 1
2318 2551 1
2551 2318 1
2319 2322 1
2322 2319 1
2319 2324 1
2324 2319 1
2319 2327 1
2327 2319 1
2319 2552 1
2552 2319 1
2320 2325 1
2325 2320 1
2320 2328 1
2328 2320 1
2320 2553 1
2553 2320 1
2321 2322 1
2322 2321 1
2321 2329 1
2329 2321 1
2321 2554 1
2554 2321 1
2322 2330 1
2330 2322 1
2322 2555 1
2555 2322 1
2323 2324 1
2324 2323 1
2323 2325 1
2325 2323 1
2323 2556 1
2556 2323 1
2324 2557 1
2557 2324 1
2325 2558 1
2558 2325 1
2326 2327 1
2327 2326 1
2326 2328 1
2328 2326 1
2326 2329 1
2329 2326 1
2326 2559 1
2559 2326 1
2327 2330 1
2330 2327 1
2327 2560 1
2560 2327 1
2328 2561 1
2561 2328 1
2329 2330 1
2330 2329 1
2329 2562 1
2562 2329 1
2330 2563 1
2563 2330 1
2331 2332 1
2332 2331 1
2331 2333 1
2333 2331 1
2331 2334 1
2334 2331 1
2331 2336 1
2336 2331 1
2331 2339 1
2339 2331 1
2331 2344 1
2344 2331 1
2331 2564 1
2564 2331 1
2332 2335 1
2335 2332 1
2332 2337 1
2337 2332 1
2332 2340 1
2340 2332 1
2332 2345 1
2345 2332 1
2332 2565 1
2565 2332 1
2333 2338 1
2338 2333 1
2333 2341 1
2341 2333 1
2333 2346 1
2346 2333 1
2333 2566 1
2566 2333 1
2334 2335 1
2335 2334 1
2334 2342 1
2342 2334 1
2334 2347 1
2347 2334 1
2334 2567 1
2567 2334 1
2335 2343 1
2343 2335 1
2335 2348 1
2348 2335 1
2335 2568 1
2568 2335 1
2336 2337 1
2337 2336 1
2336 2338 1
2338 2336 1
2336 2349 1
2349 2336 1
2336 2569 1
2569 2336 1
2337 2350 1
2350 2337 1
2337 2570 1
2570 2337 1
2338 2351 1
2351 2338 1
2338 2571 1
2571 2338 1
2339 2340 1
2340 2339 1
2339 2341 1
2341 2339 1
2339 2342 1
2342 2339 1
2339 2572 1
2572 2339 1
2340 2343 1
2343 2340 1
2340 2573 1
2573 2340 1
2341 2574 1
2574 2341 1
2342 2343 1
2343 2342 1
2342 2575 1
2575 2342 1
2343 2576 1
2576 2343 1
2344 2345 1
2345 2344 1
2344 2346 1
2346 2344 1
2344 2347 1
2347 2344 1
2344 2349 1
2349 2344 1
2344 2577 1
2577 2344 1
2345 2348 1
2348 2345 1
2345 2350 1
2350 2345 1
2345 2578 1
2578 2345 1
2346 2351 1
2351 2346 1
2346 2579 1
2579 2346 1
2347 2348 1
2348 2347 1
2347 2580 1
2580 2347 1
2348 2581 1
2581 2348 1
2349 2350 1
2350 2349 1
2349 2351 1
2351 2349 1
2349 2582 1
2582 2349 1
2350 2583 1
2583 2350 1
2351 2584 1
2584 2351 1
2352 2353 1
2353 2352 1
2352 2354 1
2354 2352 1
2352 2355 1
2355 2352 1
2352 2357 1
2357 2352 1
2352 2360 1
2360 2352 1
2352 2365 1
2365 2352 1
2352 2373 1
2373 2352 1
2352 2386 1
2386 2352 1
2352 2407 1
2407 2352 1
2353 2356 1
2356 2353 1
2353 2358 1
2358 2353 1
2353 2361 1
2361 2353 1
2353 2366 1
2366 2353 1
2353 2374 1
2374 2353 1
2353 2387 1
2387 2353 1
2353 2408 1
2408 2353 1
2354 2359 1
2359 2354 1
2354 2362 1
2362 2354 1
2354 2367 1
2367 2354 1
2354 2375 1
2375 2354 1
2354 2388 1
2388 2354 1
2354 2409 1
2409 2354 1
2355 2356 1
2356 2355 1
2355 2363 1
2363 2355 1
2355 2368 1
2368 2355 1
2355 2376 1
2376 2355 1
2355 2389 1
2389 2355 1
2355 2410 1
2410 2355 1
2356 2364 1
2364 2356 1
2356 2369 1
2369 2356 1
2356 2377 1
2377 2356 1
2356 2390 1
2390 2356 1
2356 2411 1
2411 2356 1
2357 2358 1
2358 2357 1
2357 2359 1
2359 2357 1
2357 2370 1
2370 2357 1
2357 2378 1
2378 2357 1
2357 2391 1
2391 2357 1
2357 2412 1
2412 2357 1
2358 2371 1
2371 2358 1
2358 2379 1
2379 2358 1
2358 2392 1
2392 2358 1
2358 2413 1
2413 2358 1
2359 2372 1
2372 2359 1
2359 2380 1
2380 2359 1
2359 2393 1
2393 2359 1
2359 2414 1
2414 2359 1
2360 2361 1
2361 2360 1
2360 2362 1
2362 2360 1
2360 2363 1
2363 2360 1
2360 2381 1
2381 2360 1
2360 2394 1
2394 2360 1
2360 2415 1
2415 2360 1
2361 2364 1
2364 2361 1
2361 2382 1
2382 2361 1
2361 2395 1
2395 2361 1
2361 2416 1
2416 2361 1
2362 2383 1
2383 2362 1
2362 2396 1
2396 2362 1
2362 2417 1
2417 2362 1
2363 2364 1
2364 2363 1
2363 2384 1
2384 2363 1
2363 2397 1
2397 2363 1
2363 2418 1
2418 2363 1
2364 2385 1
2385 2364 1
2364 2398 1
2398 2364 1
2364 2419 1
2419 2364 1
2365 2366 1
2366 2365 1
2365 2367 1
2367 2365 1
2365 2368 1
2368 2365 1
2365 2370 1
2370 2365 1
2365 2399 1
2399 2365 1
2365 2420 1
2420 2365 1
2366 2369 1
2369 2366 1
2366 2371 1
2371 2366 1
2366 2400 1
2400 2366 1
2366 2421 1
2421 2366 1
2367 2372 1
2372 2367 1
2367 2401 1
2401 2367 1
2367 2422 1
2422 2367 1
2368 2369 1
2369 2368 1
2368 2402 1
2402 2368 1
2368 2423 1
2423 2368 1
2369 2403 1
2403 2369 1
2369 2424 1
2424 2369 1
2370 2371 1
2371 2370 1
2370 2372 1
2372 2370 1
2370 2404 1
2404 2370 1
2370 2425 1
2425 2370 1
2371 2405 1
2405 2371 1
2371 2426 1
2426 2371 1
2372 2406 1
2406 2372 1
2372 2427 1
2427 2372 1
2373 2374 1
2374 2373 1
2373 2375 1
2375 2373 1
2373 2376 1
2376 2373 1
2373 2378 1
2378 2373 1
2373 2381 1
2381 2373 1
2373 2428 1
2428 2373 1
2374 2377 1
2377 2374 1
2374 2379 1
2379 2374 1
2374 2382 1
2382 2374 1
2374 2429 1
2429 2374 1
2375 2380 1
2380 2375 1
2375 2383 1
2383 2375 1
2375 2430 1
2430 2375 1
2376 2377 1
2377 2376 1
2376 2384 1
2384 2376 1
2376 2431 1
2431 2376 1
2377 2385 1
2385 2377 1
2377 2432 1
2432 2377 1
2378 2379 1
2379 2378 1
2378 2380 1
2380 2378 1
2378 2433 1
2433 2378 1
2379 2434 1
2434 2379 1
2380 2435 1
2435 2380 1
2381 2382 1
2382 2381 1
2381 2383 1
2383 2381 1
2381 2384 1
2384 2381 1
2381 2436 1
2436 2381 1
2382 2385 1
2385 2382 1
2382 2437 1
2437 2382 1
2383 2438 1
2438 2383 1
2384 2385 1
2385 2384 1
2384 2439 1
2439 2384 1
2385 2440 1
2440 2385 1
2386 2387 1
2387 2386 1
2386 2388 1
2388 2386 1
2386 2389 1
2389 2386 1
2386 2391 1
2391 2386 1
2386 2394 1
2394 2386 1
2386 2399 1
2399 2386 1
2387 2390 1
2390 2387 1
2387 2392 1
2392 2387 1
2387 2395 1
2395 2387 1
2387 2400 1
2400 2387 1
2388 2393 1
2393 2388 1
2388 2396 1
2396 2388 1
2388 2401 1
2401 2388 1
2389 2390 1
2390 2389 1
2389 2397 1
2397 2389 1
2389 2402 1
2402 2389 1
2390 2398 1
2398 2390 1
2390 2403 1
2403 2390 1
2391 2392 1
2392 2391 1
2391 2393 1
2393 2391 1
2391 2404 1
2404 2391 1
2392 2405 1
2405 2392 1
2393 2406 1
2406 2393 1
2394 2395 1
2395 2394 1
2394 2396 1
2396 2394 1
2394 2397 1
2397 2394 1
2395 2398 1
2398 2395 1
2397 2398 1
2398 2397 1
2399 2400 1
2400 2399 1
2399 2401 1
2401 2399 1
2399 2402 1
2402 2399 1
2399 2404 1
2404 2399 1
2400 2403 1
2403 2400 1
2400 2405 1
2405 2400 1
2401 2406 1
2406 2401 1
2402 2403 1
2403 2402 1
2404 2405 1
2405 2404 1
2404 2406 1
2406 2404 1
2407 2408 1
2408 2407 1
2407 2409 1
2409 2407 1
2407 2410 1
2410 2407 1
2407 2412 1
2412 2407 1
2407 2415 1
2415 2407 1
2407 2420 1
2420 2407 1
2407 2428 1
2428 2407 1
2408 2411 1
2411 2408 1
2408 2413 1
2413 2408 1
2408 2416 1
2416 2408 1
2408 2421 1
2421 2408 1
2408 2429 1
2429 2408 1
2409 2414 1
2414 2409 1
2409 2417 1
2417 2409 1
2409 2422 1
2422 2409 1
2409 2430 1
2430 2409 1
2410 2411 1
2411 2410 1
2410 2418 1
2418 2410 1
2410 2423 1
2423 2410 1
2410 2431 1
2431 2410 1
2411 2419 1
2419 2411 1
2411 2424 1
2424 2411 1
2411 2432 1
2432 2411 1
2412 2413 1
2413 2412 1
2412 2414 1
2414 2412 1
2412 2425 1
2425 2412 1
2412 2433 1
2433 2412 1
2413 2426 1
2426 2413 1
2413 2434 1
2434 2413 1
2414 2427 1
2427 2414 1
2414 2435 1
2435 2414 1
2415 2416 1
2416 2415 1
2415 2417 1
2417 2415 1
2415 2418 1
2418 2415 1
2415 2436 1
2436 2415 1
2416 2419 1
2419 2416 1
2416 2437 1
2437 2416 1
2417 2438 1
2438 2417 1
2418 2419 1
2419 2418 1
2418 2439 1
2439 2418 1
2419 2440 1
2440 2419 1
2420 2421 1
2421 2420 1
2420 2422 1
2422 2420 1
2420 2423 1
2423 2420 1
2420 2425 1
2425 2420 1
2421 2424 1
2424 2421 1
2421 2426 1
2426 2421 1
2422 2427 1
2427 2422 1
2423 2424 1
2424 2423 1
2425 2426 1
2426 2425 1
2425 2427 1
2427 2425 1
2428 2429 1
2429 2428 1
2428 2430 1
2430 2428 1
2428 2431 1
2431 2428 1
2428 2433 1
2433 2428 1
2428 2436 1
2436 2428 1
2429 2432 1
2432 2429 1
2429 2434 1
2434 2429 1
2429 2437 1
2437 2429 1
2430 2435 1
2435 2430 1
2430 2438 1
2438 2430 1
2431 2432 1
2432 2431 1
2431 2439 1
2439 2431 1
2432 2440 1
2440 2432 1
2433 2434 1
2434 2433 1
2433 2435 1
2435 2433 1
2436 2437 1
2437 2436 1
2436 2438 1
2438 2436 1
2436 2439 1
2439 2436 1
2437 2440 1
2440 2437 1
2439 2440 1
2440 2439 1
2441 2442 1
2442 2441 1
2441 2443 1
2443 2441 1
2441 2444 1
2444 2441 1
2441 2446 1
2446 2441 1
2441 2449 1
2449 2441 1
2441 2454 1
2454 2441 1
2441 2462 1
2462 2441 1
2441 2475 1
2475 2441 1
2441 2496 1
2496 2441 1
2441 2530 1
2530 2441 1
2442 2445 1
2445 2442 1
2442 2447 1
2447 2442 1
2442 2450 1
2450 2442 1
2442 2455 1
2455 2442 1
2442 2463 1
2463 2442 1
2442 2476 1
2476 2442 1
2442 2497 1
2497 2442 1
2442 2531 1
2531 2442 1
2443 2448 1
2448 2443 1
2443 2451 1
2451 2443 1
2443 2456 1
2456 2443 1
2443 2464 1
2464 2443 1
2443 2477 1
2477 2443 1
2443 2498 1
2498 2443 1
2443 2532 1
2532 2443 1
2444 2445 1
2445 2444 1
2444 2452 1
2452 2444 1
2444 2457 1
2457 2444 1
2444 2465 1
2465 2444 1
2444 2478 1
2478 2444 1
2444 2499 1
2499 2444 1
2444 2533 1
2533 2444 1
2445 2453 1
2453 2445 1
2445 2458 1
2458 2445 1
2445 2466 1
2466 2445 1
2445 2479 1
2479 2445 1
2445 2500 1
2500 2445 1
2445 2534 1
2534 2445 1
2446 2447 1
2447 2446 1
2446 2448 1
2448 2446 1
2446 2459 1
2459 2446 1
2446 2467 1
2467 2446 1
2446 2480 1
2480 2446 1
2446 2501 1
2501 2446 1
2446 2535 1
2535 2446 1
2447 2460 1
2460 2447 1
2447 2468 1
2468 2447 1
2447 2481 1
2481 2447 1
2447 2502 1
2502 2447 1
2447 2536 1
2536 2447 1
2448 2461 1
2461 2448 1
2448 2469 1
2469 2448 1
2448 2482 1
2482 2448 1
2448 2503 1
2503 2448 1
2448 2537 1
2537 2448 1
2449 2450 1
2450 2449 1
2449 2451 1
2451 2449 1
2449 2452 1
2452 2449 1
2449 2470 1
2470 2449 1
2449 2483 1
2483 2449 1
2449 2504 1
2504 2449 1
2449 2538 1
2538 2449 1
2450 2453 1
2453 2450 1
2450 2471 1
2471 2450 1
2450 2484 1
2484 2450 1
2450 2505 1
2505 2450 1
2450 2539 1
2539 2450 1
2451 2472 1
2472 2451 1
2451 2485 1
2485 2451 1
2451 2506 1
2506 2451 1
2451 2540 1
2540 2451 1
2452 2453 1
2453 2452 1
2452 2473 1
2473 2452 1
2452 2486 1
2486 2452 1
2452 2507 1
2507 2452 1
2452 2541 1
2541 2452 1
2453 2474 1
2474 2453 1
2453 2487 1
2487 2453 1
2453 2508 1
2508 2453 1
2453 2542 1
2542 2453 1
2454 2455 1
2455 2454 1
2454 2456 1
2456 2454 1
2454 2457 1
2457 2454 1
2454 2459 1
2459 2454 1
2454 2488 1
2488 2454 1
2454 2509 1
2509 2454 1
2454 2543 1
2543 2454 1
2455 2458 1
2458 2455 1
2455 2460 1
2460 2455 1
2455 2489 1
2489 2455 1
2455 2510 1
2510 2455 1
2455 2544 1
2544 2455 1
2456 2461 1
2461 2456 1
2456 2490 1
2490 2456 1
2456 2511 1
2511 2456 1
2456 2545 1
2545 2456 1
2457 2458 1
2458 2457 1
2457 2491 1
2491 2457 1
2457 2512 1
2512 2457 1
2457 2546 1
2546 2457 1
2458 2492 1
2492 2458 1
2458 2513 1
2513 2458 1
2458 2547 1
2547 2458 1
2459 2460 1
2460 2459 1
2459 2461 1
2461 2459 1
2459 2493 1
2493 2459 1
2459 2514 1
2514 2459 1
2459 2548 1
2548 2459 1
2460 2494 1
2494 2460 1
2460 2515 1
2515 2460 1
2460 2549 1
2549 2460 1
2461 2495 1
2495 2461 1
2461 2516 1
2516 2461 1
2461 2550 1
2550 2461 1
2462 2463 1
2463 2462 1
2462 2464 1
2464 2462 1
2462 2465 1
2465 2462 1
2462 2467 1
2467 2462 1
2462 2470 1
2470 2462 1
2462 2517 1
2517 2462 1
2462 2551 1
2551 2462 1
2463 2466 1
2466 2463 1
2463 2468 1
2468 2463 1
2463 2471 1
2471 2463 1
2463 2518 1
2518 2463 1
2463 2552 1
2552 2463 1
2464 2469 1
2469 2464 1
2464 2472 1
2472 2464 1
2464 2519 1
2519 2464 1
2464 2553 1
2553 2464 1
2465 2466 1
2466 2465 1
2465 2473 1
2473 2465 1
2465 2520 1
2520 2465 1
2465 2554 1
2554 2465 1
2466 2474 1
2474 2466 1
2466 2521 1
2521 2466 1
2466 2555 1
2555 2466 1
2467 2468 1
2468 2467 1
2467 2469 1
2469 2467 1
2467 2522 1
2522 2467 1
2467 2556 1
2556 2467 1
2468 2523 1
2523 2468 1
2468 2557 1
2557 2468 1
2469 2524 1
2524 2469 1
2469 2558 1
2558 2469 1
2470 2471 1
2471 2470 1
2470 2472 1
2472 2470 1
2470 2473 1
2473 2470 1
2470 2525 1
2525 2470 1
2470 2559 1
2559 2470 1
2471 2474 1
2474 2471 1
2471 2526 1
2526 2471 1
2471 2560 1
2560 2471 1
2472 2527 1
2527 2472 1
2472 2561 1
2561 2472 1
2473 2474 1
2474 2473 1
2473 2528 1
2528 2473 1
2473 2562 1
2562 2473 1
2474 2529 1
2529 2474 1
2474 2563 1
2563 2474 1
2475 2476 1
2476 2475 1
2475 2477 1
2477 2475 1
2475 2478 1
2478 2475 1
2475 2480 1
2480 2475 1
2475 2483 1
2483 2475 1
2475 2488 1
2488 2475 1
2475 2564 1
2564 2475 1
2476 2479 1
2479 2476 1
2476 2481 1
2481 2476 1
2476 2484 1
2484 2476 1
2476 2489 1
2489 2476 1
2476 2565 1
2565 2476 1
2477 2482 1
2482 2477 1
2477 2485 1
2485 2477 1
2477 2490 1
2490 2477 1
2477 2566 1
2566 2477 1
2478 2479 1
2479 2478 1
2478 2486 1
2486 2478 1
2478 2491 1
2491 2478 1
2478 2567 1
2567 2478 1
2479 2487 1
2487 2479 1
2479 2492 1
2492 2479 1
2479 2568 1
2568 2479 1
2480 2481 1
2481 2480 1
2480 2482 1
2482 2480 1
2480 2493 1
2493 2480 1
2480 2569 1
2569 2480 1
2481 2494 1
2494 2481 1
2481 2570 1
2570 2481 1
2482 2495 1
2495 2482 1
2482 2571 1
2571 2482 1
2483 2484 1
2484 2483 1
2483 2485 1
2485 2483 1
2483 2486 1
2486 2483 1
2483 2572 1
2572 2483 1
2484 2487 1
2487 2484 1
2484 2573 1
2573 2484 1
2485 2574 1
2574 2485 1
2486 2487 1
2487 2486 1
2486 2575 1
2575 2486 1
2487 2576 1
2576 2487 1
2488 2489 1
2489 2488 1
2488 2490 1
2490 2488 1
2488 2491 1
2491 2488 1
2488 2493 1
2493 2488 1
2488 2577 1
2577 2488 1
2489 2492 1
2492 2489 1
2489 2494 1
2494 2489 1
2489 2578 1
2578 2489 1
2490 2495 1
2495 2490 1
2490 2579 1
2579 2490 1
2491 2492 1
2492 2491 1
2491 2580 1
2580 2491 1
2492 2581 1
2581 2492 1
2493 2494 1
2494 2493 1
2493 2495 1
2495 2493 1
2493 2582 1
2582 2493 1
2494 2583 1
2583 2494 1
2495 2584 1
2584 2495 1
2496 2497 1
2497 2496 1
2496 2498 1
2498 2496 1
2496 2499 1
2499 2496 1
2496 2501 1
2501 2496 1
2496 2504 1
2504 2496 1
2496 2509 1
2509 2496 1
2496 2517 1
2517 2496 1
2497 2500 1
2500 2497 1
2497 2502 1
2502 2497 1
2497 2505 1
2505 2497 1
2497 2510 1
2510 2497 1
2497 2518 1
2518 2497 1
2498 2503 1
2503 2498 1
2498 2506 1
2506 2498 1
2498 2511 1
2511 2498 1
2498 2519 1
2519 2498 1
2499 2500 1
2500 2499 1
2499 2507 1
2507 2499 1
2499 2512 1
2512 2499 1
2499 2520 1
2520 2499 1
2500 2508 1
2508 2500 1
2500 2513 1
2513 2500 1
2500 2521 1
2521 2500 1
2501 2502 1
2502 2501 1
2501 2503 1
2503 2501 1
2501 2514 1
2514 2501 1
2501 2522 1
2522 2501 1
2502 2515 1
2515 2502 1
2502 2523 1
2523 2502 1
2503 2516 1
2516 2503 1
2503 2524 1
2524 2503 1
2504 2505 1
2505 2504 1
2504 2506 1
2506 2504 1
2504 2507 1
2507 2504 1
2504 2525 1
2525 2504 1
2505 2508 1
2508 2505 1
2505 2526 1
2526 2505 1
2506 2527 1
2527 2506 1
2507 2508 1
2508 2507 1
2507 2528 1
2528 2507 1
2508 2529 1
2529 2508 1
2509 2510 1
2510 2509 1
2509 2511 1
2511 2509 1
2509 2512 1
2512 2509 1
2509 2514 1
2514 2509 1
2510 2513 1
2513 2510 1
2510 2515 1
2515 2510 1
2511 2516 1
2516 2511 1
2512 2513 1
2513 2512 1
2514 2515 1
2515 2514 1
2514 2516 1
2516 2514 1
2517 2518 1
2518 2517 1
2517 2519 1
2519 2517 1
2517 2520 1
2520 2517 1
2517 2522 1
2522 2517 1
2517 2525 1
2525 2517 1
2518 2521 1
2521 2518 1
2518 2523 1
2523 2518 1
2518 2526 1
2526 2518 1
2519 2524 1
2524 2519 1
2519 2527 1
2527 2519 1
2520 2521 1
2521 2520 1
2520 2528 1
2528 2520 1
2521 2529 1
2529 2521 1
2522 2523 1
2523 2522 1
2522 2524 1
2524 2522 1
2525 2526 1
2526 2525 1
2525 2527 1
2527 2525 1
2525 2528 1
2528 2525 1
2526 2529 1
2529 2526 1
2528 2529 1
2529 2528 1
2530 2531 1
2531 2530 1
2530 2532 1
2532 2530 1
2530 2533 1
2533 2530 1
2530 2535 1
2535 2530 1
2530 2538 1
2538 2530 1
2530 2543 1
2543 2530 1
2530 2551 1
2551 2530 1
2530 2564 1
2564 2530 1
2531 2534 1
2534 2531 1
2531 2536 1
2536 2531 1
2531 2539 1
2539 2531 1
2531 2544 1
2544 2531 1
2531 2552 1
2552 2531 1
2531 2565 1
2565 2531 1
2532 2537 1
2537 2532 1
2532 2540 1
2540 2532 1
2532 2545 1
2545 2532 1
2532 2553 1
2553 2532 1
2532 2566 1
2566 2532 1
2533 2534 1
2534 2533 1
2533 2541 1
2541 2533 1
2533 2546 1
2546 2533 1
2533 2554 1
2554 2533 1
2533 2567 1
2567 2533 1
2534 2542 1
2542 2534 1
2534 2547 1
2547 2534 1
2534 2555 1
2555 2534 1
2534 2568 1
2568 2534 1
2535 2536 1
2536 2535 1
2535 2537 1
2537 2535 1
2535 2548 1
2548 2535 1
2535 2556 1
2556 2535 1
2535 2569 1
2569 2535 1
2536 2549 1
2549 2536 1
2536 2557 1
2557 2536 1
2536 2570 1
2570 2536 1
2537 2550 1
2550 2537 1
2537 2558 1
2558 2537 1
2537 2571 1
2571 2537 1
2538 2539 1
2539 2538 1
2538 2540 1
2540 2538 1
2538 2541 1
2541 2538 1
2538 2559 1
2559 2538 1
2538 2572 1
2572 2538 1
2539 2542 1
2542 2539 1
2539 2560 1
2560 2539 1
2539 2573 1
2573 2539 1
2540 2561 1
2561 2540 1
2540 2574 1
2574 2540 1
2541 2542 1
2542 2541 1
2541 2562 1
2562 2541 1
2541 2575 1
2575 2541 1
2542 2563 1
2563 2542 1
2542 2576 1
2576 2542 1
2543 2544 1
2544 2543 1
2543 2545 1
2545 2543 1
2543 2546 1
2546 2543 1
2543 2548 1
2548 2543 1
2543 2577 1
2577 2543 1
2544 2547 1
2547 2544 1
2544 2549 1
2549 2544 1
2544 2578 1
2578 2544 1
2545 2550 1
2550 2545 1
2545 2579 1
2579 2545 1
2546 2547 1
2547 2546 1
2546 2580 1
2580 2546 1
2547 2581 1
2581 2547 1
2548 2549 1
2549 2548 1
2548 2550 1
2550 2548 1
2548 2582 1
2582 2548 1
2549 2583 1
2583 2549 1
2550 2584 1
2584 2550 1
2551 2552 1
2552 2551 1
2551 2553 1
2553 2551 1
2551 2554 1
2554 2551 1
2551 2556 1
2556 2551 1
2551 2559 1
2559 2551 1
2552 2555 1
2555 2552 1
2552 2557 1
2557 2552 1
2552 2560 1
2560 2552 1
2553 2558 1
2558 2553 1
2553 2561 1
2561 2553 1
2554 2555 1
2555 2554 1
2554 2562 1
2562 2554 1
2555 2563 1
2563 2555 1
2556 2557 1
2557 2556 1
2556 2558 1
2558 2556 1
2559 2560 1
2560 2559 1
2559 2561 1
2561 2559 1
2559 2562 1
2562 2559 1
2560 2563 1
2563 2560 1
2562 2563 1
2563 2562 1
2564 2565 1
2565 2564 1
2564 2566 1
2566 2564 1
2564 2567 1
2567 2564 1
2564 2569 1
2569 2564 1
2564 2572 1
2572 2564 1
2564 2577 1
2577 2564 1
2565 2568 1
2568 2565 1
2565 2570 1
2570 2565 1
2565 2573 1
2573 2565 1
2565 2578 1
2578 2565 1
2566 2571 1
2571 2566 1
2566 2574 1
2574 2566 1
2566 2579 1
2579 2566 1
2567 2568 1
2568 2567 1
2567 2575 1
2575 2567 1
2567 2580 1
2580 2567 1
2568 2576 1
2576 2568 1
2568 2581 1
2581 2568 1
2569 2570 1
2570 2569 1
2569 2571 1
2571 2569 1
2569 2582 1
2582 2569 1
2570 2583 1
2583 2570 1
2571 2584 1
2584 2571 1
2572 2573 1
2573 2572 1
2572 2574 1
2574 2572 1
2572 2575 1
2575 2572 1
2573 2576 1
2576 2573 1
2575 2576 1
2576 2575 1
2577 2578 1
2578 2577 1
2577 2579 1
2579 2577 1
2577 2580 1
2580 2577 1
2577 2582 1
2582 2577 1
2578 2581 1
2581 2578 1
2578 2583 1
2583 2578 1
2579 2584 1
2584 2579 1
2580 2581 1
2581 2580 1
2582 2583 1
2583 2582 1
2582 2584 1
2584 2582 1
