%%MatrixMarket matrix coordinate integer general
% Cubo de Fibonacci Gamma_7 | 34 vertices | 142 arestas
34 34 142
1 2 1
2 1 1
1 3 1
3 1 1
1 4 1
4 1 1
1 6 1
6 1 1
1 9 1
9 1 1
1 14 1
14 1 1
1 22 1
22 1 1
2 5 1
5 2 1
2 7 1
7 2 1
2 10 1
10 2 1
2 15 1
15 2 1
2 23 1
23 2 1
3 8 1
8 3 1
3 11 1
11 3 1
3 16 1
16 3 1
3 24 1
24 3 1
4 5 1
5 4 1
4 12 1
12 4 1
4 17 1
17 4 1
4 25 1
25 4 1
5 13 1
13 5 1
5 18 1
18 5 1
5 26 1
26 5 1
6 7 1
7 6 1
6 8 1
8 6 1
6 19 1
19 6 1
6 27 1
27 6 1
7 20 1
20 7 1
7 28 1
28 7 1
8 21 1
21 8 1
8 29 1
29 8 1
9 10 1
10 9 1
9 11 1
11 9 1
9 12 1
12 9 1
9 30 1
30 9 1
10 13 1
13 10 1
10 31 1
31 10 1
11 32 1
32 11 1
12 13 1
13 12 1
12 33 1
33 12 1
13 34 1
34 13 1
14 15 1
15 14 1
14 16 1
16 14 1
14 17 1
17 14 1
14 19 1
19 14 1
15 18 1
18 15 1
15 20 1
20 15 1
16 21 1
21 16 1
17 18 1
18 17 1
19 20 1
20 19 1
19 21 1
21 19 1
22 23 1
23 22 1
22 24 1
24 22 1
22 25 1
25 22 1
22 27 1
27 22 1
22 30 1
30 22 1
23 26 1
26 23 1
23 28 1
28 23 1
23 31 1
31 23 1
24 29 1
29 24 1
24 32 1
32 24 1
25 26 1
26 25 1
25 33 1
33 25 1
26 34 1
34 26 1
27 28 1
28 27 1
27 29 1
29 27 1
30 31 1
31 30 1
30 32 1
32 30 1
30 33 1
33 30 1
31 34 1
34 31 1
33 34 1
34 33 1
