%%MatrixMarket matrix coordinate integer general
%
680 680 8206
1 2 1
1 79 1
1 80 1
1 99 1
1 100 1
1 641 1
1 642 1
1 665 1
1 666 1
1 667 1
1 668 1
2 1 1
2 79 1
2 80 1
2 99 1
2 100 1
2 641 1
2 642 1
2 665 1
2 666 1
2 667 1
2 668 1
3 4 1
3 5 1
3 6 1
3 79 1
3 80 1
3 631 1
4 3 1
4 5 1
4 6 1
4 79 1
4 80 1
5 3 1
5 4 1
5 6 1
5 79 1
5 80 1
5 631 1
6 3 1
6 4 1
6 5 1
6 79 1
6 80 1
6 304 1
6 632 1
7 8 1
7 9 1
7 10 1
7 185 1
7 186 1
7 187 1
7 188 1
7 371 1
7 372 1
7 413 1
7 414 1
7 469 1
7 470 1
7 553 1
7 554 1
8 7 1
8 9 1
8 10 1
8 185 1
8 186 1
8 187 1
8 188 1
8 371 1
8 372 1
8 413 1
8 414 1
8 469 1
8 470 1
8 553 1
8 554 1
9 7 1
9 8 1
9 10 1
9 185 1
9 186 1
9 187 1
9 188 1
9 371 1
9 372 1
9 413 1
9 414 1
9 469 1
9 470 1
9 553 1
9 554 1
10 7 1
10 8 1
10 9 1
10 185 1
10 186 1
10 187 1
10 188 1
10 371 1
10 372 1
10 413 1
10 414 1
10 469 1
10 470 1
10 553 1
10 554 1
11 12 1
11 325 1
11 326 1
11 327 1
11 328 1
11 329 1
11 330 1
11 657 1
11 658 1
11 659 1
11 660 1
12 11 1
12 325 1
12 326 1
12 327 1
12 328 1
12 329 1
12 330 1
12 657 1
12 658 1
12 659 1
12 660 1
13 14 1
13 21 1
13 22 1
13 327 1
13 328 1
13 329 1
13 330 1
13 637 1
13 638 1
14 13 1
14 21 1
14 22 1
14 327 1
14 328 1
14 329 1
14 330 1
14 637 1
14 638 1
15 16 1
15 43 1
15 47 1
15 48 1
15 673 1
16 15 1
16 44 1
16 47 1
16 48 1
16 674 1
17 18 1
17 615 1
17 616 1
18 17 1
18 287 1
18 615 1
18 616 1
19 20 1
19 21 1
19 22 1
19 23 1
19 24 1
19 51 1
19 52 1
19 637 1
19 638 1
20 19 1
20 21 1
20 22 1
20 23 1
20 24 1
20 51 1
20 52 1
20 637 1
20 638 1
21 13 1
21 14 1
21 19 1
21 20 1
21 22 1
21 23 1
21 24 1
21 637 1
21 638 1
21 649 1
21 650 1
21 661 1
21 662 1
22 13 1
22 14 1
22 19 1
22 20 1
22 21 1
22 23 1
22 24 1
22 637 1
22 638 1
22 649 1
22 650 1
22 661 1
22 662 1
23 19 1
23 20 1
23 21 1
23 22 1
23 24 1
23 31 1
23 32 1
23 649 1
23 650 1
24 19 1
24 20 1
24 21 1
24 22 1
24 23 1
24 649 1
24 650 1
25 26 1
25 27 1
25 28 1
25 461 1
25 462 1
25 613 1
25 614 1
25 647 1
25 648 1
26 25 1
26 27 1
26 28 1
26 461 1
26 462 1
26 613 1
26 614 1
26 647 1
26 648 1
27 25 1
27 26 1
27 28 1
27 461 1
27 462 1
27 613 1
27 614 1
27 647 1
27 648 1
28 25 1
28 26 1
28 27 1
28 461 1
28 462 1
28 613 1
28 614 1
28 647 1
28 648 1
29 30 1
29 257 1
29 258 1
29 525 1
29 526 1
30 29 1
30 257 1
30 258 1
30 525 1
30 526 1
31 23 1
31 32 1
31 33 1
31 34 1
32 23 1
32 31 1
32 33 1
32 34 1
32 461 1
32 570 1
32 648 1
33 31 1
33 32 1
33 34 1
33 155 1
34 31 1
34 32 1
34 33 1
34 156 1
35 36 1
35 37 1
35 38 1
35 427 1
35 428 1
35 533 1
35 534 1
35 551 1
35 552 1
36 35 1
36 37 1
36 38 1
36 427 1
36 428 1
36 533 1
36 534 1
36 551 1
36 552 1
36 565 1
37 35 1
37 36 1
37 38 1
37 427 1
37 428 1
37 533 1
37 534 1
37 551 1
37 552 1
38 35 1
38 36 1
38 37 1
38 427 1
38 428 1
38 533 1
38 534 1
38 551 1
38 552 1
38 565 1
39 40 1
39 307 1
39 308 1
39 309 1
39 310 1
39 323 1
39 324 1
39 475 1
39 476 1
39 635 1
39 636 1
40 39 1
40 307 1
40 308 1
40 309 1
40 310 1
40 323 1
40 324 1
40 475 1
40 476 1
40 635 1
40 636 1
41 42 1
41 43 1
41 44 1
41 45 1
41 46 1
41 47 1
41 48 1
41 53 1
41 54 1
41 305 1
41 673 1
41 674 1
42 41 1
42 43 1
42 44 1
42 45 1
42 46 1
42 47 1
42 48 1
42 53 1
42 54 1
42 673 1
42 674 1
43 15 1
43 41 1
43 42 1
43 44 1
43 45 1
43 46 1
43 47 1
43 48 1
43 53 1
43 54 1
43 629 1
44 16 1
44 41 1
44 42 1
44 43 1
44 45 1
44 46 1
44 47 1
44 48 1
44 53 1
44 54 1
45 41 1
45 42 1
45 43 1
45 44 1
45 46 1
45 47 1
45 48 1
45 53 1
45 54 1
45 673 1
45 674 1
46 41 1
46 42 1
46 43 1
46 44 1
46 45 1
46 47 1
46 48 1
46 53 1
46 54 1
46 673 1
46 674 1
47 15 1
47 16 1
47 41 1
47 42 1
47 43 1
47 44 1
47 45 1
47 46 1
47 48 1
47 53 1
47 54 1
47 306 1
47 673 1
47 674 1
48 15 1
48 16 1
48 41 1
48 42 1
48 43 1
48 44 1
48 45 1
48 46 1
48 47 1
48 53 1
48 54 1
48 305 1
48 673 1
48 674 1
49 50 1
49 51 1
49 52 1
49 331 1
49 332 1
49 461 1
49 462 1
50 49 1
50 51 1
50 52 1
50 331 1
50 332 1
50 461 1
50 462 1
51 19 1
51 20 1
51 49 1
51 50 1
51 52 1
51 637 1
51 638 1
52 19 1
52 20 1
52 49 1
52 50 1
52 51 1
52 637 1
52 638 1
53 41 1
53 42 1
53 43 1
53 44 1
53 45 1
53 46 1
53 47 1
53 48 1
53 54 1
53 673 1
53 674 1
54 41 1
54 42 1
54 43 1
54 44 1
54 45 1
54 46 1
54 47 1
54 48 1
54 53 1
54 307 1
54 629 1
54 673 1
54 674 1
55 56 1
55 57 1
55 58 1
55 67 1
55 81 1
55 82 1
55 85 1
55 86 1
55 111 1
55 112 1
55 265 1
55 266 1
55 269 1
55 285 1
55 292 1
55 377 1
55 378 1
55 433 1
55 434 1
55 471 1
55 472 1
55 527 1
55 605 1
55 606 1
55 607 1
55 608 1
55 609 1
55 610 1
55 675 1
55 676 1
56 55 1
56 57 1
56 58 1
56 60 1
56 68 1
56 81 1
56 82 1
56 83 1
56 84 1
56 85 1
56 86 1
56 112 1
56 265 1
56 266 1
56 286 1
56 291 1
56 377 1
56 378 1
56 433 1
56 434 1
56 471 1
56 472 1
56 605 1
56 606 1
56 607 1
56 608 1
56 609 1
56 610 1
56 675 1
56 676 1
57 55 1
57 56 1
57 58 1
57 67 1
57 68 1
57 69 1
57 70 1
57 81 1
57 82 1
57 85 1
57 86 1
57 103 1
57 105 1
57 111 1
57 112 1
57 265 1
57 266 1
57 292 1
57 377 1
57 378 1
57 433 1
57 434 1
57 471 1
57 472 1
57 605 1
57 606 1
57 608 1
57 609 1
57 610 1
58 55 1
58 56 1
58 57 1
58 67 1
58 68 1
58 69 1
58 70 1
58 85 1
58 86 1
58 111 1
58 112 1
58 265 1
58 266 1
58 286 1
58 291 1
58 377 1
58 378 1
58 433 1
58 434 1
58 471 1
58 472 1
58 555 1
58 556 1
58 605 1
58 606 1
58 607 1
58 609 1
58 610 1
58 675 1
59 60 1
59 61 1
59 62 1
59 69 1
59 82 1
59 86 1
59 101 1
59 102 1
59 107 1
59 165 1
59 167 1
59 429 1
59 430 1
59 432 1
59 434 1
59 609 1
60 56 1
60 59 1
60 61 1
60 62 1
60 69 1
60 85 1
60 101 1
60 102 1
60 107 1
60 108 1
60 291 1
60 429 1
60 430 1
60 608 1
60 675 1
61 59 1
61 60 1
61 62 1
61 69 1
61 102 1
61 108 1
61 429 1
62 59 1
62 60 1
62 61 1
62 70 1
62 81 1
62 82 1
62 86 1
62 101 1
62 107 1
62 430 1
62 432 1
62 471 1
62 607 1
62 676 1
63 64 1
63 65 1
63 66 1
63 139 1
63 140 1
63 141 1
63 142 1
63 143 1
63 144 1
63 147 1
63 148 1
63 149 1
63 150 1
63 205 1
63 206 1
63 207 1
63 208 1
63 499 1
63 500 1
63 503 1
63 504 1
63 505 1
63 506 1
63 507 1
63 508 1
63 509 1
63 510 1
63 568 1
64 63 1
64 65 1
64 66 1
64 139 1
64 140 1
64 141 1
64 142 1
64 143 1
64 144 1
64 147 1
64 148 1
64 149 1
64 150 1
64 205 1
64 206 1
64 207 1
64 208 1
64 499 1
64 500 1
64 503 1
64 504 1
64 505 1
64 506 1
64 507 1
64 508 1
64 509 1
64 510 1
65 63 1
65 64 1
65 66 1
65 139 1
65 140 1
65 141 1
65 142 1
65 143 1
65 144 1
65 147 1
65 148 1
65 149 1
65 150 1
65 205 1
65 206 1
65 207 1
65 208 1
65 499 1
65 500 1
65 503 1
65 504 1
65 505 1
65 506 1
65 507 1
65 508 1
65 509 1
65 510 1
65 568 1
66 63 1
66 64 1
66 65 1
66 139 1
66 140 1
66 141 1
66 142 1
66 143 1
66 144 1
66 147 1
66 148 1
66 149 1
66 150 1
66 205 1
66 206 1
66 207 1
66 208 1
66 499 1
66 500 1
66 503 1
66 504 1
66 505 1
66 506 1
66 507 1
66 508 1
66 509 1
66 510 1
67 55 1
67 57 1
67 58 1
67 68 1
67 69 1
67 70 1
67 81 1
67 82 1
67 83 1
67 85 1
67 86 1
67 103 1
67 104 1
67 105 1
67 106 1
67 111 1
67 112 1
67 161 1
67 162 1
67 166 1
67 168 1
67 265 1
67 285 1
67 292 1
67 377 1
67 433 1
67 434 1
67 455 1
67 456 1
67 457 1
67 458 1
67 471 1
67 501 1
67 502 1
67 605 1
67 607 1
67 608 1
67 675 1
67 676 1
68 56 1
68 57 1
68 58 1
68 67 1
68 69 1
68 70 1
68 81 1
68 82 1
68 83 1
68 85 1
68 86 1
68 103 1
68 104 1
68 105 1
68 106 1
68 111 1
68 112 1
68 161 1
68 162 1
68 165 1
68 167 1
68 265 1
68 266 1
68 286 1
68 291 1
68 433 1
68 434 1
68 455 1
68 456 1
68 457 1
68 458 1
68 472 1
68 501 1
68 502 1
68 556 1
68 605 1
68 606 1
68 607 1
68 608 1
68 610 1
68 675 1
68 676 1
69 57 1
69 58 1
69 59 1
69 60 1
69 61 1
69 67 1
69 68 1
69 70 1
69 81 1
69 82 1
69 85 1
69 86 1
69 102 1
69 103 1
69 104 1
69 105 1
69 106 1
69 111 1
69 112 1
69 177 1
69 178 1
69 179 1
69 180 1
69 265 1
69 377 1
69 389 1
69 390 1
69 433 1
69 434 1
69 455 1
69 456 1
69 457 1
69 458 1
69 471 1
69 472 1
69 556 1
69 605 1
69 609 1
70 57 1
70 58 1
70 62 1
70 67 1
70 68 1
70 69 1
70 82 1
70 83 1
70 85 1
70 86 1
70 101 1
70 103 1
70 104 1
70 105 1
70 106 1
70 107 1
70 108 1
70 111 1
70 112 1
70 177 1
70 178 1
70 179 1
70 180 1
70 266 1
70 378 1
70 389 1
70 390 1
70 429 1
70 433 1
70 455 1
70 456 1
70 457 1
70 458 1
70 471 1
70 472 1
70 555 1
70 606 1
70 610 1
71 72 1
71 73 1
71 74 1
71 203 1
71 204 1
71 205 1
71 206 1
71 207 1
71 208 1
71 209 1
71 210 1
71 211 1
71 212 1
71 511 1
71 512 1
71 513 1
71 514 1
72 71 1
72 73 1
72 74 1
72 203 1
72 204 1
72 205 1
72 206 1
72 207 1
72 208 1
72 209 1
72 210 1
72 211 1
72 212 1
72 511 1
72 512 1
72 513 1
72 514 1
73 71 1
73 72 1
73 74 1
73 203 1
73 204 1
73 205 1
73 206 1
73 207 1
73 208 1
73 209 1
73 210 1
73 211 1
73 212 1
73 511 1
73 512 1
73 513 1
73 514 1
74 71 1
74 72 1
74 73 1
74 203 1
74 204 1
74 205 1
74 206 1
74 207 1
74 208 1
74 209 1
74 210 1
74 211 1
74 212 1
74 511 1
74 512 1
74 513 1
74 514 1
75 76 1
75 77 1
75 78 1
75 195 1
75 196 1
75 197 1
75 198 1
75 217 1
75 218 1
75 319 1
75 367 1
75 368 1
76 75 1
76 77 1
76 78 1
76 195 1
76 196 1
76 197 1
76 198 1
76 217 1
76 218 1
76 367 1
76 368 1
76 538 1
77 75 1
77 76 1
77 78 1
77 195 1
77 196 1
77 197 1
77 198 1
77 217 1
77 218 1
77 319 1
77 367 1
77 368 1
78 75 1
78 76 1
78 77 1
78 195 1
78 196 1
78 197 1
78 198 1
78 217 1
78 218 1
78 367 1
78 368 1
78 538 1
79 1 1
79 2 1
79 3 1
79 4 1
79 5 1
79 6 1
79 80 1
79 99 1
79 100 1
79 641 1
79 642 1
80 1 1
80 2 1
80 3 1
80 4 1
80 5 1
80 6 1
80 79 1
80 99 1
80 100 1
80 641 1
80 642 1
81 55 1
81 56 1
81 57 1
81 62 1
81 67 1
81 68 1
81 69 1
81 82 1
81 85 1
81 86 1
81 103 1
81 105 1
81 111 1
81 285 1
81 286 1
81 291 1
81 292 1
81 377 1
81 429 1
81 430 1
81 543 1
81 546 1
81 555 1
81 607 1
81 608 1
81 675 1
81 676 1
82 55 1
82 56 1
82 57 1
82 59 1
82 62 1
82 67 1
82 68 1
82 69 1
82 70 1
82 81 1
82 85 1
82 86 1
82 102 1
82 103 1
82 104 1
82 105 1
82 106 1
82 108 1
82 111 1
82 112 1
82 165 1
82 166 1
82 167 1
82 168 1
82 265 1
82 266 1
82 269 1
82 285 1
82 286 1
82 291 1
82 292 1
82 429 1
82 430 1
82 433 1
82 464 1
82 555 1
82 605 1
82 606 1
82 607 1
82 608 1
82 610 1
82 675 1
82 676 1
83 56 1
83 67 1
83 68 1
83 70 1
83 84 1
83 85 1
83 86 1
83 102 1
83 103 1
83 105 1
83 108 1
83 111 1
83 166 1
83 168 1
83 177 1
83 178 1
83 179 1
83 180 1
83 233 1
83 234 1
83 241 1
83 242 1
83 266 1
83 269 1
83 270 1
83 286 1
83 291 1
83 317 1
83 318 1
83 433 1
83 463 1
83 527 1
83 528 1
83 559 1
83 560 1
83 606 1
84 56 1
84 83 1
84 85 1
84 86 1
84 177 1
84 178 1
84 179 1
84 180 1
84 233 1
84 234 1
84 240 1
84 241 1
84 242 1
84 269 1
84 270 1
84 286 1
84 291 1
84 317 1
84 318 1
84 527 1
84 528 1
84 597 1
84 598 1
85 55 1
85 56 1
85 57 1
85 58 1
85 60 1
85 67 1
85 68 1
85 69 1
85 70 1
85 81 1
85 82 1
85 83 1
85 84 1
85 86 1
85 103 1
85 104 1
85 105 1
85 106 1
85 108 1
85 111 1
85 112 1
85 162 1
85 166 1
85 168 1
85 177 1
85 178 1
85 179 1
85 180 1
85 233 1
85 234 1
85 241 1
85 242 1
85 265 1
85 266 1
85 269 1
85 270 1
85 285 1
85 286 1
85 291 1
85 292 1
85 317 1
85 318 1
85 377 1
85 378 1
85 429 1
85 433 1
85 434 1
85 456 1
85 458 1
85 463 1
85 471 1
85 472 1
85 502 1
85 527 1
85 528 1
85 605 1
85 606 1
85 608 1
85 609 1
85 610 1
85 675 1
85 676 1
86 55 1
86 56 1
86 57 1
86 58 1
86 59 1
86 62 1
86 67 1
86 68 1
86 69 1
86 70 1
86 81 1
86 82 1
86 83 1
86 84 1
86 85 1
86 103 1
86 104 1
86 105 1
86 106 1
86 108 1
86 111 1
86 112 1
86 177 1
86 179 1
86 233 1
86 234 1
86 241 1
86 242 1
86 265 1
86 266 1
86 269 1
86 270 1
86 285 1
86 286 1
86 291 1
86 292 1
86 317 1
86 318 1
86 377 1
86 429 1
86 430 1
86 434 1
86 471 1
86 472 1
86 527 1
86 528 1
86 555 1
86 597 1
86 605 1
86 606 1
86 607 1
86 608 1
86 609 1
86 675 1
86 676 1
87 88 1
87 89 1
87 90 1
88 87 1
88 89 1
88 90 1
88 115 1
88 492 1
89 87 1
89 88 1
89 90 1
90 87 1
90 88 1
90 89 1
90 115 1
90 492 1
91 92 1
91 93 1
91 94 1
91 239 1
91 240 1
91 317 1
91 318 1
91 463 1
91 464 1
92 91 1
92 93 1
92 94 1
92 169 1
92 171 1
92 239 1
92 240 1
92 317 1
92 318 1
92 463 1
92 464 1
93 91 1
93 92 1
93 94 1
93 239 1
93 240 1
93 317 1
93 318 1
93 463 1
93 464 1
94 91 1
94 92 1
94 93 1
94 169 1
94 171 1
94 239 1
94 240 1
94 317 1
94 318 1
94 463 1
94 464 1
95 96 1
95 97 1
95 98 1
95 325 1
95 326 1
95 633 1
95 634 1
96 95 1
96 97 1
96 98 1
96 325 1
96 326 1
96 633 1
96 634 1
97 95 1
97 96 1
97 98 1
97 99 1
97 100 1
97 631 1
97 632 1
98 95 1
98 96 1
98 97 1
98 99 1
98 100 1
98 631 1
98 632 1
99 1 1
99 2 1
99 79 1
99 80 1
99 97 1
99 98 1
99 100 1
99 631 1
99 632 1
99 641 1
99 642 1
100 1 1
100 2 1
100 79 1
100 80 1
100 97 1
100 98 1
100 99 1
100 631 1
100 632 1
100 641 1
100 642 1
100 667 1
101 59 1
101 60 1
101 62 1
101 70 1
101 102 1
101 103 1
101 104 1
101 105 1
101 106 1
101 107 1
101 108 1
101 165 1
101 166 1
101 167 1
101 168 1
101 430 1
101 432 1
101 464 1
101 471 1
102 59 1
102 60 1
102 61 1
102 69 1
102 82 1
102 83 1
102 101 1
102 103 1
102 104 1
102 105 1
102 106 1
102 107 1
102 108 1
102 165 1
102 166 1
102 167 1
102 168 1
102 429 1
102 430 1
102 471 1
103 57 1
103 67 1
103 68 1
103 69 1
103 70 1
103 81 1
103 82 1
103 83 1
103 85 1
103 86 1
103 101 1
103 102 1
103 104 1
103 105 1
103 106 1
103 107 1
103 108 1
103 111 1
103 165 1
103 166 1
103 167 1
103 168 1
103 471 1
103 607 1
103 676 1
104 67 1
104 68 1
104 69 1
104 70 1
104 82 1
104 85 1
104 86 1
104 101 1
104 102 1
104 103 1
104 105 1
104 106 1
104 107 1
104 108 1
104 112 1
104 165 1
104 166 1
104 167 1
104 168 1
104 434 1
104 471 1
105 57 1
105 67 1
105 68 1
105 69 1
105 70 1
105 81 1
105 82 1
105 83 1
105 85 1
105 86 1
105 101 1
105 102 1
105 103 1
105 104 1
105 106 1
105 107 1
105 108 1
105 111 1
105 165 1
105 166 1
105 167 1
105 168 1
105 471 1
105 607 1
105 676 1
106 67 1
106 68 1
106 69 1
106 70 1
106 82 1
106 85 1
106 86 1
106 101 1
106 102 1
106 103 1
106 104 1
106 105 1
106 107 1
106 108 1
106 112 1
106 165 1
106 166 1
106 167 1
106 168 1
106 434 1
106 471 1
107 59 1
107 60 1
107 62 1
107 70 1
107 101 1
107 102 1
107 103 1
107 104 1
107 105 1
107 106 1
107 108 1
107 165 1
107 166 1
107 167 1
107 168 1
107 430 1
107 471 1
107 472 1
108 60 1
108 61 1
108 70 1
108 82 1
108 83 1
108 85 1
108 86 1
108 101 1
108 102 1
108 103 1
108 104 1
108 105 1
108 106 1
108 107 1
108 165 1
108 166 1
108 167 1
108 168 1
108 429 1
108 471 1
109 110 1
109 129 1
109 130 1
109 189 1
109 190 1
109 191 1
109 192 1
109 219 1
109 220 1
109 223 1
109 227 1
109 230 1
109 231 1
109 347 1
109 348 1
109 549 1
110 109 1
110 129 1
110 130 1
110 189 1
110 190 1
110 191 1
110 192 1
110 219 1
110 220 1
110 223 1
110 224 1
110 227 1
110 228 1
110 230 1
110 231 1
110 232 1
110 347 1
110 348 1
110 349 1
110 550 1
111 55 1
111 57 1
111 58 1
111 67 1
111 68 1
111 69 1
111 70 1
111 81 1
111 82 1
111 83 1
111 85 1
111 86 1
111 103 1
111 105 1
111 112 1
111 161 1
111 241 1
111 242 1
111 285 1
111 377 1
111 463 1
111 464 1
111 471 1
111 472 1
111 501 1
111 555 1
111 559 1
111 560 1
111 607 1
111 675 1
111 676 1
112 55 1
112 56 1
112 57 1
112 58 1
112 67 1
112 68 1
112 69 1
112 70 1
112 82 1
112 85 1
112 86 1
112 104 1
112 106 1
112 111 1
112 241 1
112 242 1
112 378 1
112 463 1
112 464 1
112 471 1
112 556 1
113 114 1
113 591 1
113 592 1
113 593 1
113 594 1
114 113 1
114 591 1
114 592 1
114 593 1
114 594 1
115 88 1
115 90 1
115 116 1
115 491 1
115 492 1
116 115 1
116 491 1
116 492 1
117 118 1
117 119 1
117 120 1
117 213 1
117 214 1
117 375 1
117 376 1
117 391 1
117 392 1
117 405 1
117 406 1
117 435 1
117 436 1
117 581 1
117 582 1
118 117 1
118 119 1
118 120 1
118 213 1
118 214 1
118 375 1
118 376 1
118 391 1
118 392 1
118 405 1
118 406 1
118 435 1
118 436 1
118 581 1
118 582 1
119 117 1
119 118 1
119 120 1
119 215 1
119 216 1
120 117 1
120 118 1
120 119 1
120 215 1
120 216 1
121 122 1
121 151 1
121 152 1
121 169 1
121 170 1
121 171 1
121 172 1
121 175 1
121 176 1
121 213 1
121 214 1
121 335 1
121 336 1
122 121 1
122 151 1
122 152 1
122 169 1
122 170 1
122 171 1
122 172 1
122 175 1
122 176 1
122 213 1
122 214 1
122 335 1
122 336 1
123 124 1
123 201 1
123 202 1
124 123 1
124 201 1
124 202 1
124 255 1
124 256 1
125 126 1
125 199 1
125 200 1
125 526 1
126 125 1
126 199 1
126 200 1
126 525 1
126 526 1
127 128 1
127 283 1
127 284 1
128 127 1
128 283 1
128 284 1
128 418 1
129 109 1
129 110 1
129 130 1
129 189 1
129 190 1
129 191 1
129 192 1
129 224 1
129 230 1
129 348 1
129 529 1
129 530 1
129 549 1
129 550 1
130 109 1
130 110 1
130 129 1
130 189 1
130 190 1
130 191 1
130 192 1
130 223 1
130 348 1
130 529 1
130 530 1
130 549 1
130 550 1
131 132 1
131 133 1
131 134 1
131 373 1
131 374 1
131 417 1
131 418 1
131 459 1
131 460 1
132 131 1
132 133 1
132 134 1
132 373 1
132 374 1
132 400 1
132 417 1
132 418 1
132 459 1
132 460 1
133 131 1
133 132 1
133 134 1
133 373 1
133 374 1
133 417 1
133 418 1
133 459 1
133 460 1
134 131 1
134 132 1
134 133 1
134 373 1
134 374 1
134 400 1
134 417 1
134 418 1
134 459 1
134 460 1
135 136 1
135 137 1
135 138 1
135 139 1
135 140 1
135 141 1
135 142 1
135 143 1
135 144 1
135 157 1
135 158 1
135 369 1
135 370 1
135 397 1
135 398 1
135 422 1
135 443 1
135 444 1
135 499 1
135 500 1
135 503 1
135 504 1
135 505 1
135 506 1
135 567 1
136 135 1
136 137 1
136 138 1
136 139 1
136 140 1
136 141 1
136 142 1
136 143 1
136 144 1
136 157 1
136 158 1
136 369 1
136 370 1
136 397 1
136 398 1
136 422 1
136 443 1
136 444 1
136 499 1
136 500 1
136 503 1
136 504 1
136 505 1
136 506 1
137 135 1
137 136 1
137 138 1
137 139 1
137 140 1
137 141 1
137 142 1
137 143 1
137 144 1
137 157 1
137 158 1
137 369 1
137 370 1
137 397 1
137 398 1
137 422 1
137 443 1
137 444 1
137 499 1
137 500 1
137 503 1
137 504 1
137 505 1
137 506 1
137 567 1
138 135 1
138 136 1
138 137 1
138 139 1
138 140 1
138 141 1
138 142 1
138 143 1
138 144 1
138 157 1
138 158 1
138 369 1
138 370 1
138 397 1
138 398 1
138 422 1
138 443 1
138 444 1
138 499 1
138 500 1
138 503 1
138 504 1
138 505 1
138 506 1
139 63 1
139 64 1
139 65 1
139 66 1
139 135 1
139 136 1
139 137 1
139 138 1
139 140 1
139 141 1
139 142 1
139 143 1
139 144 1
139 369 1
139 370 1
139 397 1
139 398 1
139 421 1
139 499 1
139 500 1
139 503 1
139 504 1
139 505 1
139 506 1
139 507 1
139 508 1
139 509 1
139 510 1
140 63 1
140 64 1
140 65 1
140 66 1
140 135 1
140 136 1
140 137 1
140 138 1
140 139 1
140 141 1
140 142 1
140 143 1
140 144 1
140 369 1
140 370 1
140 397 1
140 398 1
140 421 1
140 422 1
140 499 1
140 500 1
140 503 1
140 504 1
140 505 1
140 506 1
140 507 1
140 508 1
140 509 1
140 510 1
140 567 1
141 63 1
141 64 1
141 65 1
141 66 1
141 135 1
141 136 1
141 137 1
141 138 1
141 139 1
141 140 1
141 142 1
141 143 1
141 144 1
141 369 1
141 370 1
141 397 1
141 398 1
141 421 1
141 499 1
141 500 1
141 503 1
141 504 1
141 505 1
141 506 1
141 507 1
141 508 1
141 509 1
141 510 1
142 63 1
142 64 1
142 65 1
142 66 1
142 135 1
142 136 1
142 137 1
142 138 1
142 139 1
142 140 1
142 141 1
142 143 1
142 144 1
142 369 1
142 370 1
142 397 1
142 398 1
142 421 1
142 422 1
142 499 1
142 500 1
142 503 1
142 504 1
142 505 1
142 506 1
142 507 1
142 508 1
142 509 1
142 510 1
142 567 1
143 63 1
143 64 1
143 65 1
143 66 1
143 135 1
143 136 1
143 137 1
143 138 1
143 139 1
143 140 1
143 141 1
143 142 1
143 144 1
143 147 1
143 148 1
143 149 1
143 150 1
143 205 1
143 206 1
143 207 1
143 208 1
143 369 1
143 370 1
143 397 1
143 398 1
143 499 1
143 500 1
143 503 1
143 504 1
143 505 1
143 506 1
143 507 1
143 508 1
143 509 1
143 510 1
144 63 1
144 64 1
144 65 1
144 66 1
144 135 1
144 136 1
144 137 1
144 138 1
144 139 1
144 140 1
144 141 1
144 142 1
144 143 1
144 147 1
144 148 1
144 149 1
144 150 1
144 205 1
144 206 1
144 207 1
144 208 1
144 369 1
144 370 1
144 397 1
144 398 1
144 421 1
144 499 1
144 500 1
144 503 1
144 504 1
144 505 1
144 506 1
144 507 1
144 508 1
144 509 1
144 510 1
145 146 1
145 181 1
145 182 1
145 183 1
145 184 1
145 561 1
146 145 1
146 181 1
146 182 1
146 183 1
146 184 1
147 63 1
147 64 1
147 65 1
147 66 1
147 143 1
147 144 1
147 148 1
147 149 1
147 150 1
147 205 1
147 206 1
147 207 1
147 208 1
147 499 1
147 500 1
147 507 1
147 508 1
147 509 1
147 510 1
148 63 1
148 64 1
148 65 1
148 66 1
148 143 1
148 144 1
148 147 1
148 149 1
148 150 1
148 205 1
148 206 1
148 207 1
148 208 1
148 499 1
148 500 1
148 507 1
148 508 1
148 509 1
148 510 1
149 63 1
149 64 1
149 65 1
149 66 1
149 143 1
149 144 1
149 147 1
149 148 1
149 150 1
149 205 1
149 206 1
149 207 1
149 208 1
149 499 1
149 500 1
149 507 1
149 508 1
149 509 1
149 510 1
150 63 1
150 64 1
150 65 1
150 66 1
150 143 1
150 144 1
150 147 1
150 148 1
150 149 1
150 205 1
150 206 1
150 207 1
150 208 1
150 398 1
150 499 1
150 500 1
150 507 1
150 508 1
150 509 1
150 510 1
151 121 1
151 122 1
151 152 1
151 169 1
151 170 1
151 171 1
151 172 1
151 175 1
151 176 1
151 335 1
151 336 1
151 463 1
152 121 1
152 122 1
152 151 1
152 169 1
152 170 1
152 171 1
152 172 1
152 175 1
152 176 1
152 335 1
152 336 1
153 154 1
153 312 1
153 420 1
154 153 1
154 311 1
154 419 1
155 33 1
155 156 1
155 157 1
155 158 1
155 570 1
156 34 1
156 155 1
156 157 1
156 158 1
156 553 1
156 554 1
157 135 1
157 136 1
157 137 1
157 138 1
157 155 1
157 156 1
157 158 1
157 443 1
157 444 1
158 135 1
158 136 1
158 137 1
158 138 1
158 155 1
158 156 1
158 157 1
158 443 1
158 444 1
159 160 1
159 163 1
159 196 1
159 198 1
159 247 1
159 248 1
159 253 1
159 361 1
159 362 1
159 520 1
159 522 1
159 524 1
160 159 1
160 163 1
160 243 1
160 248 1
160 252 1
160 253 1
160 264 1
160 319 1
160 334 1
160 361 1
160 362 1
160 364 1
160 521 1
160 522 1
160 523 1
160 524 1
160 538 1
160 540 1
161 67 1
161 68 1
161 111 1
161 162 1
161 455 1
161 456 1
161 457 1
161 458 1
161 501 1
161 502 1
162 67 1
162 68 1
162 85 1
162 161 1
162 455 1
162 456 1
162 457 1
162 458 1
162 501 1
162 502 1
163 159 1
163 160 1
163 164 1
164 163 1
165 59 1
165 68 1
165 82 1
165 101 1
165 102 1
165 103 1
165 104 1
165 105 1
165 106 1
165 107 1
165 108 1
165 166 1
165 167 1
165 168 1
165 169 1
165 170 1
165 171 1
165 172 1
165 430 1
165 472 1
165 473 1
165 474 1
165 527 1
165 676 1
166 67 1
166 82 1
166 83 1
166 85 1
166 101 1
166 102 1
166 103 1
166 104 1
166 105 1
166 106 1
166 107 1
166 108 1
166 165 1
166 167 1
166 168 1
166 169 1
166 170 1
166 171 1
166 172 1
166 471 1
166 473 1
166 474 1
167 59 1
167 68 1
167 82 1
167 101 1
167 102 1
167 103 1
167 104 1
167 105 1
167 106 1
167 107 1
167 108 1
167 165 1
167 166 1
167 168 1
167 169 1
167 170 1
167 171 1
167 172 1
167 430 1
167 472 1
167 473 1
167 474 1
167 527 1
167 676 1
168 67 1
168 82 1
168 83 1
168 85 1
168 101 1
168 102 1
168 103 1
168 104 1
168 105 1
168 106 1
168 107 1
168 108 1
168 165 1
168 166 1
168 167 1
168 169 1
168 170 1
168 171 1
168 172 1
168 471 1
168 473 1
168 474 1
169 92 1
169 94 1
169 121 1
169 122 1
169 151 1
169 152 1
169 165 1
169 166 1
169 167 1
169 168 1
169 170 1
169 171 1
169 172 1
169 175 1
169 176 1
169 335 1
169 336 1
169 432 1
169 473 1
169 474 1
170 121 1
170 122 1
170 151 1
170 152 1
170 165 1
170 166 1
170 167 1
170 168 1
170 169 1
170 171 1
170 172 1
170 175 1
170 176 1
170 335 1
170 336 1
170 473 1
170 474 1
171 92 1
171 94 1
171 121 1
171 122 1
171 151 1
171 152 1
171 165 1
171 166 1
171 167 1
171 168 1
171 169 1
171 170 1
171 172 1
171 175 1
171 176 1
171 335 1
171 336 1
171 432 1
171 473 1
171 474 1
172 121 1
172 122 1
172 151 1
172 152 1
172 165 1
172 166 1
172 167 1
172 168 1
172 169 1
172 170 1
172 171 1
172 175 1
172 176 1
172 335 1
172 336 1
172 473 1
172 474 1
173 174 1
173 175 1
173 176 1
173 177 1
173 178 1
173 179 1
173 180 1
174 173 1
174 175 1
174 176 1
174 177 1
174 178 1
174 179 1
174 180 1
175 121 1
175 122 1
175 151 1
175 152 1
175 169 1
175 170 1
175 171 1
175 172 1
175 173 1
175 174 1
175 176 1
175 177 1
175 178 1
175 179 1
175 180 1
175 335 1
175 336 1
175 463 1
176 121 1
176 122 1
176 151 1
176 152 1
176 169 1
176 170 1
176 171 1
176 172 1
176 173 1
176 174 1
176 175 1
176 177 1
176 178 1
176 179 1
176 180 1
176 335 1
176 336 1
177 69 1
177 70 1
177 83 1
177 84 1
177 85 1
177 86 1
177 173 1
177 174 1
177 175 1
177 176 1
177 178 1
177 179 1
177 180 1
177 270 1
177 389 1
177 390 1
177 455 1
177 456 1
177 457 1
177 458 1
177 471 1
177 472 1
178 69 1
178 70 1
178 83 1
178 84 1
178 85 1
178 173 1
178 174 1
178 175 1
178 176 1
178 177 1
178 179 1
178 180 1
178 318 1
178 389 1
178 390 1
178 455 1
178 456 1
178 457 1
178 458 1
178 471 1
178 472 1
179 69 1
179 70 1
179 83 1
179 84 1
179 85 1
179 86 1
179 173 1
179 174 1
179 175 1
179 176 1
179 177 1
179 178 1
179 180 1
179 389 1
179 390 1
179 455 1
179 456 1
179 457 1
179 458 1
179 471 1
179 472 1
180 69 1
180 70 1
180 83 1
180 84 1
180 85 1
180 173 1
180 174 1
180 175 1
180 176 1
180 177 1
180 178 1
180 179 1
180 318 1
180 389 1
180 390 1
180 455 1
180 456 1
180 457 1
180 458 1
180 471 1
180 472 1
181 145 1
181 146 1
181 182 1
181 183 1
181 184 1
182 145 1
182 146 1
182 181 1
182 183 1
182 184 1
183 145 1
183 146 1
183 181 1
183 182 1
183 184 1
184 145 1
184 146 1
184 181 1
184 182 1
184 183 1
185 7 1
185 8 1
185 9 1
185 10 1
185 186 1
185 187 1
185 188 1
185 371 1
185 372 1
185 408 1
185 413 1
185 414 1
185 445 1
185 469 1
185 470 1
185 553 1
185 554 1
186 7 1
186 8 1
186 9 1
186 10 1
186 185 1
186 187 1
186 188 1
186 371 1
186 372 1
186 413 1
186 414 1
186 469 1
186 470 1
186 553 1
186 554 1
187 7 1
187 8 1
187 9 1
187 10 1
187 185 1
187 186 1
187 188 1
187 371 1
187 372 1
187 408 1
187 413 1
187 414 1
187 445 1
187 469 1
187 470 1
187 553 1
187 554 1
188 7 1
188 8 1
188 9 1
188 10 1
188 185 1
188 186 1
188 187 1
188 371 1
188 372 1
188 413 1
188 414 1
188 469 1
188 470 1
188 553 1
188 554 1
189 109 1
189 110 1
189 129 1
189 130 1
189 190 1
189 191 1
189 192 1
189 224 1
189 227 1
189 230 1
189 231 1
189 529 1
189 530 1
189 549 1
189 550 1
190 109 1
190 110 1
190 129 1
190 130 1
190 189 1
190 191 1
190 192 1
190 219 1
190 220 1
190 228 1
190 229 1
190 529 1
190 530 1
190 549 1
190 550 1
191 109 1
191 110 1
191 129 1
191 130 1
191 189 1
191 190 1
191 192 1
191 224 1
191 227 1
191 230 1
191 231 1
191 529 1
191 530 1
191 549 1
191 550 1
192 109 1
192 110 1
192 129 1
192 130 1
192 189 1
192 190 1
192 191 1
192 219 1
192 220 1
192 228 1
192 229 1
192 529 1
192 530 1
192 549 1
192 550 1
193 194 1
193 215 1
193 216 1
193 405 1
193 406 1
193 447 1
193 448 1
194 193 1
194 215 1
194 216 1
194 380 1
194 405 1
194 406 1
194 415 1
194 447 1
194 448 1
194 449 1
195 75 1
195 76 1
195 77 1
195 78 1
195 196 1
195 197 1
195 198 1
195 217 1
195 218 1
195 244 1
195 367 1
195 368 1
195 515 1
195 517 1
196 75 1
196 76 1
196 77 1
196 78 1
196 159 1
196 195 1
196 197 1
196 198 1
196 217 1
196 218 1
196 367 1
196 368 1
197 75 1
197 76 1
197 77 1
197 78 1
197 195 1
197 196 1
197 198 1
197 217 1
197 218 1
197 244 1
197 367 1
197 368 1
197 515 1
197 517 1
198 75 1
198 76 1
198 77 1
198 78 1
198 159 1
198 195 1
198 196 1
198 197 1
198 217 1
198 218 1
198 367 1
198 368 1
199 125 1
199 126 1
199 200 1
199 497 1
199 498 1
199 525 1
199 526 1
199 679 1
199 680 1
200 125 1
200 126 1
200 199 1
200 497 1
200 498 1
200 679 1
200 680 1
201 123 1
201 124 1
201 202 1
201 255 1
201 256 1
201 268 1
202 123 1
202 124 1
202 201 1
202 256 1
202 267 1
202 268 1
203 71 1
203 72 1
203 73 1
203 74 1
203 204 1
203 209 1
203 210 1
203 211 1
203 212 1
203 511 1
203 512 1
203 513 1
203 514 1
204 71 1
204 72 1
204 73 1
204 74 1
204 203 1
204 209 1
204 210 1
204 211 1
204 212 1
204 511 1
204 512 1
204 513 1
204 514 1
205 63 1
205 64 1
205 65 1
205 66 1
205 71 1
205 72 1
205 73 1
205 74 1
205 143 1
205 144 1
205 147 1
205 148 1
205 149 1
205 150 1
205 206 1
205 207 1
205 208 1
205 209 1
205 210 1
205 211 1
205 212 1
205 499 1
205 500 1
205 507 1
205 508 1
205 509 1
205 510 1
206 63 1
206 64 1
206 65 1
206 66 1
206 71 1
206 72 1
206 73 1
206 74 1
206 143 1
206 144 1
206 147 1
206 148 1
206 149 1
206 150 1
206 205 1
206 207 1
206 208 1
206 209 1
206 210 1
206 211 1
206 212 1
206 499 1
206 500 1
206 507 1
206 508 1
206 509 1
206 510 1
207 63 1
207 64 1
207 65 1
207 66 1
207 71 1
207 72 1
207 73 1
207 74 1
207 143 1
207 144 1
207 147 1
207 148 1
207 149 1
207 150 1
207 205 1
207 206 1
207 208 1
207 209 1
207 210 1
207 211 1
207 212 1
207 499 1
207 500 1
207 507 1
207 508 1
207 509 1
207 510 1
208 63 1
208 64 1
208 65 1
208 66 1
208 71 1
208 72 1
208 73 1
208 74 1
208 143 1
208 144 1
208 147 1
208 148 1
208 149 1
208 150 1
208 205 1
208 206 1
208 207 1
208 209 1
208 210 1
208 211 1
208 212 1
208 499 1
208 500 1
208 507 1
208 508 1
208 509 1
208 510 1
209 71 1
209 72 1
209 73 1
209 74 1
209 203 1
209 204 1
209 205 1
209 206 1
209 207 1
209 208 1
209 210 1
209 211 1
209 212 1
209 511 1
209 512 1
209 513 1
209 514 1
210 71 1
210 72 1
210 73 1
210 74 1
210 203 1
210 204 1
210 205 1
210 206 1
210 207 1
210 208 1
210 209 1
210 211 1
210 212 1
210 511 1
210 512 1
210 513 1
210 514 1
211 71 1
211 72 1
211 73 1
211 74 1
211 203 1
211 204 1
211 205 1
211 206 1
211 207 1
211 208 1
211 209 1
211 210 1
211 212 1
211 511 1
211 512 1
211 513 1
211 514 1
212 71 1
212 72 1
212 73 1
212 74 1
212 203 1
212 204 1
212 205 1
212 206 1
212 207 1
212 208 1
212 209 1
212 210 1
212 211 1
212 511 1
212 512 1
212 513 1
212 514 1
213 117 1
213 118 1
213 121 1
213 122 1
213 214 1
213 335 1
213 336 1
213 375 1
213 376 1
213 391 1
213 392 1
213 405 1
213 406 1
213 435 1
213 436 1
213 581 1
213 582 1
214 117 1
214 118 1
214 121 1
214 122 1
214 213 1
214 335 1
214 336 1
214 375 1
214 376 1
214 391 1
214 392 1
214 405 1
214 406 1
214 435 1
214 436 1
214 581 1
214 582 1
215 119 1
215 120 1
215 193 1
215 194 1
215 216 1
215 405 1
215 406 1
215 447 1
215 448 1
216 119 1
216 120 1
216 193 1
216 194 1
216 215 1
216 405 1
216 406 1
216 447 1
216 448 1
217 75 1
217 76 1
217 77 1
217 78 1
217 195 1
217 196 1
217 197 1
217 198 1
217 218 1
217 243 1
217 244 1
217 249 1
217 250 1
217 259 1
217 260 1
217 295 1
217 296 1
217 319 1
217 320 1
217 367 1
217 368 1
217 515 1
217 516 1
217 517 1
217 518 1
218 75 1
218 76 1
218 77 1
218 78 1
218 195 1
218 196 1
218 197 1
218 198 1
218 217 1
218 243 1
218 244 1
218 249 1
218 250 1
218 259 1
218 260 1
218 295 1
218 296 1
218 319 1
218 320 1
218 367 1
218 368 1
218 515 1
218 516 1
218 517 1
218 518 1
219 109 1
219 110 1
219 190 1
219 192 1
219 220 1
219 223 1
219 224 1
219 227 1
219 228 1
219 229 1
219 230 1
219 231 1
219 232 1
220 109 1
220 110 1
220 190 1
220 192 1
220 219 1
220 223 1
220 224 1
220 227 1
220 228 1
220 229 1
220 230 1
220 231 1
220 232 1
221 222 1
221 225 1
221 226 1
222 221 1
222 225 1
222 226 1
223 109 1
223 110 1
223 130 1
223 219 1
223 220 1
223 224 1
223 227 1
223 228 1
223 229 1
223 230 1
223 231 1
223 232 1
223 315 1
223 316 1
224 110 1
224 129 1
224 189 1
224 191 1
224 219 1
224 220 1
224 223 1
224 227 1
224 228 1
224 229 1
224 230 1
224 231 1
224 232 1
224 315 1
224 316 1
225 221 1
225 222 1
225 226 1
225 227 1
225 228 1
226 221 1
226 222 1
226 225 1
226 227 1
226 228 1
227 109 1
227 110 1
227 189 1
227 191 1
227 219 1
227 220 1
227 223 1
227 224 1
227 225 1
227 226 1
227 228 1
227 229 1
227 230 1
227 231 1
227 232 1
228 110 1
228 190 1
228 192 1
228 219 1
228 220 1
228 223 1
228 224 1
228 225 1
228 226 1
228 227 1
228 229 1
228 230 1
228 231 1
228 232 1
229 190 1
229 192 1
229 219 1
229 220 1
229 223 1
229 224 1
229 227 1
229 228 1
229 230 1
229 231 1
229 232 1
230 109 1
230 110 1
230 129 1
230 189 1
230 191 1
230 219 1
230 220 1
230 223 1
230 224 1
230 227 1
230 228 1
230 229 1
230 231 1
230 232 1
231 109 1
231 110 1
231 189 1
231 191 1
231 219 1
231 220 1
231 223 1
231 224 1
231 227 1
231 228 1
231 229 1
231 230 1
231 232 1
231 347 1
231 348 1
231 549 1
231 550 1
232 110 1
232 219 1
232 220 1
232 223 1
232 224 1
232 227 1
232 228 1
232 229 1
232 230 1
232 231 1
232 347 1
232 348 1
232 549 1
232 550 1
233 83 1
233 84 1
233 85 1
233 86 1
233 234 1
233 235 1
233 236 1
233 239 1
233 240 1
233 241 1
233 242 1
233 269 1
233 270 1
233 317 1
233 318 1
233 527 1
233 528 1
233 597 1
233 598 1
234 83 1
234 84 1
234 85 1
234 86 1
234 233 1
234 235 1
234 236 1
234 239 1
234 240 1
234 241 1
234 242 1
234 269 1
234 270 1
234 317 1
234 318 1
234 527 1
234 528 1
234 597 1
234 598 1
235 233 1
235 234 1
235 236 1
235 239 1
235 240 1
235 289 1
235 290 1
235 597 1
235 598 1
236 233 1
236 234 1
236 235 1
236 239 1
236 240 1
236 289 1
236 290 1
236 597 1
236 598 1
237 238 1
237 245 1
237 246 1
237 249 1
237 250 1
237 319 1
237 367 1
237 368 1
237 537 1
237 538 1
237 541 1
237 542 1
238 237 1
238 245 1
238 246 1
238 249 1
238 250 1
238 367 1
238 368 1
238 537 1
238 538 1
238 541 1
238 542 1
239 91 1
239 92 1
239 93 1
239 94 1
239 233 1
239 234 1
239 235 1
239 236 1
239 240 1
239 317 1
239 318 1
239 597 1
239 598 1
240 84 1
240 91 1
240 92 1
240 93 1
240 94 1
240 233 1
240 234 1
240 235 1
240 236 1
240 239 1
240 317 1
240 318 1
240 597 1
240 598 1
241 83 1
241 84 1
241 85 1
241 86 1
241 111 1
241 112 1
241 233 1
241 234 1
241 242 1
241 269 1
241 270 1
241 317 1
241 318 1
241 463 1
241 464 1
241 527 1
241 528 1
242 83 1
242 84 1
242 85 1
242 86 1
242 111 1
242 112 1
242 233 1
242 234 1
242 241 1
242 269 1
242 270 1
242 317 1
242 318 1
242 463 1
242 464 1
242 527 1
242 528 1
243 160 1
243 217 1
243 218 1
243 244 1
243 249 1
243 250 1
243 259 1
243 260 1
243 263 1
243 264 1
243 295 1
243 296 1
243 319 1
243 320 1
243 333 1
243 334 1
243 357 1
243 358 1
243 363 1
243 364 1
243 515 1
243 516 1
243 517 1
243 518 1
244 195 1
244 197 1
244 217 1
244 218 1
244 243 1
244 249 1
244 250 1
244 259 1
244 260 1
244 263 1
244 264 1
244 295 1
244 296 1
244 319 1
244 320 1
244 333 1
244 334 1
244 357 1
244 358 1
244 363 1
244 364 1
244 515 1
244 516 1
244 517 1
244 518 1
245 237 1
245 238 1
245 246 1
245 255 1
245 256 1
245 359 1
245 360 1
245 537 1
245 538 1
245 541 1
245 542 1
246 237 1
246 238 1
246 245 1
246 255 1
246 256 1
246 359 1
246 360 1
246 537 1
246 538 1
246 541 1
246 542 1
247 159 1
247 248 1
247 251 1
247 252 1
247 253 1
247 254 1
247 259 1
247 260 1
247 361 1
247 362 1
247 519 1
247 520 1
248 159 1
248 160 1
248 247 1
248 251 1
248 252 1
248 253 1
248 254 1
248 259 1
248 260 1
248 361 1
248 362 1
248 519 1
248 520 1
249 217 1
249 218 1
249 237 1
249 238 1
249 243 1
249 244 1
249 250 1
249 259 1
249 260 1
249 295 1
249 296 1
249 319 1
249 320 1
249 367 1
249 368 1
249 515 1
249 516 1
249 517 1
249 518 1
250 217 1
250 218 1
250 237 1
250 238 1
250 243 1
250 244 1
250 249 1
250 259 1
250 260 1
250 295 1
250 296 1
250 319 1
250 320 1
250 367 1
250 368 1
250 515 1
250 516 1
250 517 1
250 518 1
251 247 1
251 248 1
251 252 1
251 261 1
251 262 1
251 321 1
251 322 1
251 361 1
251 362 1
251 519 1
251 520 1
251 557 1
251 558 1
251 563 1
251 564 1
252 160 1
252 247 1
252 248 1
252 251 1
252 261 1
252 262 1
252 321 1
252 322 1
252 361 1
252 362 1
252 519 1
252 520 1
252 557 1
252 558 1
252 563 1
252 564 1
253 159 1
253 160 1
253 247 1
253 248 1
253 254 1
253 259 1
253 260 1
254 247 1
254 248 1
254 253 1
254 259 1
254 260 1
255 124 1
255 201 1
255 245 1
255 246 1
255 256 1
255 267 1
255 268 1
255 313 1
255 314 1
255 355 1
255 356 1
255 359 1
255 360 1
255 365 1
255 366 1
256 124 1
256 201 1
256 202 1
256 245 1
256 246 1
256 255 1
256 267 1
256 268 1
256 313 1
256 314 1
256 355 1
256 356 1
256 359 1
256 360 1
256 365 1
256 366 1
257 29 1
257 30 1
257 258 1
257 313 1
257 314 1
257 385 1
257 386 1
257 525 1
257 526 1
258 29 1
258 30 1
258 257 1
258 313 1
258 314 1
258 385 1
258 386 1
258 525 1
258 526 1
259 217 1
259 218 1
259 243 1
259 244 1
259 247 1
259 248 1
259 249 1
259 250 1
259 253 1
259 254 1
259 260 1
259 295 1
259 296 1
259 319 1
259 320 1
259 515 1
259 516 1
259 517 1
259 518 1
260 217 1
260 218 1
260 243 1
260 244 1
260 247 1
260 248 1
260 249 1
260 250 1
260 253 1
260 254 1
260 259 1
260 295 1
260 296 1
260 319 1
260 320 1
260 515 1
260 516 1
260 517 1
260 518 1
261 251 1
261 252 1
261 262 1
261 321 1
261 322 1
261 557 1
261 558 1
261 563 1
261 564 1
262 251 1
262 252 1
262 261 1
262 321 1
262 322 1
262 557 1
262 558 1
262 563 1
262 564 1
263 243 1
263 244 1
263 264 1
263 333 1
263 334 1
263 357 1
263 358 1
263 363 1
263 364 1
264 160 1
264 243 1
264 244 1
264 263 1
264 333 1
264 334 1
264 357 1
264 358 1
264 363 1
264 364 1
265 55 1
265 56 1
265 57 1
265 58 1
265 67 1
265 68 1
265 69 1
265 82 1
265 85 1
265 86 1
265 266 1
265 377 1
265 378 1
265 433 1
265 434 1
265 471 1
265 472 1
265 605 1
265 606 1
265 609 1
265 610 1
266 55 1
266 56 1
266 57 1
266 58 1
266 68 1
266 70 1
266 82 1
266 83 1
266 85 1
266 86 1
266 265 1
266 377 1
266 378 1
266 429 1
266 433 1
266 434 1
266 471 1
266 472 1
266 605 1
266 606 1
266 609 1
266 610 1
267 202 1
267 255 1
267 256 1
267 268 1
267 275 1
267 276 1
267 313 1
267 314 1
267 351 1
267 352 1
267 353 1
267 354 1
267 355 1
267 356 1
267 365 1
267 366 1
268 201 1
268 202 1
268 255 1
268 256 1
268 267 1
268 275 1
268 276 1
268 313 1
268 314 1
268 351 1
268 352 1
268 353 1
268 354 1
268 355 1
268 356 1
268 365 1
268 366 1
269 55 1
269 82 1
269 83 1
269 84 1
269 85 1
269 86 1
269 233 1
269 234 1
269 241 1
269 242 1
269 270 1
269 291 1
269 292 1
269 317 1
269 318 1
269 527 1
269 528 1
270 83 1
270 84 1
270 85 1
270 86 1
270 177 1
270 233 1
270 234 1
270 241 1
270 242 1
270 269 1
270 291 1
270 292 1
270 317 1
270 318 1
270 527 1
270 528 1
271 272 1
271 273 1
271 274 1
271 277 1
271 278 1
272 271 1
272 273 1
272 274 1
272 277 1
272 278 1
273 271 1
273 272 1
273 274 1
273 345 1
273 346 1
274 271 1
274 272 1
274 273 1
274 345 1
274 346 1
275 267 1
275 268 1
275 276 1
275 351 1
275 352 1
275 353 1
275 354 1
275 677 1
275 678 1
276 267 1
276 268 1
276 275 1
276 351 1
276 352 1
276 353 1
276 354 1
276 677 1
276 678 1
277 271 1
277 272 1
277 278 1
277 281 1
277 282 1
277 547 1
277 548 1
278 271 1
278 272 1
278 277 1
278 281 1
278 282 1
278 547 1
278 548 1
279 280 1
279 281 1
279 282 1
279 561 1
279 562 1
280 279 1
280 281 1
280 282 1
280 561 1
280 562 1
281 277 1
281 278 1
281 279 1
281 280 1
281 282 1
281 547 1
281 548 1
281 561 1
281 562 1
282 277 1
282 278 1
282 279 1
282 280 1
282 281 1
282 547 1
282 548 1
282 561 1
282 562 1
283 127 1
283 128 1
283 284 1
283 315 1
283 316 1
283 321 1
283 322 1
283 563 1
283 564 1
284 127 1
284 128 1
284 283 1
284 315 1
284 316 1
284 321 1
284 322 1
284 563 1
284 564 1
285 55 1
285 67 1
285 81 1
285 82 1
285 85 1
285 86 1
285 111 1
285 286 1
285 291 1
285 292 1
285 555 1
285 607 1
285 608 1
285 675 1
285 676 1
286 56 1
286 58 1
286 68 1
286 81 1
286 82 1
286 83 1
286 84 1
286 85 1
286 86 1
286 285 1
286 291 1
286 292 1
286 607 1
286 608 1
286 675 1
286 676 1
287 18 1
287 288 1
287 293 1
287 294 1
287 535 1
287 536 1
287 617 1
287 618 1
287 624 1
287 663 1
288 287 1
288 293 1
288 294 1
288 535 1
288 536 1
289 235 1
289 236 1
289 290 1
290 235 1
290 236 1
290 289 1
291 56 1
291 58 1
291 60 1
291 68 1
291 81 1
291 82 1
291 83 1
291 84 1
291 85 1
291 86 1
291 269 1
291 270 1
291 285 1
291 286 1
291 292 1
291 472 1
291 607 1
291 608 1
291 675 1
291 676 1
292 55 1
292 57 1
292 67 1
292 81 1
292 82 1
292 85 1
292 86 1
292 269 1
292 270 1
292 285 1
292 286 1
292 291 1
292 607 1
292 608 1
292 675 1
292 676 1
293 287 1
293 288 1
293 294 1
293 535 1
293 536 1
294 287 1
294 288 1
294 293 1
294 535 1
294 536 1
295 217 1
295 218 1
295 243 1
295 244 1
295 249 1
295 250 1
295 259 1
295 260 1
295 296 1
295 319 1
295 320 1
295 515 1
295 516 1
295 517 1
295 518 1
296 217 1
296 218 1
296 243 1
296 244 1
296 249 1
296 250 1
296 259 1
296 260 1
296 295 1
296 319 1
296 320 1
296 515 1
296 516 1
296 517 1
296 518 1
297 298 1
297 299 1
297 300 1
297 301 1
297 302 1
297 305 1
297 306 1
298 297 1
298 299 1
298 300 1
298 301 1
298 302 1
298 305 1
298 306 1
299 297 1
299 298 1
299 300 1
299 301 1
299 302 1
299 303 1
299 304 1
300 297 1
300 298 1
300 299 1
300 301 1
300 302 1
300 303 1
300 304 1
301 297 1
301 298 1
301 299 1
301 300 1
301 302 1
301 303 1
301 304 1
302 297 1
302 298 1
302 299 1
302 300 1
302 301 1
302 303 1
302 304 1
303 299 1
303 300 1
303 301 1
303 302 1
303 304 1
303 653 1
303 654 1
303 655 1
303 656 1
303 665 1
303 666 1
304 6 1
304 299 1
304 300 1
304 301 1
304 302 1
304 303 1
304 653 1
304 654 1
304 655 1
304 656 1
304 665 1
304 666 1
305 41 1
305 48 1
305 297 1
305 298 1
305 306 1
305 307 1
305 308 1
306 47 1
306 297 1
306 298 1
306 305 1
306 307 1
306 308 1
307 39 1
307 40 1
307 54 1
307 305 1
307 306 1
307 308 1
307 309 1
307 310 1
307 630 1
308 39 1
308 40 1
308 305 1
308 306 1
308 307 1
308 309 1
308 310 1
308 629 1
309 39 1
309 40 1
309 307 1
309 308 1
309 310 1
309 603 1
309 604 1
309 629 1
309 630 1
309 635 1
309 636 1
310 39 1
310 40 1
310 307 1
310 308 1
310 309 1
310 603 1
310 604 1
310 629 1
310 630 1
310 635 1
310 636 1
311 154 1
311 312 1
311 419 1
311 420 1
312 153 1
312 311 1
312 419 1
312 420 1
313 255 1
313 256 1
313 257 1
313 258 1
313 267 1
313 268 1
313 314 1
313 355 1
313 356 1
313 365 1
313 366 1
313 385 1
313 386 1
314 255 1
314 256 1
314 257 1
314 258 1
314 267 1
314 268 1
314 313 1
314 355 1
314 356 1
314 365 1
314 366 1
314 385 1
314 386 1
315 223 1
315 224 1
315 283 1
315 284 1
315 316 1
315 321 1
315 322 1
315 563 1
315 564 1
316 223 1
316 224 1
316 283 1
316 284 1
316 315 1
316 321 1
316 322 1
316 563 1
316 564 1
317 83 1
317 84 1
317 85 1
317 86 1
317 91 1
317 92 1
317 93 1
317 94 1
317 233 1
317 234 1
317 239 1
317 240 1
317 241 1
317 242 1
317 269 1
317 270 1
317 318 1
317 527 1
317 528 1
318 83 1
318 84 1
318 85 1
318 86 1
318 91 1
318 92 1
318 93 1
318 94 1
318 178 1
318 180 1
318 233 1
318 234 1
318 239 1
318 240 1
318 241 1
318 242 1
318 269 1
318 270 1
318 317 1
318 527 1
318 528 1
319 75 1
319 77 1
319 160 1
319 217 1
319 218 1
319 237 1
319 243 1
319 244 1
319 249 1
319 250 1
319 259 1
319 260 1
319 295 1
319 296 1
319 320 1
319 515 1
319 516 1
319 517 1
319 518 1
320 217 1
320 218 1
320 243 1
320 244 1
320 249 1
320 250 1
320 259 1
320 260 1
320 295 1
320 296 1
320 319 1
320 515 1
320 516 1
320 517 1
320 518 1
321 251 1
321 252 1
321 261 1
321 262 1
321 283 1
321 284 1
321 315 1
321 316 1
321 322 1
321 557 1
321 558 1
321 563 1
321 564 1
322 251 1
322 252 1
322 261 1
322 262 1
322 283 1
322 284 1
322 315 1
322 316 1
322 321 1
322 557 1
322 558 1
322 563 1
322 564 1
323 39 1
323 40 1
323 324 1
323 475 1
323 476 1
323 635 1
323 636 1
324 39 1
324 40 1
324 323 1
324 475 1
324 476 1
324 635 1
324 636 1
325 11 1
325 12 1
325 95 1
325 96 1
325 326 1
325 633 1
325 634 1
325 651 1
325 652 1
326 11 1
326 12 1
326 95 1
326 96 1
326 325 1
326 633 1
326 634 1
326 651 1
326 652 1
327 11 1
327 12 1
327 13 1
327 14 1
327 328 1
327 329 1
327 330 1
328 11 1
328 12 1
328 13 1
328 14 1
328 327 1
328 329 1
328 330 1
329 11 1
329 12 1
329 13 1
329 14 1
329 327 1
329 328 1
329 330 1
330 11 1
330 12 1
330 13 1
330 14 1
330 327 1
330 328 1
330 329 1
331 49 1
331 50 1
331 332 1
331 461 1
331 462 1
332 49 1
332 50 1
332 331 1
332 461 1
332 462 1
333 243 1
333 244 1
333 263 1
333 264 1
333 334 1
333 357 1
333 358 1
333 363 1
333 364 1
334 160 1
334 243 1
334 244 1
334 263 1
334 264 1
334 333 1
334 357 1
334 358 1
334 363 1
334 364 1
335 121 1
335 122 1
335 151 1
335 152 1
335 169 1
335 170 1
335 171 1
335 172 1
335 175 1
335 176 1
335 213 1
335 214 1
335 336 1
336 121 1
336 122 1
336 151 1
336 152 1
336 169 1
336 170 1
336 171 1
336 172 1
336 175 1
336 176 1
336 213 1
336 214 1
336 335 1
337 338 1
337 411 1
337 412 1
338 337 1
338 411 1
338 412 1
339 340 1
339 341 1
339 342 1
339 343 1
339 344 1
339 441 1
339 442 1
339 583 1
339 584 1
340 339 1
340 341 1
340 342 1
340 343 1
340 344 1
340 441 1
340 442 1
340 583 1
340 584 1
341 339 1
341 340 1
341 342 1
341 343 1
341 344 1
341 451 1
341 452 1
341 453 1
341 454 1
342 339 1
342 340 1
342 341 1
342 343 1
342 344 1
342 451 1
342 452 1
342 453 1
342 454 1
343 339 1
343 340 1
343 341 1
343 342 1
343 344 1
343 423 1
343 424 1
343 425 1
343 426 1
344 339 1
344 340 1
344 341 1
344 342 1
344 343 1
344 423 1
344 424 1
344 425 1
344 426 1
345 273 1
345 274 1
345 346 1
346 273 1
346 274 1
346 345 1
347 109 1
347 110 1
347 231 1
347 232 1
347 348 1
347 349 1
347 350 1
347 549 1
347 550 1
348 109 1
348 110 1
348 129 1
348 130 1
348 231 1
348 232 1
348 347 1
348 349 1
348 350 1
348 549 1
348 550 1
349 110 1
349 347 1
349 348 1
349 350 1
350 347 1
350 348 1
350 349 1
351 267 1
351 268 1
351 275 1
351 276 1
351 352 1
351 353 1
351 354 1
352 267 1
352 268 1
352 275 1
352 276 1
352 351 1
352 353 1
352 354 1
353 267 1
353 268 1
353 275 1
353 276 1
353 351 1
353 352 1
353 354 1
354 267 1
354 268 1
354 275 1
354 276 1
354 351 1
354 352 1
354 353 1
355 255 1
355 256 1
355 267 1
355 268 1
355 313 1
355 314 1
355 356 1
355 365 1
355 366 1
355 388 1
356 255 1
356 256 1
356 267 1
356 268 1
356 313 1
356 314 1
356 355 1
356 365 1
356 366 1
357 243 1
357 244 1
357 263 1
357 264 1
357 333 1
357 334 1
357 358 1
357 363 1
357 364 1
358 243 1
358 244 1
358 263 1
358 264 1
358 333 1
358 334 1
358 357 1
358 363 1
358 364 1
359 245 1
359 246 1
359 255 1
359 256 1
359 360 1
360 245 1
360 246 1
360 255 1
360 256 1
360 359 1
360 541 1
361 159 1
361 160 1
361 247 1
361 248 1
361 251 1
361 252 1
361 362 1
361 519 1
361 520 1
362 159 1
362 160 1
362 247 1
362 248 1
362 251 1
362 252 1
362 361 1
362 519 1
362 520 1
363 243 1
363 244 1
363 263 1
363 264 1
363 333 1
363 334 1
363 357 1
363 358 1
363 364 1
364 160 1
364 243 1
364 244 1
364 263 1
364 264 1
364 333 1
364 334 1
364 357 1
364 358 1
364 363 1
365 255 1
365 256 1
365 267 1
365 268 1
365 313 1
365 314 1
365 355 1
365 356 1
365 366 1
366 255 1
366 256 1
366 267 1
366 268 1
366 313 1
366 314 1
366 355 1
366 356 1
366 365 1
367 75 1
367 76 1
367 77 1
367 78 1
367 195 1
367 196 1
367 197 1
367 198 1
367 217 1
367 218 1
367 237 1
367 238 1
367 249 1
367 250 1
367 368 1
368 75 1
368 76 1
368 77 1
368 78 1
368 195 1
368 196 1
368 197 1
368 198 1
368 217 1
368 218 1
368 237 1
368 238 1
368 249 1
368 250 1
368 367 1
369 135 1
369 136 1
369 137 1
369 138 1
369 139 1
369 140 1
369 141 1
369 142 1
369 143 1
369 144 1
369 370 1
369 397 1
369 398 1
369 421 1
369 422 1
369 499 1
369 500 1
369 503 1
369 504 1
369 505 1
369 506 1
369 567 1
369 568 1
370 135 1
370 136 1
370 137 1
370 138 1
370 139 1
370 140 1
370 141 1
370 142 1
370 143 1
370 144 1
370 369 1
370 397 1
370 398 1
370 421 1
370 422 1
370 499 1
370 500 1
370 503 1
370 504 1
370 505 1
370 506 1
370 567 1
370 568 1
371 7 1
371 8 1
371 9 1
371 10 1
371 185 1
371 186 1
371 187 1
371 188 1
371 372 1
371 407 1
371 408 1
371 411 1
371 412 1
371 413 1
371 414 1
371 427 1
371 428 1
371 469 1
371 470 1
371 553 1
371 554 1
371 565 1
371 566 1
372 7 1
372 8 1
372 9 1
372 10 1
372 185 1
372 186 1
372 187 1
372 188 1
372 371 1
372 407 1
372 408 1
372 411 1
372 412 1
372 413 1
372 414 1
372 427 1
372 428 1
372 469 1
372 470 1
372 553 1
372 554 1
372 565 1
372 566 1
373 131 1
373 132 1
373 133 1
373 134 1
373 374 1
373 379 1
373 380 1
373 415 1
373 416 1
373 417 1
373 418 1
373 449 1
373 450 1
374 131 1
374 132 1
374 133 1
374 134 1
374 373 1
374 379 1
374 380 1
374 415 1
374 416 1
374 417 1
374 418 1
374 449 1
374 450 1
375 117 1
375 118 1
375 213 1
375 214 1
375 376 1
375 391 1
375 392 1
375 405 1
375 406 1
375 419 1
375 420 1
375 435 1
375 436 1
375 581 1
375 582 1
376 117 1
376 118 1
376 213 1
376 214 1
376 375 1
376 391 1
376 392 1
376 405 1
376 406 1
376 419 1
376 420 1
376 435 1
376 436 1
376 581 1
376 582 1
377 55 1
377 56 1
377 57 1
377 58 1
377 67 1
377 69 1
377 81 1
377 85 1
377 86 1
377 111 1
377 265 1
377 266 1
377 378 1
377 433 1
377 434 1
377 471 1
377 472 1
377 555 1
377 556 1
377 605 1
377 606 1
377 608 1
377 609 1
377 610 1
378 55 1
378 56 1
378 57 1
378 58 1
378 70 1
378 85 1
378 112 1
378 265 1
378 266 1
378 377 1
378 433 1
378 434 1
378 471 1
378 472 1
378 555 1
378 556 1
378 605 1
378 606 1
378 609 1
378 610 1
379 373 1
379 374 1
379 380 1
379 399 1
379 400 1
379 401 1
379 402 1
379 415 1
379 416 1
379 449 1
379 450 1
379 531 1
379 532 1
379 553 1
379 554 1
380 194 1
380 373 1
380 374 1
380 379 1
380 399 1
380 400 1
380 401 1
380 402 1
380 415 1
380 416 1
380 449 1
380 450 1
380 459 1
380 531 1
380 532 1
381 382 1
381 383 1
381 384 1
381 541 1
381 542 1
382 381 1
382 383 1
382 384 1
382 541 1
382 542 1
383 381 1
383 382 1
383 384 1
383 385 1
383 386 1
383 387 1
383 388 1
384 381 1
384 382 1
384 383 1
384 385 1
384 386 1
384 387 1
384 388 1
385 257 1
385 258 1
385 313 1
385 314 1
385 383 1
385 384 1
385 386 1
385 387 1
385 388 1
386 257 1
386 258 1
386 313 1
386 314 1
386 383 1
386 384 1
386 385 1
386 387 1
386 388 1
387 383 1
387 384 1
387 385 1
387 386 1
387 388 1
387 543 1
387 544 1
388 355 1
388 383 1
388 384 1
388 385 1
388 386 1
388 387 1
388 543 1
388 544 1
389 69 1
389 70 1
389 177 1
389 178 1
389 179 1
389 180 1
389 390 1
389 455 1
389 456 1
389 457 1
389 458 1
389 471 1
389 472 1
389 545 1
389 546 1
390 69 1
390 70 1
390 177 1
390 178 1
390 179 1
390 180 1
390 389 1
390 455 1
390 456 1
390 457 1
390 458 1
390 471 1
390 472 1
390 545 1
390 546 1
391 117 1
391 118 1
391 213 1
391 214 1
391 375 1
391 376 1
391 392 1
391 405 1
391 406 1
391 435 1
391 436 1
391 581 1
391 582 1
392 117 1
392 118 1
392 213 1
392 214 1
392 375 1
392 376 1
392 391 1
392 405 1
392 406 1
392 435 1
392 436 1
392 581 1
392 582 1
393 394 1
393 435 1
393 436 1
393 439 1
393 440 1
393 580 1
394 393 1
394 435 1
394 436 1
394 439 1
394 440 1
395 396 1
395 437 1
395 438 1
395 453 1
395 454 1
396 395 1
396 437 1
396 438 1
396 453 1
396 454 1
397 135 1
397 136 1
397 137 1
397 138 1
397 139 1
397 140 1
397 141 1
397 142 1
397 143 1
397 144 1
397 369 1
397 370 1
397 398 1
397 421 1
397 422 1
397 499 1
397 500 1
397 503 1
397 504 1
397 505 1
397 506 1
398 135 1
398 136 1
398 137 1
398 138 1
398 139 1
398 140 1
398 141 1
398 142 1
398 143 1
398 144 1
398 150 1
398 369 1
398 370 1
398 397 1
398 421 1
398 422 1
398 499 1
398 500 1
398 503 1
398 504 1
398 505 1
398 506 1
399 379 1
399 380 1
399 400 1
399 401 1
399 402 1
399 531 1
399 532 1
400 132 1
400 134 1
400 379 1
400 380 1
400 399 1
400 401 1
400 402 1
400 531 1
400 532 1
400 553 1
400 554 1
401 379 1
401 380 1
401 399 1
401 400 1
401 402 1
401 531 1
401 532 1
401 553 1
402 379 1
402 380 1
402 399 1
402 400 1
402 401 1
402 531 1
402 532 1
403 404 1
403 409 1
403 410 1
403 431 1
403 432 1
404 403 1
404 409 1
404 410 1
404 431 1
404 432 1
405 117 1
405 118 1
405 193 1
405 194 1
405 213 1
405 214 1
405 215 1
405 216 1
405 375 1
405 376 1
405 391 1
405 392 1
405 406 1
405 435 1
405 436 1
405 447 1
405 448 1
405 553 1
405 581 1
405 582 1
406 117 1
406 118 1
406 193 1
406 194 1
406 213 1
406 214 1
406 215 1
406 216 1
406 375 1
406 376 1
406 391 1
406 392 1
406 405 1
406 435 1
406 436 1
406 447 1
406 448 1
406 581 1
406 582 1
407 371 1
407 372 1
407 408 1
407 411 1
407 412 1
407 427 1
407 428 1
407 445 1
407 446 1
407 469 1
407 470 1
407 553 1
407 554 1
407 565 1
407 566 1
408 185 1
408 187 1
408 371 1
408 372 1
408 407 1
408 411 1
408 412 1
408 427 1
408 428 1
408 445 1
408 446 1
408 469 1
408 470 1
408 553 1
408 554 1
408 565 1
408 566 1
409 403 1
409 404 1
409 410 1
409 415 1
409 416 1
409 431 1
409 432 1
410 403 1
410 404 1
410 409 1
410 415 1
410 416 1
410 431 1
410 432 1
411 337 1
411 338 1
411 371 1
411 372 1
411 407 1
411 408 1
411 412 1
411 427 1
411 428 1
411 469 1
411 470 1
411 553 1
411 554 1
411 565 1
411 566 1
412 337 1
412 338 1
412 371 1
412 372 1
412 407 1
412 408 1
412 411 1
412 427 1
412 428 1
412 469 1
412 470 1
412 554 1
412 565 1
412 566 1
413 7 1
413 8 1
413 9 1
413 10 1
413 185 1
413 186 1
413 187 1
413 188 1
413 371 1
413 372 1
413 414 1
413 469 1
413 470 1
413 531 1
413 532 1
413 553 1
413 554 1
414 7 1
414 8 1
414 9 1
414 10 1
414 185 1
414 186 1
414 187 1
414 188 1
414 371 1
414 372 1
414 413 1
414 469 1
414 470 1
414 531 1
414 532 1
414 553 1
414 554 1
415 194 1
415 373 1
415 374 1
415 379 1
415 380 1
415 409 1
415 410 1
415 416 1
415 449 1
415 450 1
416 373 1
416 374 1
416 379 1
416 380 1
416 409 1
416 410 1
416 415 1
416 449 1
416 450 1
417 131 1
417 132 1
417 133 1
417 134 1
417 373 1
417 374 1
417 418 1
418 128 1
418 131 1
418 132 1
418 133 1
418 134 1
418 373 1
418 374 1
418 417 1
419 154 1
419 311 1
419 312 1
419 375 1
419 376 1
419 420 1
420 153 1
420 311 1
420 312 1
420 375 1
420 376 1
420 419 1
421 139 1
421 140 1
421 141 1
421 142 1
421 144 1
421 369 1
421 370 1
421 397 1
421 398 1
421 422 1
421 500 1
421 503 1
421 504 1
421 505 1
421 506 1
421 567 1
421 568 1
422 135 1
422 136 1
422 137 1
422 138 1
422 140 1
422 142 1
422 369 1
422 370 1
422 397 1
422 398 1
422 421 1
422 504 1
422 506 1
422 567 1
422 568 1
423 343 1
423 344 1
423 424 1
423 425 1
423 426 1
423 442 1
423 584 1
424 343 1
424 344 1
424 423 1
424 425 1
424 426 1
424 441 1
425 343 1
425 344 1
425 423 1
425 424 1
425 426 1
425 441 1
425 442 1
425 493 1
425 494 1
425 599 1
425 600 1
426 343 1
426 344 1
426 423 1
426 424 1
426 425 1
426 441 1
426 442 1
426 493 1
426 494 1
426 599 1
426 600 1
427 35 1
427 36 1
427 37 1
427 38 1
427 371 1
427 372 1
427 407 1
427 408 1
427 411 1
427 412 1
427 428 1
427 469 1
427 470 1
427 533 1
427 534 1
427 551 1
427 552 1
427 554 1
427 565 1
427 566 1
428 35 1
428 36 1
428 37 1
428 38 1
428 371 1
428 372 1
428 407 1
428 408 1
428 411 1
428 412 1
428 427 1
428 469 1
428 470 1
428 533 1
428 534 1
428 551 1
428 552 1
428 553 1
428 554 1
428 565 1
428 566 1
429 59 1
429 60 1
429 61 1
429 70 1
429 81 1
429 82 1
429 85 1
429 86 1
429 102 1
429 108 1
429 266 1
429 430 1
429 431 1
429 432 1
429 433 1
429 434 1
429 471 1
429 606 1
429 607 1
429 676 1
430 59 1
430 60 1
430 62 1
430 81 1
430 82 1
430 86 1
430 101 1
430 102 1
430 107 1
430 165 1
430 167 1
430 429 1
430 431 1
430 432 1
430 433 1
430 434 1
430 471 1
430 607 1
430 676 1
431 403 1
431 404 1
431 409 1
431 410 1
431 429 1
431 430 1
431 432 1
432 59 1
432 62 1
432 101 1
432 169 1
432 171 1
432 403 1
432 404 1
432 409 1
432 410 1
432 429 1
432 430 1
432 431 1
432 471 1
433 55 1
433 56 1
433 57 1
433 58 1
433 67 1
433 68 1
433 69 1
433 70 1
433 82 1
433 83 1
433 85 1
433 265 1
433 266 1
433 377 1
433 378 1
433 429 1
433 430 1
433 434 1
433 471 1
433 472 1
433 605 1
433 606 1
433 609 1
433 610 1
434 55 1
434 56 1
434 57 1
434 58 1
434 59 1
434 67 1
434 68 1
434 69 1
434 85 1
434 86 1
434 104 1
434 106 1
434 265 1
434 266 1
434 377 1
434 378 1
434 429 1
434 430 1
434 433 1
434 471 1
434 472 1
434 605 1
434 606 1
434 609 1
434 610 1
435 117 1
435 118 1
435 213 1
435 214 1
435 375 1
435 376 1
435 391 1
435 392 1
435 393 1
435 394 1
435 405 1
435 406 1
435 436 1
435 439 1
435 440 1
435 581 1
435 582 1
436 117 1
436 118 1
436 213 1
436 214 1
436 375 1
436 376 1
436 391 1
436 392 1
436 393 1
436 394 1
436 405 1
436 406 1
436 435 1
436 439 1
436 440 1
436 581 1
436 582 1
437 395 1
437 396 1
437 438 1
437 439 1
437 440 1
437 453 1
437 454 1
438 395 1
438 396 1
438 437 1
438 439 1
438 440 1
438 453 1
438 454 1
439 393 1
439 394 1
439 435 1
439 436 1
439 437 1
439 438 1
439 440 1
440 393 1
440 394 1
440 435 1
440 436 1
440 437 1
440 438 1
440 439 1
441 339 1
441 340 1
441 424 1
441 425 1
441 426 1
441 442 1
441 493 1
441 494 1
441 583 1
441 584 1
441 599 1
441 600 1
442 339 1
442 340 1
442 423 1
442 425 1
442 426 1
442 441 1
442 493 1
442 494 1
442 583 1
442 584 1
442 599 1
442 600 1
443 135 1
443 136 1
443 137 1
443 138 1
443 157 1
443 158 1
443 444 1
443 445 1
443 446 1
443 554 1
444 135 1
444 136 1
444 137 1
444 138 1
444 157 1
444 158 1
444 443 1
444 445 1
444 446 1
444 554 1
445 185 1
445 187 1
445 407 1
445 408 1
445 443 1
445 444 1
445 446 1
445 553 1
445 554 1
446 407 1
446 408 1
446 443 1
446 444 1
446 445 1
446 553 1
447 193 1
447 194 1
447 215 1
447 216 1
447 405 1
447 406 1
447 448 1
447 449 1
447 450 1
447 553 1
448 193 1
448 194 1
448 215 1
448 216 1
448 405 1
448 406 1
448 447 1
448 449 1
448 450 1
448 553 1
449 194 1
449 373 1
449 374 1
449 379 1
449 380 1
449 415 1
449 416 1
449 447 1
449 448 1
449 450 1
450 373 1
450 374 1
450 379 1
450 380 1
450 415 1
450 416 1
450 447 1
450 448 1
450 449 1
450 553 1
451 341 1
451 342 1
451 452 1
451 453 1
451 454 1
451 611 1
451 612 1
452 341 1
452 342 1
452 451 1
452 453 1
452 454 1
452 611 1
452 612 1
453 341 1
453 342 1
453 395 1
453 396 1
453 437 1
453 438 1
453 451 1
453 452 1
453 454 1
454 341 1
454 342 1
454 395 1
454 396 1
454 437 1
454 438 1
454 451 1
454 452 1
454 453 1
455 67 1
455 68 1
455 69 1
455 70 1
455 161 1
455 162 1
455 177 1
455 178 1
455 179 1
455 180 1
455 389 1
455 390 1
455 456 1
455 457 1
455 458 1
455 471 1
455 472 1
455 501 1
455 502 1
456 67 1
456 68 1
456 69 1
456 70 1
456 85 1
456 161 1
456 162 1
456 177 1
456 178 1
456 179 1
456 180 1
456 389 1
456 390 1
456 455 1
456 457 1
456 458 1
456 471 1
456 472 1
456 501 1
456 502 1
457 67 1
457 68 1
457 69 1
457 70 1
457 161 1
457 162 1
457 177 1
457 178 1
457 179 1
457 180 1
457 389 1
457 390 1
457 455 1
457 456 1
457 458 1
457 471 1
457 472 1
457 501 1
457 502 1
458 67 1
458 68 1
458 69 1
458 70 1
458 85 1
458 161 1
458 162 1
458 177 1
458 178 1
458 179 1
458 180 1
458 389 1
458 390 1
458 455 1
458 456 1
458 457 1
458 471 1
458 472 1
458 501 1
458 502 1
459 131 1
459 132 1
459 133 1
459 134 1
459 380 1
459 460 1
459 465 1
459 466 1
460 131 1
460 132 1
460 133 1
460 134 1
460 459 1
460 465 1
460 466 1
461 25 1
461 26 1
461 27 1
461 28 1
461 32 1
461 49 1
461 50 1
461 331 1
461 332 1
461 462 1
461 613 1
461 614 1
462 25 1
462 26 1
462 27 1
462 28 1
462 49 1
462 50 1
462 331 1
462 332 1
462 461 1
462 613 1
462 614 1
463 83 1
463 85 1
463 91 1
463 92 1
463 93 1
463 94 1
463 111 1
463 112 1
463 151 1
463 175 1
463 241 1
463 242 1
463 464 1
464 82 1
464 91 1
464 92 1
464 93 1
464 94 1
464 101 1
464 111 1
464 112 1
464 241 1
464 242 1
464 463 1
464 559 1
465 459 1
465 460 1
465 466 1
466 459 1
466 460 1
466 465 1
467 468 1
467 529 1
467 530 1
467 533 1
467 534 1
468 467 1
468 529 1
468 530 1
468 533 1
468 534 1
469 7 1
469 8 1
469 9 1
469 10 1
469 185 1
469 186 1
469 187 1
469 188 1
469 371 1
469 372 1
469 407 1
469 408 1
469 411 1
469 412 1
469 413 1
469 414 1
469 427 1
469 428 1
469 470 1
469 553 1
469 554 1
469 565 1
469 566 1
470 7 1
470 8 1
470 9 1
470 10 1
470 185 1
470 186 1
470 187 1
470 188 1
470 371 1
470 372 1
470 407 1
470 408 1
470 411 1
470 412 1
470 413 1
470 414 1
470 427 1
470 428 1
470 469 1
470 553 1
470 554 1
470 565 1
470 566 1
471 55 1
471 56 1
471 57 1
471 58 1
471 62 1
471 67 1
471 69 1
471 70 1
471 85 1
471 86 1
471 101 1
471 102 1
471 103 1
471 104 1
471 105 1
471 106 1
471 107 1
471 108 1
471 111 1
471 112 1
471 166 1
471 168 1
471 177 1
471 178 1
471 179 1
471 180 1
471 265 1
471 266 1
471 377 1
471 378 1
471 389 1
471 390 1
471 429 1
471 430 1
471 432 1
471 433 1
471 434 1
471 455 1
471 456 1
471 457 1
471 458 1
471 472 1
471 559 1
471 605 1
471 606 1
471 609 1
471 610 1
472 55 1
472 56 1
472 57 1
472 58 1
472 68 1
472 69 1
472 70 1
472 85 1
472 86 1
472 107 1
472 111 1
472 165 1
472 167 1
472 177 1
472 178 1
472 179 1
472 180 1
472 265 1
472 266 1
472 291 1
472 377 1
472 378 1
472 389 1
472 390 1
472 433 1
472 434 1
472 455 1
472 456 1
472 457 1
472 458 1
472 471 1
472 605 1
472 606 1
472 609 1
472 610 1
473 165 1
473 166 1
473 167 1
473 168 1
473 169 1
473 170 1
473 171 1
473 172 1
473 474 1
474 165 1
474 166 1
474 167 1
474 168 1
474 169 1
474 170 1
474 171 1
474 172 1
474 473 1
475 39 1
475 40 1
475 323 1
475 324 1
475 476 1
475 477 1
475 478 1
475 635 1
475 636 1
476 39 1
476 40 1
476 323 1
476 324 1
476 475 1
476 477 1
476 478 1
476 635 1
476 636 1
477 475 1
477 476 1
477 478 1
477 479 1
477 480 1
478 475 1
478 476 1
478 477 1
478 479 1
478 480 1
479 477 1
479 478 1
479 480 1
479 481 1
479 482 1
480 477 1
480 478 1
480 479 1
480 481 1
480 482 1
481 479 1
481 480 1
481 482 1
481 483 1
481 484 1
482 479 1
482 480 1
482 481 1
482 483 1
482 484 1
483 481 1
483 482 1
483 484 1
483 485 1
483 486 1
484 481 1
484 482 1
484 483 1
484 485 1
484 486 1
485 483 1
485 484 1
485 486 1
485 487 1
485 488 1
486 483 1
486 484 1
486 485 1
486 487 1
486 488 1
487 485 1
487 486 1
487 488 1
487 489 1
487 490 1
488 485 1
488 486 1
488 487 1
488 489 1
488 490 1
489 487 1
489 488 1
489 490 1
489 491 1
489 492 1
490 487 1
490 488 1
490 489 1
490 491 1
490 492 1
491 115 1
491 116 1
491 489 1
491 490 1
491 492 1
492 88 1
492 90 1
492 115 1
492 116 1
492 489 1
492 490 1
492 491 1
493 425 1
493 426 1
493 441 1
493 442 1
493 494 1
493 495 1
493 496 1
493 599 1
493 600 1
494 425 1
494 426 1
494 441 1
494 442 1
494 493 1
494 495 1
494 496 1
494 599 1
494 600 1
495 493 1
495 494 1
495 496 1
496 493 1
496 494 1
496 495 1
497 199 1
497 200 1
497 498 1
497 679 1
497 680 1
498 199 1
498 200 1
498 497 1
498 679 1
498 680 1
499 63 1
499 64 1
499 65 1
499 66 1
499 135 1
499 136 1
499 137 1
499 138 1
499 139 1
499 140 1
499 141 1
499 142 1
499 143 1
499 144 1
499 147 1
499 148 1
499 149 1
499 150 1
499 205 1
499 206 1
499 207 1
499 208 1
499 369 1
499 370 1
499 397 1
499 398 1
499 500 1
499 503 1
499 504 1
499 505 1
499 506 1
499 507 1
499 508 1
499 509 1
499 510 1
500 63 1
500 64 1
500 65 1
500 66 1
500 135 1
500 136 1
500 137 1
500 138 1
500 139 1
500 140 1
500 141 1
500 142 1
500 143 1
500 144 1
500 147 1
500 148 1
500 149 1
500 150 1
500 205 1
500 206 1
500 207 1
500 208 1
500 369 1
500 370 1
500 397 1
500 398 1
500 421 1
500 499 1
500 503 1
500 504 1
500 505 1
500 506 1
500 507 1
500 508 1
500 509 1
500 510 1
501 67 1
501 68 1
501 111 1
501 161 1
501 162 1
501 455 1
501 456 1
501 457 1
501 458 1
501 502 1
502 67 1
502 68 1
502 85 1
502 161 1
502 162 1
502 455 1
502 456 1
502 457 1
502 458 1
502 501 1
503 63 1
503 64 1
503 65 1
503 66 1
503 135 1
503 136 1
503 137 1
503 138 1
503 139 1
503 140 1
503 141 1
503 142 1
503 143 1
503 144 1
503 369 1
503 370 1
503 397 1
503 398 1
503 421 1
503 499 1
503 500 1
503 504 1
503 505 1
503 506 1
503 507 1
503 508 1
503 509 1
503 510 1
504 63 1
504 64 1
504 65 1
504 66 1
504 135 1
504 136 1
504 137 1
504 138 1
504 139 1
504 140 1
504 141 1
504 142 1
504 143 1
504 144 1
504 369 1
504 370 1
504 397 1
504 398 1
504 421 1
504 422 1
504 499 1
504 500 1
504 503 1
504 505 1
504 506 1
504 507 1
504 508 1
504 509 1
504 510 1
504 567 1
505 63 1
505 64 1
505 65 1
505 66 1
505 135 1
505 136 1
505 137 1
505 138 1
505 139 1
505 140 1
505 141 1
505 142 1
505 143 1
505 144 1
505 369 1
505 370 1
505 397 1
505 398 1
505 421 1
505 499 1
505 500 1
505 503 1
505 504 1
505 506 1
505 507 1
505 508 1
505 509 1
505 510 1
506 63 1
506 64 1
506 65 1
506 66 1
506 135 1
506 136 1
506 137 1
506 138 1
506 139 1
506 140 1
506 141 1
506 142 1
506 143 1
506 144 1
506 369 1
506 370 1
506 397 1
506 398 1
506 421 1
506 422 1
506 499 1
506 500 1
506 503 1
506 504 1
506 505 1
506 507 1
506 508 1
506 509 1
506 510 1
506 567 1
507 63 1
507 64 1
507 65 1
507 66 1
507 139 1
507 140 1
507 141 1
507 142 1
507 143 1
507 144 1
507 147 1
507 148 1
507 149 1
507 150 1
507 205 1
507 206 1
507 207 1
507 208 1
507 499 1
507 500 1
507 503 1
507 504 1
507 505 1
507 506 1
507 508 1
507 509 1
507 510 1
507 568 1
508 63 1
508 64 1
508 65 1
508 66 1
508 139 1
508 140 1
508 141 1
508 142 1
508 143 1
508 144 1
508 147 1
508 148 1
508 149 1
508 150 1
508 205 1
508 206 1
508 207 1
508 208 1
508 499 1
508 500 1
508 503 1
508 504 1
508 505 1
508 506 1
508 507 1
508 509 1
508 510 1
509 63 1
509 64 1
509 65 1
509 66 1
509 139 1
509 140 1
509 141 1
509 142 1
509 143 1
509 144 1
509 147 1
509 148 1
509 149 1
509 150 1
509 205 1
509 206 1
509 207 1
509 208 1
509 499 1
509 500 1
509 503 1
509 504 1
509 505 1
509 506 1
509 507 1
509 508 1
509 510 1
509 568 1
510 63 1
510 64 1
510 65 1
510 66 1
510 139 1
510 140 1
510 141 1
510 142 1
510 143 1
510 144 1
510 147 1
510 148 1
510 149 1
510 150 1
510 205 1
510 206 1
510 207 1
510 208 1
510 499 1
510 500 1
510 503 1
510 504 1
510 505 1
510 506 1
510 507 1
510 508 1
510 509 1
511 71 1
511 72 1
511 73 1
511 74 1
511 203 1
511 204 1
511 209 1
511 210 1
511 211 1
511 212 1
511 512 1
511 513 1
511 514 1
512 71 1
512 72 1
512 73 1
512 74 1
512 203 1
512 204 1
512 209 1
512 210 1
512 211 1
512 212 1
512 511 1
512 513 1
512 514 1
513 71 1
513 72 1
513 73 1
513 74 1
513 203 1
513 204 1
513 209 1
513 210 1
513 211 1
513 212 1
513 511 1
513 512 1
513 514 1
514 71 1
514 72 1
514 73 1
514 74 1
514 203 1
514 204 1
514 209 1
514 210 1
514 211 1
514 212 1
514 511 1
514 512 1
514 513 1
515 195 1
515 197 1
515 217 1
515 218 1
515 243 1
515 244 1
515 249 1
515 250 1
515 259 1
515 260 1
515 295 1
515 296 1
515 319 1
515 320 1
515 516 1
515 517 1
515 518 1
516 217 1
516 218 1
516 243 1
516 244 1
516 249 1
516 250 1
516 259 1
516 260 1
516 295 1
516 296 1
516 319 1
516 320 1
516 515 1
516 517 1
516 518 1
517 195 1
517 197 1
517 217 1
517 218 1
517 243 1
517 244 1
517 249 1
517 250 1
517 259 1
517 260 1
517 295 1
517 296 1
517 319 1
517 320 1
517 515 1
517 516 1
517 518 1
518 217 1
518 218 1
518 243 1
518 244 1
518 249 1
518 250 1
518 259 1
518 260 1
518 295 1
518 296 1
518 319 1
518 320 1
518 515 1
518 516 1
518 517 1
519 247 1
519 248 1
519 251 1
519 252 1
519 361 1
519 362 1
519 520 1
520 159 1
520 247 1
520 248 1
520 251 1
520 252 1
520 361 1
520 362 1
520 519 1
521 160 1
521 522 1
521 523 1
521 524 1
522 159 1
522 160 1
522 521 1
522 523 1
522 524 1
523 160 1
523 521 1
523 522 1
523 524 1
524 159 1
524 160 1
524 521 1
524 522 1
524 523 1
525 29 1
525 30 1
525 126 1
525 199 1
525 257 1
525 258 1
525 526 1
526 29 1
526 30 1
526 125 1
526 126 1
526 199 1
526 257 1
526 258 1
526 525 1
527 55 1
527 83 1
527 84 1
527 85 1
527 86 1
527 165 1
527 167 1
527 233 1
527 234 1
527 241 1
527 242 1
527 269 1
527 270 1
527 317 1
527 318 1
527 528 1
527 559 1
527 560 1
528 83 1
528 84 1
528 85 1
528 86 1
528 233 1
528 234 1
528 241 1
528 242 1
528 269 1
528 270 1
528 317 1
528 318 1
528 527 1
528 559 1
528 560 1
529 129 1
529 130 1
529 189 1
529 190 1
529 191 1
529 192 1
529 467 1
529 468 1
529 530 1
529 533 1
529 534 1
529 549 1
529 550 1
530 129 1
530 130 1
530 189 1
530 190 1
530 191 1
530 192 1
530 467 1
530 468 1
530 529 1
530 533 1
530 534 1
530 549 1
530 550 1
531 379 1
531 380 1
531 399 1
531 400 1
531 401 1
531 402 1
531 413 1
531 414 1
531 532 1
531 553 1
532 379 1
532 380 1
532 399 1
532 400 1
532 401 1
532 402 1
532 413 1
532 414 1
532 531 1
532 553 1
532 554 1
533 35 1
533 36 1
533 37 1
533 38 1
533 427 1
533 428 1
533 467 1
533 468 1
533 529 1
533 530 1
533 534 1
533 551 1
533 552 1
533 553 1
533 554 1
534 35 1
534 36 1
534 37 1
534 38 1
534 427 1
534 428 1
534 467 1
534 468 1
534 529 1
534 530 1
534 533 1
534 551 1
534 552 1
535 287 1
535 288 1
535 293 1
535 294 1
535 536 1
536 287 1
536 288 1
536 293 1
536 294 1
536 535 1
537 237 1
537 238 1
537 245 1
537 246 1
537 538 1
537 539 1
537 540 1
537 541 1
537 542 1
538 76 1
538 78 1
538 160 1
538 237 1
538 238 1
538 245 1
538 246 1
538 537 1
538 539 1
538 540 1
538 541 1
538 542 1
539 537 1
539 538 1
539 540 1
540 160 1
540 537 1
540 538 1
540 539 1
541 237 1
541 238 1
541 245 1
541 246 1
541 360 1
541 381 1
541 382 1
541 537 1
541 538 1
541 542 1
542 237 1
542 238 1
542 245 1
542 246 1
542 381 1
542 382 1
542 537 1
542 538 1
542 541 1
543 81 1
543 387 1
543 388 1
543 544 1
543 545 1
543 546 1
544 387 1
544 388 1
544 543 1
544 545 1
544 546 1
545 389 1
545 390 1
545 543 1
545 544 1
545 546 1
546 81 1
546 389 1
546 390 1
546 543 1
546 544 1
546 545 1
547 277 1
547 278 1
547 281 1
547 282 1
547 548 1
548 277 1
548 278 1
548 281 1
548 282 1
548 547 1
549 109 1
549 129 1
549 130 1
549 189 1
549 190 1
549 191 1
549 192 1
549 231 1
549 232 1
549 347 1
549 348 1
549 529 1
549 530 1
549 550 1
550 110 1
550 129 1
550 130 1
550 189 1
550 190 1
550 191 1
550 192 1
550 231 1
550 232 1
550 347 1
550 348 1
550 529 1
550 530 1
550 549 1
551 35 1
551 36 1
551 37 1
551 38 1
551 427 1
551 428 1
551 533 1
551 534 1
551 552 1
551 553 1
552 35 1
552 36 1
552 37 1
552 38 1
552 427 1
552 428 1
552 533 1
552 534 1
552 551 1
553 7 1
553 8 1
553 9 1
553 10 1
553 156 1
553 185 1
553 186 1
553 187 1
553 188 1
553 371 1
553 372 1
553 379 1
553 400 1
553 401 1
553 405 1
553 407 1
553 408 1
553 411 1
553 413 1
553 414 1
553 428 1
553 445 1
553 446 1
553 447 1
553 448 1
553 450 1
553 469 1
553 470 1
553 531 1
553 532 1
553 533 1
553 551 1
553 554 1
553 565 1
553 566 1
553 570 1
553 571 1
553 572 1
553 573 1
553 574 1
553 575 1
553 579 1
553 580 1
553 582 1
554 7 1
554 8 1
554 9 1
554 10 1
554 156 1
554 185 1
554 186 1
554 187 1
554 188 1
554 371 1
554 372 1
554 379 1
554 400 1
554 407 1
554 408 1
554 411 1
554 412 1
554 413 1
554 414 1
554 427 1
554 428 1
554 443 1
554 444 1
554 445 1
554 469 1
554 470 1
554 532 1
554 533 1
554 553 1
554 565 1
554 568 1
554 569 1
554 570 1
554 572 1
554 573 1
554 578 1
554 579 1
554 580 1
554 582 1
555 58 1
555 70 1
555 81 1
555 82 1
555 86 1
555 111 1
555 285 1
555 377 1
555 378 1
555 556 1
555 607 1
555 676 1
556 58 1
556 68 1
556 69 1
556 112 1
556 377 1
556 378 1
556 555 1
557 251 1
557 252 1
557 261 1
557 262 1
557 321 1
557 322 1
557 558 1
557 563 1
557 564 1
558 251 1
558 252 1
558 261 1
558 262 1
558 321 1
558 322 1
558 557 1
558 563 1
558 564 1
559 83 1
559 111 1
559 464 1
559 471 1
559 527 1
559 528 1
559 560 1
560 83 1
560 111 1
560 527 1
560 528 1
560 559 1
561 145 1
561 279 1
561 280 1
561 281 1
561 282 1
561 562 1
561 677 1
561 678 1
562 279 1
562 280 1
562 281 1
562 282 1
562 561 1
562 677 1
562 678 1
563 251 1
563 252 1
563 261 1
563 262 1
563 283 1
563 284 1
563 315 1
563 316 1
563 321 1
563 322 1
563 557 1
563 558 1
563 564 1
564 251 1
564 252 1
564 261 1
564 262 1
564 283 1
564 284 1
564 315 1
564 316 1
564 321 1
564 322 1
564 557 1
564 558 1
564 563 1
565 36 1
565 38 1
565 371 1
565 372 1
565 407 1
565 408 1
565 411 1
565 412 1
565 427 1
565 428 1
565 469 1
565 470 1
565 553 1
565 554 1
565 566 1
566 371 1
566 372 1
566 407 1
566 408 1
566 411 1
566 412 1
566 427 1
566 428 1
566 469 1
566 470 1
566 553 1
566 565 1
567 135 1
567 137 1
567 140 1
567 142 1
567 369 1
567 370 1
567 421 1
567 422 1
567 504 1
567 506 1
567 568 1
567 569 1
567 570 1
568 63 1
568 65 1
568 369 1
568 370 1
568 421 1
568 422 1
568 507 1
568 509 1
568 554 1
568 567 1
568 569 1
568 570 1
569 554 1
569 567 1
569 568 1
569 570 1
569 571 1
569 572 1
570 32 1
570 155 1
570 553 1
570 554 1
570 567 1
570 568 1
570 569 1
570 571 1
570 572 1
571 553 1
571 569 1
571 570 1
571 572 1
571 573 1
571 574 1
572 553 1
572 554 1
572 569 1
572 570 1
572 571 1
572 573 1
572 574 1
573 553 1
573 554 1
573 571 1
573 572 1
573 574 1
573 575 1
573 576 1
574 553 1
574 571 1
574 572 1
574 573 1
574 575 1
574 576 1
575 553 1
575 573 1
575 574 1
575 576 1
575 577 1
575 578 1
576 573 1
576 574 1
576 575 1
576 577 1
576 578 1
577 575 1
577 576 1
577 578 1
577 579 1
577 580 1
578 554 1
578 575 1
578 576 1
578 577 1
578 579 1
578 580 1
579 553 1
579 554 1
579 577 1
579 578 1
579 580 1
579 581 1
579 582 1
580 393 1
580 553 1
580 554 1
580 577 1
580 578 1
580 579 1
580 581 1
580 582 1
581 117 1
581 118 1
581 213 1
581 214 1
581 375 1
581 376 1
581 391 1
581 392 1
581 405 1
581 406 1
581 435 1
581 436 1
581 579 1
581 580 1
581 582 1
582 117 1
582 118 1
582 213 1
582 214 1
582 375 1
582 376 1
582 391 1
582 392 1
582 405 1
582 406 1
582 435 1
582 436 1
582 553 1
582 554 1
582 579 1
582 580 1
582 581 1
583 339 1
583 340 1
583 441 1
583 442 1
583 584 1
583 585 1
583 586 1
584 339 1
584 340 1
584 423 1
584 441 1
584 442 1
584 583 1
584 585 1
584 586 1
585 583 1
585 584 1
585 586 1
585 587 1
585 588 1
586 583 1
586 584 1
586 585 1
586 587 1
586 588 1
587 585 1
587 586 1
587 588 1
587 589 1
587 590 1
587 591 1
587 592 1
588 585 1
588 586 1
588 587 1
588 589 1
588 590 1
588 591 1
588 592 1
589 587 1
589 588 1
589 590 1
589 591 1
589 592 1
590 587 1
590 588 1
590 589 1
590 591 1
590 592 1
591 113 1
591 114 1
591 587 1
591 588 1
591 589 1
591 590 1
591 592 1
591 593 1
591 594 1
592 113 1
592 114 1
592 587 1
592 588 1
592 589 1
592 590 1
592 591 1
592 593 1
592 594 1
593 113 1
593 114 1
593 591 1
593 592 1
593 594 1
593 595 1
593 596 1
594 113 1
594 114 1
594 591 1
594 592 1
594 593 1
594 595 1
594 596 1
595 593 1
595 594 1
595 596 1
595 597 1
595 598 1
596 593 1
596 594 1
596 595 1
596 597 1
596 598 1
597 84 1
597 86 1
597 233 1
597 234 1
597 235 1
597 236 1
597 239 1
597 240 1
597 595 1
597 596 1
597 598 1
598 84 1
598 233 1
598 234 1
598 235 1
598 236 1
598 239 1
598 240 1
598 595 1
598 596 1
598 597 1
599 425 1
599 426 1
599 441 1
599 442 1
599 493 1
599 494 1
599 600 1
599 601 1
599 602 1
600 425 1
600 426 1
600 441 1
600 442 1
600 493 1
600 494 1
600 599 1
600 601 1
600 602 1
601 599 1
601 600 1
601 602 1
601 603 1
601 604 1
602 599 1
602 600 1
602 601 1
602 603 1
602 604 1
603 309 1
603 310 1
603 601 1
603 602 1
603 604 1
603 629 1
603 630 1
603 635 1
603 636 1
604 309 1
604 310 1
604 601 1
604 602 1
604 603 1
604 629 1
604 630 1
604 635 1
604 636 1
605 55 1
605 56 1
605 57 1
605 58 1
605 67 1
605 68 1
605 69 1
605 82 1
605 85 1
605 86 1
605 265 1
605 266 1
605 377 1
605 378 1
605 433 1
605 434 1
605 471 1
605 472 1
605 606 1
605 609 1
605 610 1
606 55 1
606 56 1
606 57 1
606 58 1
606 68 1
606 70 1
606 82 1
606 83 1
606 85 1
606 86 1
606 265 1
606 266 1
606 377 1
606 378 1
606 429 1
606 433 1
606 434 1
606 471 1
606 472 1
606 605 1
606 609 1
606 610 1
607 55 1
607 56 1
607 58 1
607 62 1
607 67 1
607 68 1
607 81 1
607 82 1
607 86 1
607 103 1
607 105 1
607 111 1
607 285 1
607 286 1
607 291 1
607 292 1
607 429 1
607 430 1
607 555 1
607 608 1
607 675 1
607 676 1
608 55 1
608 56 1
608 57 1
608 60 1
608 67 1
608 68 1
608 81 1
608 82 1
608 85 1
608 86 1
608 285 1
608 286 1
608 291 1
608 292 1
608 377 1
608 607 1
608 675 1
608 676 1
609 55 1
609 56 1
609 57 1
609 58 1
609 59 1
609 69 1
609 85 1
609 86 1
609 265 1
609 266 1
609 377 1
609 378 1
609 433 1
609 434 1
609 471 1
609 472 1
609 605 1
609 606 1
609 610 1
610 55 1
610 56 1
610 57 1
610 58 1
610 68 1
610 70 1
610 82 1
610 85 1
610 265 1
610 266 1
610 377 1
610 378 1
610 433 1
610 434 1
610 471 1
610 472 1
610 605 1
610 606 1
610 609 1
611 451 1
611 452 1
611 612 1
612 451 1
612 452 1
612 611 1
613 25 1
613 26 1
613 27 1
613 28 1
613 461 1
613 462 1
613 614 1
613 615 1
613 616 1
613 647 1
613 648 1
614 25 1
614 26 1
614 27 1
614 28 1
614 461 1
614 462 1
614 613 1
614 615 1
614 616 1
614 647 1
614 648 1
615 17 1
615 18 1
615 613 1
615 614 1
615 616 1
615 663 1
615 664 1
616 17 1
616 18 1
616 613 1
616 614 1
616 615 1
616 663 1
616 664 1
617 287 1
617 618 1
617 619 1
617 620 1
617 623 1
617 624 1
617 639 1
617 640 1
618 287 1
618 617 1
618 619 1
618 620 1
618 622 1
618 623 1
618 624 1
618 639 1
618 640 1
619 617 1
619 618 1
619 620 1
619 621 1
619 622 1
619 639 1
619 640 1
620 617 1
620 618 1
620 619 1
620 621 1
620 622 1
620 639 1
620 640 1
621 619 1
621 620 1
621 622 1
621 623 1
621 624 1
621 625 1
621 626 1
621 627 1
621 628 1
621 639 1
621 640 1
622 618 1
622 619 1
622 620 1
622 621 1
622 623 1
622 624 1
622 625 1
622 626 1
622 627 1
622 628 1
622 639 1
622 640 1
623 617 1
623 618 1
623 621 1
623 622 1
623 624 1
623 625 1
623 626 1
623 627 1
623 628 1
623 639 1
623 640 1
624 287 1
624 617 1
624 618 1
624 621 1
624 622 1
624 623 1
624 625 1
624 626 1
624 627 1
624 628 1
624 639 1
624 640 1
625 621 1
625 622 1
625 623 1
625 624 1
625 626 1
625 627 1
625 628 1
625 639 1
625 640 1
626 621 1
626 622 1
626 623 1
626 624 1
626 625 1
626 627 1
626 628 1
626 639 1
626 640 1
627 621 1
627 622 1
627 623 1
627 624 1
627 625 1
627 626 1
627 628 1
627 639 1
627 640 1
628 621 1
628 622 1
628 623 1
628 624 1
628 625 1
628 626 1
628 627 1
628 639 1
628 640 1
629 43 1
629 54 1
629 308 1
629 309 1
629 310 1
629 603 1
629 604 1
629 630 1
629 635 1
629 636 1
629 673 1
630 307 1
630 309 1
630 310 1
630 603 1
630 604 1
630 629 1
630 635 1
630 636 1
631 3 1
631 5 1
631 97 1
631 98 1
631 99 1
631 100 1
631 632 1
631 667 1
631 668 1
631 669 1
631 670 1
632 6 1
632 97 1
632 98 1
632 99 1
632 100 1
632 631 1
632 667 1
632 668 1
632 669 1
632 670 1
633 95 1
633 96 1
633 325 1
633 326 1
633 634 1
633 651 1
633 652 1
634 95 1
634 96 1
634 325 1
634 326 1
634 633 1
634 651 1
634 652 1
635 39 1
635 40 1
635 309 1
635 310 1
635 323 1
635 324 1
635 475 1
635 476 1
635 603 1
635 604 1
635 629 1
635 630 1
635 636 1
636 39 1
636 40 1
636 309 1
636 310 1
636 323 1
636 324 1
636 475 1
636 476 1
636 603 1
636 604 1
636 629 1
636 630 1
636 635 1
637 13 1
637 14 1
637 19 1
637 20 1
637 21 1
637 22 1
637 51 1
637 52 1
637 638 1
637 645 1
637 646 1
637 649 1
637 650 1
637 661 1
637 662 1
638 13 1
638 14 1
638 19 1
638 20 1
638 21 1
638 22 1
638 51 1
638 52 1
638 637 1
638 645 1
638 646 1
638 649 1
638 650 1
638 661 1
638 662 1
639 617 1
639 618 1
639 619 1
639 620 1
639 621 1
639 622 1
639 623 1
639 624 1
639 625 1
639 626 1
639 627 1
639 628 1
639 640 1
640 617 1
640 618 1
640 619 1
640 620 1
640 621 1
640 622 1
640 623 1
640 624 1
640 625 1
640 626 1
640 627 1
640 628 1
640 639 1
641 1 1
641 2 1
641 79 1
641 80 1
641 99 1
641 100 1
641 642 1
641 665 1
641 666 1
641 667 1
641 668 1
642 1 1
642 2 1
642 79 1
642 80 1
642 99 1
642 100 1
642 641 1
642 665 1
642 666 1
642 667 1
642 668 1
643 644 1
643 645 1
643 646 1
643 647 1
643 648 1
643 671 1
643 672 1
644 643 1
644 645 1
644 646 1
644 647 1
644 648 1
644 671 1
644 672 1
645 637 1
645 638 1
645 643 1
645 644 1
645 646 1
645 649 1
645 650 1
646 637 1
646 638 1
646 643 1
646 644 1
646 645 1
646 649 1
646 650 1
647 25 1
647 26 1
647 27 1
647 28 1
647 613 1
647 614 1
647 643 1
647 644 1
647 648 1
647 671 1
647 672 1
648 25 1
648 26 1
648 27 1
648 28 1
648 32 1
648 613 1
648 614 1
648 643 1
648 644 1
648 647 1
648 671 1
648 672 1
649 21 1
649 22 1
649 23 1
649 24 1
649 637 1
649 638 1
649 645 1
649 646 1
649 650 1
650 21 1
650 22 1
650 23 1
650 24 1
650 637 1
650 638 1
650 645 1
650 646 1
650 649 1
651 325 1
651 326 1
651 633 1
651 634 1
651 652 1
651 669 1
651 670 1
652 325 1
652 326 1
652 633 1
652 634 1
652 651 1
652 669 1
652 670 1
653 303 1
653 304 1
653 654 1
653 655 1
653 656 1
653 665 1
653 666 1
654 303 1
654 304 1
654 653 1
654 655 1
654 656 1
654 665 1
654 666 1
655 303 1
655 304 1
655 653 1
655 654 1
655 656 1
655 665 1
655 666 1
656 303 1
656 304 1
656 653 1
656 654 1
656 655 1
656 665 1
656 666 1
657 11 1
657 12 1
657 658 1
657 659 1
657 660 1
657 661 1
657 662 1
658 11 1
658 12 1
658 657 1
658 659 1
658 660 1
658 661 1
658 662 1
659 11 1
659 12 1
659 657 1
659 658 1
659 660 1
659 661 1
659 662 1
660 11 1
660 12 1
660 657 1
660 658 1
660 659 1
660 661 1
660 662 1
661 21 1
661 22 1
661 637 1
661 638 1
661 657 1
661 658 1
661 659 1
661 660 1
661 662 1
662 21 1
662 22 1
662 637 1
662 638 1
662 657 1
662 658 1
662 659 1
662 660 1
662 661 1
663 287 1
663 615 1
663 616 1
663 664 1
664 615 1
664 616 1
664 663 1
665 1 1
665 2 1
665 303 1
665 304 1
665 641 1
665 642 1
665 653 1
665 654 1
665 655 1
665 656 1
665 666 1
665 667 1
665 668 1
666 1 1
666 2 1
666 303 1
666 304 1
666 641 1
666 642 1
666 653 1
666 654 1
666 655 1
666 656 1
666 665 1
666 667 1
666 668 1
667 1 1
667 2 1
667 100 1
667 631 1
667 632 1
667 641 1
667 642 1
667 665 1
667 666 1
667 668 1
667 669 1
667 670 1
668 1 1
668 2 1
668 631 1
668 632 1
668 641 1
668 642 1
668 665 1
668 666 1
668 667 1
668 669 1
668 670 1
669 631 1
669 632 1
669 651 1
669 652 1
669 667 1
669 668 1
669 670 1
670 631 1
670 632 1
670 651 1
670 652 1
670 667 1
670 668 1
670 669 1
671 643 1
671 644 1
671 647 1
671 648 1
671 672 1
672 643 1
672 644 1
672 647 1
672 648 1
672 671 1
673 15 1
673 41 1
673 42 1
673 45 1
673 46 1
673 47 1
673 48 1
673 53 1
673 54 1
673 629 1
673 674 1
674 16 1
674 41 1
674 42 1
674 45 1
674 46 1
674 47 1
674 48 1
674 53 1
674 54 1
674 673 1
675 55 1
675 56 1
675 58 1
675 60 1
675 67 1
675 68 1
675 81 1
675 82 1
675 85 1
675 86 1
675 111 1
675 285 1
675 286 1
675 291 1
675 292 1
675 607 1
675 608 1
675 676 1
676 55 1
676 56 1
676 62 1
676 67 1
676 68 1
676 81 1
676 82 1
676 85 1
676 86 1
676 103 1
676 105 1
676 111 1
676 165 1
676 167 1
676 285 1
676 286 1
676 291 1
676 292 1
676 429 1
676 430 1
676 555 1
676 607 1
676 608 1
676 675 1
677 275 1
677 276 1
677 561 1
677 562 1
677 678 1
678 275 1
678 276 1
678 561 1
678 562 1
678 677 1
679 199 1
679 200 1
679 497 1
679 498 1
679 680 1
680 199 1
680 200 1
680 497 1
680 498 1
680 679 1
