%%MatrixMarket matrix coordinate integer symmetric
%
32 32 223
2 1 1
3 1 1
3 2 1
4 1 1
4 2 1
4 3 1
5 1 1
5 2 1
5 3 1
5 4 1
6 1 1
6 2 1
6 3 1
6 4 1
6 5 1
7 1 1
7 2 1
7 3 1
7 4 1
7 5 1
7 6 1
8 1 1
8 2 1
8 3 1
8 4 1
8 5 1
8 6 1
8 7 1
10 9 1
11 1 1
11 2 1
11 3 1
11 4 1
11 5 1
11 6 1
11 7 1
11 8 1
12 1 1
12 2 1
12 3 1
12 4 1
12 5 1
12 6 1
12 7 1
12 8 1
12 11 1
13 11 1
13 12 1
14 5 1
14 7 1
14 11 1
14 12 1
14 13 1
15 9 1
15 10 1
15 11 1
15 12 1
15 13 1
15 14 1
16 9 1
16 10 1
16 11 1
16 12 1
16 13 1
16 14 1
16 15 1
17 1 1
17 2 1
17 3 1
17 4 1
17 5 1
17 6 1
17 7 1
17 8 1
17 11 1
17 12 1
18 1 1
18 2 1
18 3 1
18 4 1
18 5 1
18 6 1
18 7 1
18 8 1
18 11 1
18 12 1
18 17 1
19 11 1
19 12 1
19 13 1
19 14 1
19 15 1
19 16 1
20 11 1
20 12 1
20 13 1
20 14 1
20 15 1
20 16 1
20 19 1
22 21 1
23 5 1
23 7 1
23 13 1
23 14 1
23 21 1
23 22 1
24 13 1
24 14 1
24 21 1
24 22 1
24 23 1
25 1 1
25 2 1
25 3 1
25 4 1
25 5 1
25 6 1
25 7 1
25 8 1
25 11 1
25 12 1
25 13 1
25 14 1
25 15 1
25 16 1
25 17 1
25 18 1
25 19 1
25 20 1
26 1 1
26 2 1
26 3 1
26 4 1
26 5 1
26 6 1
26 7 1
26 8 1
26 11 1
26 12 1
26 13 1
26 14 1
26 15 1
26 16 1
26 17 1
26 18 1
26 19 1
26 20 1
26 25 1
27 19 1
27 20 1
28 19 1
28 20 1
28 27 1
29 1 1
29 2 1
29 3 1
29 4 1
29 5 1
29 6 1
29 7 1
29 8 1
29 11 1
29 12 1
29 13 1
29 14 1
29 15 1
29 17 1
29 18 1
29 20 1
29 23 1
29 24 1
29 25 1
29 26 1
29 27 1
30 1 1
30 2 1
30 3 1
30 4 1
30 5 1
30 6 1
30 7 1
30 8 1
30 11 1
30 12 1
30 13 1
30 14 1
30 15 1
30 16 1
30 17 1
30 18 1
30 19 1
30 20 1
30 21 1
30 22 1
30 23 1
30 25 1
30 26 1
30 29 1
31 11 1
31 12 1
31 13 1
31 14 1
31 15 1
31 16 1
31 19 1
31 20 1
31 25 1
31 26 1
31 29 1
31 30 1
32 11 1
32 12 1
32 13 1
32 14 1
32 15 1
32 16 1
32 19 1
32 20 1
32 25 1
32 26 1
32 29 1
32 31 1
