%%MatrixMarket matrix coordinate integer general
%
100 100 2016
1 9 1
1 11 1
1 13 1
1 16 1
1 18 1
1 24 1
1 41 1
1 44 1
1 54 1
1 56 1
1 63 1
1 67 1
1 69 1
1 70 1
1 77 1
1 80 1
1 83 1
1 86 1
1 87 1
1 92 1
1 94 1
2 3 1
2 10 1
2 14 1
2 18 1
2 20 1
2 25 1
2 32 1
2 37 1
2 41 1
2 43 1
2 47 1
2 54 1
2 63 1
2 68 1
2 81 1
2 92 1
2 98 1
2 99 1
3 2 1
3 7 1
3 12 1
3 14 1
3 29 1
3 39 1
3 45 1
3 46 1
3 49 1
3 67 1
3 70 1
3 71 1
3 75 1
3 76 1
3 77 1
3 79 1
3 81 1
3 82 1
3 83 1
3 86 1
3 94 1
4 10 1
4 11 1
4 21 1
4 24 1
4 27 1
4 41 1
4 45 1
4 52 1
4 53 1
4 55 1
4 60 1
4 65 1
4 71 1
4 78 1
4 79 1
4 82 1
4 84 1
4 86 1
4 87 1
4 89 1
4 92 1
4 93 1
5 9 1
5 10 1
5 12 1
5 15 1
5 20 1
5 21 1
5 24 1
5 25 1
5 27 1
5 30 1
5 31 1
5 32 1
5 37 1
5 42 1
5 49 1
5 52 1
5 54 1
5 55 1
5 58 1
5 70 1
5 74 1
5 76 1
5 77 1
5 80 1
5 81 1
5 85 1
5 88 1
5 94 1
5 97 1
6 13 1
6 17 1
6 18 1
6 22 1
6 27 1
6 32 1
6 38 1
6 42 1
6 44 1
6 50 1
6 58 1
6 61 1
6 71 1
6 82 1
6 86 1
7 3 1
7 11 1
7 19 1
7 21 1
7 34 1
7 36 1
7 40 1
7 47 1
7 52 1
7 55 1
7 58 1
7 62 1
7 70 1
7 77 1
7 84 1
7 87 1
7 92 1
7 93 1
7 94 1
7 97 1
8 9 1
8 10 1
8 14 1
8 22 1
8 26 1
8 27 1
8 32 1
8 44 1
8 46 1
8 47 1
8 50 1
8 52 1
8 54 1
8 56 1
8 59 1
8 63 1
8 69 1
8 76 1
8 77 1
8 86 1
8 91 1
8 93 1
8 99 1
9 1 1
9 5 1
9 8 1
9 13 1
9 18 1
9 25 1
9 32 1
9 34 1
9 39 1
9 43 1
9 46 1
9 47 1
9 50 1
9 57 1
9 60 1
9 61 1
9 69 1
9 75 1
9 77 1
9 79 1
9 90 1
9 95 1
10 2 1
10 4 1
10 5 1
10 8 1
10 11 1
10 12 1
10 14 1
10 15 1
10 16 1
10 23 1
10 39 1
10 40 1
10 45 1
10 47 1
10 48 1
10 52 1
10 55 1
10 60 1
10 65 1
10 73 1
10 80 1
10 82 1
10 83 1
10 90 1
10 96 1
10 98 1
11 1 1
11 4 1
11 7 1
11 10 1
11 16 1
11 21 1
11 26 1
11 30 1
11 37 1
11 44 1
11 51 1
11 59 1
11 64 1
11 73 1
11 76 1
11 77 1
11 78 1
11 84 1
11 85 1
11 87 1
11 91 1
11 97 1
12 3 1
12 5 1
12 10 1
12 22 1
12 26 1
12 28 1
12 30 1
12 36 1
12 37 1
12 38 1
12 45 1
12 55 1
12 56 1
12 59 1
12 60 1
12 70 1
12 78 1
12 79 1
12 83 1
12 85 1
12 89 1
13 1 1
13 6 1
13 9 1
13 16 1
13 20 1
13 24 1
13 26 1
13 27 1
13 30 1
13 37 1
13 41 1
13 49 1
13 54 1
13 56 1
13 60 1
13 62 1
13 63 1
13 67 1
13 75 1
13 80 1
13 94 1
13 95 1
13 97 1
13 99 1
13 100 1
14 2 1
14 3 1
14 8 1
14 10 1
14 18 1
14 28 1
14 30 1
14 45 1
14 53 1
14 54 1
14 60 1
14 76 1
14 77 1
14 78 1
14 89 1
14 93 1
14 97 1
15 5 1
15 10 1
15 16 1
15 19 1
15 26 1
15 27 1
15 30 1
15 36 1
15 41 1
15 48 1
15 52 1
15 55 1
15 56 1
15 62 1
15 64 1
15 68 1
15 69 1
15 71 1
15 72 1
15 77 1
15 82 1
15 92 1
15 93 1
15 96 1
16 1 1
16 10 1
16 11 1
16 13 1
16 15 1
16 17 1
16 18 1
16 25 1
16 26 1
16 27 1
16 31 1
16 35 1
16 38 1
16 39 1
16 76 1
16 83 1
16 87 1
16 99 1
16 100 1
17 6 1
17 16 1
17 23 1
17 25 1
17 36 1
17 39 1
17 55 1
17 79 1
17 81 1
17 84 1
17 89 1
17 98 1
18 1 1
18 2 1
18 6 1
18 9 1
18 14 1
18 16 1
18 21 1
18 23 1
18 26 1
18 30 1
18 31 1
18 44 1
18 45 1
18 48 1
18 52 1
18 55 1
18 66 1
18 71 1
18 79 1
18 83 1
18 86 1
18 92 1
18 95 1
18 97 1
18 98 1
18 100 1
19 7 1
19 15 1
19 20 1
19 23 1
19 24 1
19 34 1
19 39 1
19 51 1
19 52 1
19 58 1
19 59 1
19 62 1
19 64 1
19 73 1
19 74 1
19 75 1
19 84 1
19 95 1
19 100 1
20 2 1
20 5 1
20 13 1
20 19 1
20 24 1
20 29 1
20 37 1
20 49 1
20 51 1
20 54 1
20 59 1
20 60 1
20 63 1
20 69 1
20 75 1
20 77 1
20 80 1
20 89 1
20 91 1
20 92 1
20 94 1
21 4 1
21 5 1
21 7 1
21 11 1
21 18 1
21 22 1
21 26 1
21 29 1
21 31 1
21 36 1
21 42 1
21 45 1
21 51 1
21 54 1
21 61 1
21 77 1
21 79 1
21 87 1
21 90 1
21 94 1
21 95 1
22 6 1
22 8 1
22 12 1
22 21 1
22 28 1
22 29 1
22 30 1
22 38 1
22 41 1
22 52 1
22 56 1
22 58 1
22 59 1
22 61 1
22 67 1
22 69 1
22 70 1
22 71 1
22 78 1
22 79 1
22 81 1
23 10 1
23 17 1
23 18 1
23 19 1
23 26 1
23 32 1
23 33 1
23 41 1
23 47 1
23 51 1
23 52 1
23 56 1
23 57 1
23 60 1
23 70 1
23 72 1
23 75 1
23 77 1
23 93 1
23 94 1
24 1 1
24 4 1
24 5 1
24 13 1
24 19 1
24 20 1
24 29 1
24 36 1
24 49 1
24 51 1
24 69 1
24 73 1
24 84 1
24 86 1
25 2 1
25 5 1
25 9 1
25 16 1
25 17 1
25 30 1
25 33 1
25 37 1
25 45 1
25 46 1
25 49 1
25 56 1
25 58 1
25 61 1
25 67 1
25 68 1
25 84 1
25 87 1
25 89 1
25 92 1
26 8 1
26 11 1
26 12 1
26 13 1
26 15 1
26 16 1
26 18 1
26 21 1
26 23 1
26 27 1
26 28 1
26 31 1
26 48 1
26 50 1
26 59 1
26 61 1
26 70 1
26 73 1
26 77 1
26 82 1
26 83 1
26 84 1
26 99 1
27 4 1
27 5 1
27 6 1
27 8 1
27 13 1
27 15 1
27 16 1
27 26 1
27 36 1
27 48 1
27 66 1
27 87 1
28 12 1
28 14 1
28 22 1
28 26 1
28 29 1
28 41 1
28 52 1
28 53 1
28 60 1
28 64 1
28 65 1
28 71 1
28 75 1
28 79 1
28 83 1
28 93 1
28 100 1
29 3 1
29 20 1
29 21 1
29 22 1
29 24 1
29 28 1
29 32 1
29 33 1
29 34 1
29 37 1
29 40 1
29 50 1
29 51 1
29 52 1
29 55 1
29 58 1
29 59 1
29 64 1
29 67 1
29 70 1
29 73 1
29 80 1
29 81 1
29 89 1
29 91 1
29 96 1
30 5 1
30 11 1
30 12 1
30 13 1
30 14 1
30 15 1
30 18 1
30 22 1
30 25 1
30 48 1
30 49 1
30 57 1
30 60 1
30 73 1
30 84 1
30 86 1
30 88 1
30 89 1
30 92 1
30 95 1
30 96 1
30 97 1
30 99 1
31 5 1
31 16 1
31 18 1
31 21 1
31 26 1
31 45 1
31 46 1
31 53 1
31 56 1
31 62 1
31 64 1
31 69 1
31 77 1
31 78 1
31 85 1
31 88 1
31 92 1
31 100 1
32 2 1
32 5 1
32 6 1
32 8 1
32 9 1
32 23 1
32 29 1
32 34 1
32 43 1
32 45 1
32 53 1
32 57 1
32 59 1
32 60 1
32 65 1
32 66 1
32 69 1
32 73 1
32 86 1
32 88 1
32 94 1
33 23 1
33 25 1
33 29 1
33 34 1
33 43 1
33 49 1
33 55 1
33 61 1
33 63 1
33 72 1
33 78 1
33 83 1
33 92 1
33 95 1
33 100 1
34 7 1
34 9 1
34 19 1
34 29 1
34 32 1
34 33 1
34 37 1
34 38 1
34 42 1
34 43 1
34 68 1
34 71 1
34 84 1
34 89 1
34 90 1
34 97 1
35 16 1
35 56 1
35 60 1
35 64 1
35 75 1
35 81 1
35 86 1
35 90 1
35 96 1
35 99 1
36 7 1
36 12 1
36 15 1
36 17 1
36 21 1
36 24 1
36 27 1
36 44 1
36 45 1
36 47 1
36 58 1
36 64 1
36 70 1
36 71 1
36 73 1
36 76 1
36 77 1
36 87 1
36 88 1
37 2 1
37 5 1
37 11 1
37 12 1
37 13 1
37 20 1
37 25 1
37 29 1
37 34 1
37 52 1
37 53 1
37 54 1
37 63 1
37 66 1
37 74 1
37 78 1
37 79 1
37 86 1
37 92 1
37 93 1
37 98 1
38 6 1
38 12 1
38 16 1
38 22 1
38 34 1
38 50 1
38 55 1
38 57 1
38 59 1
38 64 1
38 67 1
38 72 1
38 74 1
38 77 1
38 80 1
38 82 1
38 84 1
38 89 1
38 92 1
38 96 1
38 97 1
39 3 1
39 9 1
39 10 1
39 16 1
39 17 1
39 19 1
39 40 1
39 42 1
39 47 1
39 51 1
39 52 1
39 54 1
39 55 1
39 61 1
39 73 1
39 80 1
39 87 1
40 7 1
40 10 1
40 29 1
40 39 1
40 45 1
40 48 1
40 50 1
40 53 1
40 63 1
40 64 1
40 66 1
40 67 1
40 75 1
40 79 1
40 80 1
40 81 1
40 91 1
41 1 1
41 2 1
41 4 1
41 13 1
41 15 1
41 22 1
41 23 1
41 28 1
41 46 1
41 47 1
41 50 1
41 57 1
41 66 1
41 75 1
41 76 1
41 78 1
41 85 1
41 86 1
41 92 1
41 94 1
41 97 1
41 100 1
42 5 1
42 6 1
42 21 1
42 34 1
42 39 1
42 44 1
42 46 1
42 47 1
42 53 1
42 61 1
42 62 1
42 65 1
42 68 1
42 69 1
42 72 1
42 81 1
42 82 1
42 84 1
42 93 1
42 94 1
43 2 1
43 9 1
43 32 1
43 33 1
43 34 1
43 46 1
43 48 1
43 59 1
43 65 1
43 69 1
43 83 1
44 1 1
44 6 1
44 8 1
44 11 1
44 18 1
44 36 1
44 42 1
44 50 1
44 56 1
44 59 1
44 60 1
44 61 1
44 62 1
44 64 1
44 67 1
44 71 1
44 78 1
44 90 1
44 98 1
44 100 1
45 3 1
45 4 1
45 10 1
45 12 1
45 14 1
45 18 1
45 21 1
45 25 1
45 31 1
45 32 1
45 36 1
45 40 1
45 46 1
45 52 1
45 53 1
45 57 1
45 59 1
45 71 1
45 74 1
45 75 1
45 76 1
45 85 1
45 89 1
45 95 1
46 3 1
46 8 1
46 9 1
46 25 1
46 31 1
46 41 1
46 42 1
46 43 1
46 45 1
46 47 1
46 48 1
46 51 1
46 62 1
46 67 1
46 69 1
46 71 1
46 74 1
46 92 1
46 96 1
47 2 1
47 7 1
47 8 1
47 9 1
47 10 1
47 23 1
47 36 1
47 39 1
47 41 1
47 42 1
47 46 1
47 58 1
47 65 1
47 67 1
47 72 1
47 76 1
47 81 1
47 82 1
47 90 1
47 93 1
47 94 1
47 98 1
48 10 1
48 15 1
48 18 1
48 26 1
48 27 1
48 30 1
48 40 1
48 43 1
48 46 1
48 51 1
48 60 1
48 76 1
48 77 1
48 86 1
48 89 1
48 90 1
48 95 1
48 97 1
48 99 1
49 3 1
49 5 1
49 13 1
49 20 1
49 24 1
49 25 1
49 30 1
49 33 1
49 51 1
49 55 1
49 56 1
49 62 1
49 65 1
49 67 1
49 70 1
49 73 1
49 86 1
49 92 1
49 95 1
49 96 1
50 6 1
50 8 1
50 9 1
50 26 1
50 29 1
50 38 1
50 40 1
50 41 1
50 44 1
50 53 1
50 54 1
50 55 1
50 66 1
50 74 1
50 76 1
50 79 1
50 80 1
50 91 1
50 97 1
50 98 1
50 100 1
51 11 1
51 19 1
51 20 1
51 21 1
51 23 1
51 24 1
51 29 1
51 39 1
51 46 1
51 48 1
51 49 1
51 52 1
51 54 1
51 56 1
51 61 1
51 67 1
51 69 1
51 71 1
51 72 1
51 77 1
51 83 1
51 85 1
51 88 1
51 99 1
52 4 1
52 5 1
52 7 1
52 8 1
52 10 1
52 15 1
52 18 1
52 19 1
52 22 1
52 23 1
52 28 1
52 29 1
52 37 1
52 39 1
52 45 1
52 51 1
52 54 1
52 63 1
52 67 1
52 68 1
52 75 1
52 77 1
52 78 1
52 80 1
52 88 1
52 90 1
53 4 1
53 14 1
53 28 1
53 31 1
53 32 1
53 37 1
53 40 1
53 42 1
53 45 1
53 50 1
53 54 1
53 56 1
53 61 1
53 63 1
53 67 1
53 72 1
53 75 1
53 77 1
53 80 1
53 86 1
53 88 1
53 99 1
54 1 1
54 2 1
54 5 1
54 8 1
54 13 1
54 14 1
54 20 1
54 21 1
54 37 1
54 39 1
54 50 1
54 51 1
54 52 1
54 53 1
54 62 1
54 64 1
54 65 1
54 66 1
54 67 1
54 70 1
54 74 1
54 78 1
54 82 1
54 94 1
54 96 1
54 97 1
54 98 1
54 99 1
54 100 1
55 4 1
55 5 1
55 7 1
55 10 1
55 12 1
55 15 1
55 17 1
55 18 1
55 29 1
55 33 1
55 38 1
55 39 1
55 49 1
55 50 1
55 57 1
55 66 1
55 67 1
55 69 1
55 73 1
55 74 1
55 75 1
55 86 1
55 98 1
55 100 1
56 1 1
56 8 1
56 12 1
56 13 1
56 15 1
56 22 1
56 23 1
56 25 1
56 31 1
56 35 1
56 44 1
56 49 1
56 51 1
56 53 1
56 61 1
56 64 1
56 84 1
56 86 1
56 89 1
56 93 1
56 98 1
57 9 1
57 23 1
57 30 1
57 32 1
57 38 1
57 41 1
57 45 1
57 55 1
57 62 1
57 63 1
57 71 1
57 74 1
57 77 1
57 82 1
57 83 1
57 86 1
57 90 1
57 96 1
58 5 1
58 6 1
58 7 1
58 19 1
58 22 1
58 25 1
58 29 1
58 36 1
58 47 1
58 63 1
58 65 1
58 70 1
58 75 1
58 82 1
58 83 1
58 92 1
58 98 1
58 100 1
59 8 1
59 11 1
59 12 1
59 19 1
59 20 1
59 22 1
59 26 1
59 29 1
59 32 1
59 38 1
59 43 1
59 44 1
59 45 1
59 61 1
59 62 1
59 65 1
59 69 1
59 74 1
59 76 1
59 85 1
59 88 1
59 92 1
59 96 1
60 4 1
60 9 1
60 10 1
60 12 1
60 13 1
60 14 1
60 20 1
60 23 1
60 28 1
60 30 1
60 32 1
60 35 1
60 44 1
60 48 1
60 67 1
60 70 1
60 77 1
60 78 1
60 81 1
60 82 1
60 84 1
60 85 1
60 86 1
60 87 1
60 88 1
60 92 1
60 93 1
60 94 1
60 100 1
61 6 1
61 9 1
61 21 1
61 22 1
61 25 1
61 26 1
61 33 1
61 39 1
61 42 1
61 44 1
61 51 1
61 53 1
61 56 1
61 59 1
61 62 1
61 65 1
61 81 1
61 82 1
61 88 1
61 90 1
62 7 1
62 13 1
62 15 1
62 19 1
62 31 1
62 42 1
62 44 1
62 46 1
62 49 1
62 54 1
62 57 1
62 59 1
62 61 1
62 66 1
62 69 1
62 92 1
62 93 1
62 96 1
63 1 1
63 2 1
63 8 1
63 13 1
63 20 1
63 33 1
63 37 1
63 40 1
63 52 1
63 53 1
63 57 1
63 58 1
63 65 1
63 70 1
63 73 1
63 86 1
63 88 1
63 91 1
63 99 1
63 100 1
64 11 1
64 15 1
64 19 1
64 28 1
64 29 1
64 31 1
64 35 1
64 36 1
64 38 1
64 40 1
64 44 1
64 54 1
64 56 1
64 71 1
64 81 1
64 90 1
64 97 1
65 4 1
65 10 1
65 28 1
65 32 1
65 42 1
65 43 1
65 47 1
65 49 1
65 54 1
65 58 1
65 59 1
65 61 1
65 63 1
65 70 1
65 72 1
65 82 1
65 85 1
65 88 1
65 89 1
65 96 1
65 100 1
66 18 1
66 27 1
66 32 1
66 37 1
66 40 1
66 41 1
66 50 1
66 54 1
66 55 1
66 62 1
66 72 1
66 73 1
66 74 1
66 76 1
66 77 1
66 78 1
66 84 1
66 89 1
66 91 1
66 94 1
66 100 1
67 1 1
67 3 1
67 13 1
67 22 1
67 25 1
67 29 1
67 38 1
67 40 1
67 44 1
67 46 1
67 47 1
67 49 1
67 51 1
67 52 1
67 53 1
67 54 1
67 55 1
67 60 1
67 74 1
67 75 1
67 86 1
67 91 1
68 2 1
68 15 1
68 25 1
68 34 1
68 42 1
68 52 1
68 72 1
68 73 1
68 77 1
68 80 1
68 81 1
68 84 1
68 85 1
68 87 1
68 88 1
68 89 1
68 93 1
68 98 1
69 1 1
69 8 1
69 9 1
69 15 1
69 20 1
69 22 1
69 24 1
69 31 1
69 32 1
69 42 1
69 43 1
69 46 1
69 51 1
69 55 1
69 59 1
69 62 1
69 81 1
69 85 1
70 1 1
70 3 1
70 5 1
70 7 1
70 12 1
70 22 1
70 23 1
70 26 1
70 29 1
70 36 1
70 49 1
70 54 1
70 58 1
70 60 1
70 63 1
70 65 1
70 71 1
70 77 1
70 78 1
70 83 1
70 92 1
71 3 1
71 4 1
71 6 1
71 15 1
71 18 1
71 22 1
71 28 1
71 34 1
71 36 1
71 44 1
71 45 1
71 46 1
71 51 1
71 57 1
71 64 1
71 70 1
71 73 1
71 78 1
71 82 1
71 84 1
71 85 1
71 86 1
71 91 1
71 100 1
72 15 1
72 23 1
72 33 1
72 38 1
72 42 1
72 47 1
72 51 1
72 53 1
72 65 1
72 66 1
72 68 1
72 73 1
72 77 1
72 90 1
72 93 1
72 95 1
72 96 1
73 10 1
73 11 1
73 19 1
73 24 1
73 26 1
73 29 1
73 30 1
73 32 1
73 36 1
73 39 1
73 49 1
73 55 1
73 63 1
73 66 1
73 68 1
73 71 1
73 72 1
73 74 1
73 75 1
73 96 1
73 98 1
73 99 1
74 5 1
74 19 1
74 37 1
74 38 1
74 45 1
74 46 1
74 50 1
74 54 1
74 55 1
74 57 1
74 59 1
74 66 1
74 67 1
74 73 1
74 90 1
74 91 1
74 95 1
74 100 1
75 3 1
75 9 1
75 13 1
75 19 1
75 20 1
75 23 1
75 28 1
75 35 1
75 40 1
75 41 1
75 45 1
75 52 1
75 53 1
75 55 1
75 58 1
75 67 1
75 73 1
75 81 1
75 96 1
76 3 1
76 5 1
76 8 1
76 11 1
76 14 1
76 16 1
76 36 1
76 41 1
76 45 1
76 47 1
76 48 1
76 50 1
76 59 1
76 66 1
76 98 1
76 99 1
77 1 1
77 3 1
77 5 1
77 7 1
77 8 1
77 9 1
77 11 1
77 14 1
77 15 1
77 20 1
77 21 1
77 23 1
77 26 1
77 31 1
77 36 1
77 38 1
77 48 1
77 51 1
77 52 1
77 53 1
77 57 1
77 60 1
77 66 1
77 68 1
77 70 1
77 72 1
77 80 1
77 91 1
77 94 1
78 4 1
78 11 1
78 12 1
78 14 1
78 22 1
78 31 1
78 33 1
78 37 1
78 41 1
78 44 1
78 52 1
78 54 1
78 60 1
78 66 1
78 70 1
78 71 1
78 90 1
78 94 1
79 3 1
79 4 1
79 9 1
79 12 1
79 17 1
79 18 1
79 21 1
79 22 1
79 28 1
79 37 1
79 40 1
79 50 1
79 90 1
79 91 1
79 92 1
79 97 1
80 1 1
80 5 1
80 10 1
80 13 1
80 20 1
80 29 1
80 38 1
80 39 1
80 40 1
80 50 1
80 52 1
80 53 1
80 68 1
80 77 1
80 81 1
80 96 1
80 98 1
80 100 1
81 2 1
81 3 1
81 5 1
81 17 1
81 22 1
81 29 1
81 35 1
81 40 1
81 42 1
81 47 1
81 60 1
81 61 1
81 64 1
81 68 1
81 69 1
81 75 1
81 80 1
81 82 1
81 87 1
81 96 1
81 99 1
82 3 1
82 4 1
82 6 1
82 10 1
82 15 1
82 26 1
82 38 1
82 42 1
82 47 1
82 54 1
82 57 1
82 58 1
82 60 1
82 61 1
82 65 1
82 71 1
82 81 1
82 85 1
82 88 1
82 89 1
82 90 1
82 98 1
82 99 1
83 1 1
83 3 1
83 10 1
83 12 1
83 16 1
83 18 1
83 26 1
83 28 1
83 33 1
83 43 1
83 51 1
83 57 1
83 58 1
83 70 1
83 97 1
84 4 1
84 7 1
84 11 1
84 17 1
84 19 1
84 24 1
84 25 1
84 26 1
84 30 1
84 34 1
84 38 1
84 42 1
84 56 1
84 60 1
84 66 1
84 68 1
84 71 1
84 95 1
84 96 1
85 5 1
85 11 1
85 12 1
85 31 1
85 41 1
85 45 1
85 51 1
85 59 1
85 60 1
85 65 1
85 68 1
85 69 1
85 71 1
85 82 1
85 86 1
85 89 1
85 92 1
85 93 1
86 1 1
86 3 1
86 4 1
86 6 1
86 8 1
86 18 1
86 24 1
86 30 1
86 32 1
86 35 1
86 37 1
86 41 1
86 48 1
86 49 1
86 53 1
86 55 1
86 56 1
86 57 1
86 60 1
86 63 1
86 67 1
86 71 1
86 85 1
86 93 1
86 94 1
86 97 1
86 98 1
86 99 1
87 1 1
87 4 1
87 7 1
87 11 1
87 16 1
87 21 1
87 25 1
87 27 1
87 36 1
87 39 1
87 60 1
87 68 1
87 81 1
87 88 1
87 99 1
88 5 1
88 30 1
88 31 1
88 32 1
88 36 1
88 51 1
88 52 1
88 53 1
88 59 1
88 60 1
88 61 1
88 63 1
88 65 1
88 68 1
88 82 1
88 87 1
88 96 1
88 100 1
89 4 1
89 12 1
89 14 1
89 17 1
89 20 1
89 25 1
89 29 1
89 30 1
89 34 1
89 38 1
89 45 1
89 48 1
89 56 1
89 65 1
89 66 1
89 68 1
89 82 1
89 85 1
89 90 1
89 91 1
89 96 1
89 98 1
90 9 1
90 10 1
90 21 1
90 34 1
90 35 1
90 44 1
90 47 1
90 48 1
90 52 1
90 57 1
90 61 1
90 64 1
90 72 1
90 74 1
90 78 1
90 79 1
90 82 1
90 89 1
90 94 1
90 99 1
91 8 1
91 11 1
91 20 1
91 29 1
91 40 1
91 50 1
91 63 1
91 66 1
91 67 1
91 71 1
91 74 1
91 77 1
91 79 1
91 89 1
91 97 1
91 100 1
92 1 1
92 2 1
92 4 1
92 7 1
92 15 1
92 18 1
92 20 1
92 25 1
92 30 1
92 31 1
92 33 1
92 37 1
92 38 1
92 41 1
92 46 1
92 49 1
92 58 1
92 59 1
92 60 1
92 62 1
92 70 1
92 79 1
92 85 1
93 4 1
93 7 1
93 8 1
93 14 1
93 15 1
93 23 1
93 28 1
93 37 1
93 42 1
93 47 1
93 56 1
93 60 1
93 62 1
93 68 1
93 72 1
93 85 1
93 86 1
93 99 1
94 1 1
94 3 1
94 5 1
94 7 1
94 13 1
94 20 1
94 21 1
94 23 1
94 32 1
94 41 1
94 42 1
94 47 1
94 54 1
94 60 1
94 66 1
94 77 1
94 78 1
94 86 1
94 90 1
94 98 1
95 9 1
95 13 1
95 18 1
95 19 1
95 21 1
95 30 1
95 33 1
95 45 1
95 48 1
95 49 1
95 72 1
95 74 1
95 84 1
96 10 1
96 15 1
96 29 1
96 30 1
96 35 1
96 38 1
96 46 1
96 49 1
96 54 1
96 57 1
96 59 1
96 62 1
96 65 1
96 72 1
96 73 1
96 75 1
96 80 1
96 81 1
96 84 1
96 88 1
96 89 1
96 99 1
97 5 1
97 7 1
97 11 1
97 13 1
97 14 1
97 18 1
97 30 1
97 34 1
97 38 1
97 41 1
97 48 1
97 50 1
97 54 1
97 64 1
97 79 1
97 83 1
97 86 1
97 91 1
98 2 1
98 10 1
98 17 1
98 18 1
98 37 1
98 44 1
98 47 1
98 50 1
98 54 1
98 55 1
98 56 1
98 58 1
98 68 1
98 73 1
98 76 1
98 80 1
98 82 1
98 86 1
98 89 1
98 94 1
98 100 1
99 2 1
99 8 1
99 13 1
99 16 1
99 26 1
99 30 1
99 35 1
99 48 1
99 51 1
99 53 1
99 54 1
99 63 1
99 73 1
99 76 1
99 81 1
99 82 1
99 86 1
99 87 1
99 90 1
99 93 1
99 96 1
99 100 1
100 13 1
100 16 1
100 18 1
100 19 1
100 28 1
100 31 1
100 33 1
100 41 1
100 44 1
100 50 1
100 54 1
100 55 1
100 58 1
100 60 1
100 63 1
100 65 1
100 66 1
100 71 1
100 74 1
100 80 1
100 88 1
100 91 1
100 98 1
100 99 1
