%%MatrixMarket matrix coordinate integer general
%
200 200 7772
1 2 1
1 6 1
1 9 1
1 17 1
1 24 1
1 36 1
1 40 1
1 42 1
1 43 1
1 46 1
1 48 1
1 50 1
1 52 1
1 61 1
1 63 1
1 68 1
1 74 1
1 78 1
1 100 1
1 106 1
1 112 1
1 114 1
1 115 1
1 118 1
1 125 1
1 126 1
1 134 1
1 138 1
1 140 1
1 141 1
1 145 1
1 147 1
1 150 1
1 156 1
1 161 1
1 164 1
1 166 1
1 174 1
1 183 1
1 186 1
1 190 1
2 1 1
2 7 1
2 14 1
2 18 1
2 36 1
2 39 1
2 44 1
2 51 1
2 58 1
2 64 1
2 74 1
2 79 1
2 80 1
2 81 1
2 85 1
2 86 1
2 89 1
2 93 1
2 95 1
2 103 1
2 106 1
2 113 1
2 114 1
2 118 1
2 140 1
2 149 1
2 154 1
2 157 1
2 159 1
2 166 1
2 171 1
2 186 1
2 187 1
2 189 1
3 18 1
3 20 1
3 25 1
3 27 1
3 30 1
3 38 1
3 41 1
3 43 1
3 44 1
3 50 1
3 52 1
3 57 1
3 65 1
3 71 1
3 75 1
3 76 1
3 83 1
3 88 1
3 103 1
3 109 1
3 113 1
3 125 1
3 127 1
3 139 1
3 149 1
3 153 1
3 157 1
3 166 1
3 175 1
3 176 1
3 188 1
3 191 1
4 5 1
4 8 1
4 13 1
4 18 1
4 20 1
4 24 1
4 27 1
4 30 1
4 32 1
4 41 1
4 58 1
4 63 1
4 73 1
4 74 1
4 75 1
4 79 1
4 92 1
4 93 1
4 101 1
4 103 1
4 110 1
4 117 1
4 128 1
4 129 1
4 136 1
4 139 1
4 142 1
4 147 1
4 152 1
4 153 1
4 158 1
4 162 1
4 172 1
4 176 1
4 180 1
4 185 1
4 188 1
4 190 1
4 197 1
4 198 1
5 4 1
5 7 1
5 9 1
5 15 1
5 16 1
5 17 1
5 22 1
5 29 1
5 34 1
5 35 1
5 45 1
5 49 1
5 53 1
5 64 1
5 76 1
5 88 1
5 95 1
5 97 1
5 98 1
5 103 1
5 106 1
5 117 1
5 119 1
5 138 1
5 144 1
5 160 1
5 161 1
5 169 1
5 188 1
5 190 1
6 1 1
6 9 1
6 13 1
6 15 1
6 19 1
6 20 1
6 25 1
6 26 1
6 35 1
6 36 1
6 58 1
6 63 1
6 77 1
6 78 1
6 82 1
6 88 1
6 110 1
6 117 1
6 121 1
6 136 1
6 137 1
6 146 1
6 149 1
6 150 1
6 167 1
6 175 1
6 184 1
6 191 1
6 194 1
6 199 1
7 2 1
7 5 1
7 12 1
7 18 1
7 22 1
7 25 1
7 29 1
7 33 1
7 39 1
7 41 1
7 50 1
7 54 1
7 60 1
7 63 1
7 65 1
7 68 1
7 73 1
7 74 1
7 85 1
7 87 1
7 110 1
7 120 1
7 121 1
7 130 1
7 145 1
7 148 1
7 154 1
7 160 1
7 163 1
7 177 1
7 184 1
7 191 1
7 192 1
7 194 1
8 4 1
8 13 1
8 15 1
8 27 1
8 28 1
8 33 1
8 40 1
8 42 1
8 49 1
8 58 1
8 62 1
8 63 1
8 70 1
8 73 1
8 77 1
8 87 1
8 99 1
8 103 1
8 116 1
8 117 1
8 122 1
8 126 1
8 130 1
8 136 1
8 141 1
8 147 1
8 156 1
8 162 1
8 166 1
8 174 1
8 182 1
8 183 1
8 184 1
8 187 1
8 188 1
8 189 1
8 191 1
9 1 1
9 5 1
9 6 1
9 11 1
9 17 1
9 20 1
9 25 1
9 26 1
9 41 1
9 43 1
9 52 1
9 56 1
9 58 1
9 65 1
9 68 1
9 71 1
9 77 1
9 79 1
9 87 1
9 90 1
9 93 1
9 103 1
9 116 1
9 127 1
9 129 1
9 133 1
9 136 1
9 137 1
9 144 1
9 146 1
9 151 1
9 154 1
9 160 1
9 168 1
9 173 1
9 181 1
9 184 1
9 192 1
9 193 1
9 195 1
9 198 1
9 199 1
10 11 1
10 16 1
10 22 1
10 23 1
10 24 1
10 25 1
10 26 1
10 34 1
10 45 1
10 48 1
10 49 1
10 50 1
10 56 1
10 58 1
10 60 1
10 61 1
10 69 1
10 73 1
10 81 1
10 84 1
10 85 1
10 89 1
10 94 1
10 95 1
10 99 1
10 101 1
10 110 1
10 112 1
10 114 1
10 117 1
10 127 1
10 129 1
10 131 1
10 139 1
10 140 1
10 141 1
10 148 1
10 149 1
10 153 1
10 158 1
10 160 1
10 165 1
10 176 1
10 178 1
10 179 1
10 184 1
10 185 1
10 188 1
10 192 1
10 193 1
11 9 1
11 10 1
11 23 1
11 28 1
11 32 1
11 41 1
11 48 1
11 55 1
11 58 1
11 61 1
11 67 1
11 78 1
11 90 1
11 101 1
11 110 1
11 112 1
11 115 1
11 135 1
11 136 1
11 150 1
11 156 1
11 157 1
11 170 1
11 181 1
11 182 1
11 185 1
11 191 1
11 198 1
12 7 1
12 16 1
12 29 1
12 41 1
12 42 1
12 52 1
12 71 1
12 75 1
12 77 1
12 78 1
12 84 1
12 87 1
12 89 1
12 104 1
12 105 1
12 113 1
12 117 1
12 126 1
12 128 1
12 129 1
12 135 1
12 151 1
12 155 1
12 162 1
12 184 1
12 185 1
12 191 1
12 192 1
12 194 1
12 195 1
12 197 1
13 4 1
13 6 1
13 8 1
13 18 1
13 25 1
13 30 1
13 33 1
13 38 1
13 45 1
13 51 1
13 53 1
13 57 1
13 62 1
13 64 1
13 70 1
13 78 1
13 91 1
13 97 1
13 103 1
13 107 1
13 108 1
13 110 1
13 112 1
13 117 1
13 119 1
13 126 1
13 131 1
13 132 1
13 136 1
13 137 1
13 146 1
13 152 1
13 153 1
13 155 1
13 158 1
13 160 1
13 172 1
13 177 1
13 178 1
14 2 1
14 17 1
14 29 1
14 31 1
14 41 1
14 42 1
14 61 1
14 69 1
14 76 1
14 89 1
14 95 1
14 100 1
14 105 1
14 106 1
14 107 1
14 108 1
14 111 1
14 125 1
14 126 1
14 131 1
14 132 1
14 143 1
14 147 1
14 159 1
14 163 1
14 165 1
14 166 1
14 178 1
14 180 1
14 181 1
14 186 1
14 195 1
15 5 1
15 6 1
15 8 1
15 16 1
15 18 1
15 21 1
15 23 1
15 29 1
15 40 1
15 43 1
15 49 1
15 55 1
15 61 1
15 63 1
15 64 1
15 70 1
15 71 1
15 76 1
15 79 1
15 81 1
15 84 1
15 86 1
15 87 1
15 99 1
15 105 1
15 108 1
15 113 1
15 121 1
15 131 1
15 137 1
15 152 1
15 157 1
15 184 1
15 188 1
15 189 1
15 194 1
15 195 1
16 5 1
16 10 1
16 12 1
16 15 1
16 32 1
16 33 1
16 47 1
16 48 1
16 49 1
16 57 1
16 61 1
16 72 1
16 73 1
16 74 1
16 75 1
16 80 1
16 85 1
16 94 1
16 98 1
16 105 1
16 112 1
16 119 1
16 123 1
16 126 1
16 127 1
16 128 1
16 133 1
16 136 1
16 142 1
16 147 1
16 158 1
16 160 1
16 171 1
16 172 1
16 175 1
16 177 1
16 178 1
16 192 1
16 194 1
17 1 1
17 5 1
17 9 1
17 14 1
17 19 1
17 39 1
17 40 1
17 42 1
17 44 1
17 46 1
17 52 1
17 55 1
17 58 1
17 61 1
17 66 1
17 68 1
17 70 1
17 71 1
17 73 1
17 80 1
17 87 1
17 88 1
17 90 1
17 94 1
17 95 1
17 97 1
17 101 1
17 107 1
17 111 1
17 116 1
17 119 1
17 122 1
17 128 1
17 132 1
17 137 1
17 141 1
17 162 1
17 165 1
17 178 1
17 179 1
17 180 1
17 186 1
17 194 1
18 2 1
18 3 1
18 4 1
18 7 1
18 13 1
18 15 1
18 20 1
18 25 1
18 35 1
18 36 1
18 72 1
18 92 1
18 96 1
18 97 1
18 102 1
18 103 1
18 105 1
18 110 1
18 124 1
18 125 1
18 130 1
18 132 1
18 135 1
18 144 1
18 161 1
18 164 1
18 166 1
18 167 1
18 178 1
18 182 1
18 183 1
18 193 1
18 197 1
18 199 1
18 200 1
19 6 1
19 17 1
19 22 1
19 24 1
19 25 1
19 44 1
19 49 1
19 54 1
19 55 1
19 57 1
19 58 1
19 65 1
19 69 1
19 71 1
19 77 1
19 83 1
19 95 1
19 96 1
19 115 1
19 126 1
19 128 1
19 129 1
19 131 1
19 137 1
19 140 1
19 142 1
19 145 1
19 148 1
19 153 1
19 155 1
19 162 1
19 173 1
19 189 1
20 3 1
20 4 1
20 6 1
20 9 1
20 18 1
20 27 1
20 28 1
20 36 1
20 45 1
20 46 1
20 50 1
20 52 1
20 63 1
20 83 1
20 94 1
20 104 1
20 110 1
20 111 1
20 116 1
20 127 1
20 132 1
20 134 1
20 136 1
20 143 1
20 145 1
20 148 1
20 155 1
20 162 1
20 169 1
20 178 1
20 188 1
20 190 1
20 197 1
20 198 1
21 15 1
21 26 1
21 32 1
21 34 1
21 35 1
21 47 1
21 57 1
21 63 1
21 67 1
21 77 1
21 79 1
21 80 1
21 81 1
21 83 1
21 87 1
21 90 1
21 92 1
21 104 1
21 106 1
21 109 1
21 124 1
21 125 1
21 129 1
21 132 1
21 133 1
21 141 1
21 143 1
21 146 1
21 152 1
21 154 1
21 155 1
21 159 1
21 165 1
21 172 1
21 175 1
21 181 1
21 190 1
21 191 1
22 5 1
22 7 1
22 10 1
22 19 1
22 28 1
22 29 1
22 39 1
22 41 1
22 45 1
22 62 1
22 64 1
22 68 1
22 72 1
22 73 1
22 76 1
22 88 1
22 89 1
22 90 1
22 92 1
22 101 1
22 102 1
22 103 1
22 105 1
22 110 1
22 111 1
22 113 1
22 121 1
22 131 1
22 132 1
22 137 1
22 154 1
22 158 1
22 173 1
22 174 1
22 178 1
22 192 1
22 193 1
23 10 1
23 11 1
23 15 1
23 26 1
23 30 1
23 34 1
23 38 1
23 39 1
23 40 1
23 43 1
23 46 1
23 47 1
23 56 1
23 69 1
23 73 1
23 85 1
23 94 1
23 95 1
23 99 1
23 102 1
23 147 1
23 152 1
23 168 1
23 172 1
23 179 1
23 193 1
23 198 1
24 1 1
24 4 1
24 10 1
24 19 1
24 31 1
24 34 1
24 35 1
24 43 1
24 44 1
24 50 1
24 51 1
24 61 1
24 64 1
24 75 1
24 81 1
24 84 1
24 93 1
24 94 1
24 96 1
24 99 1
24 109 1
24 110 1
24 117 1
24 127 1
24 135 1
24 137 1
24 139 1
24 147 1
24 148 1
24 149 1
24 150 1
24 157 1
24 159 1
24 160 1
24 166 1
24 168 1
24 172 1
24 178 1
24 183 1
24 184 1
24 188 1
24 193 1
24 197 1
25 3 1
25 6 1
25 7 1
25 9 1
25 10 1
25 13 1
25 18 1
25 19 1
25 32 1
25 33 1
25 34 1
25 41 1
25 47 1
25 49 1
25 61 1
25 63 1
25 65 1
25 66 1
25 73 1
25 76 1
25 77 1
25 90 1
25 91 1
25 93 1
25 95 1
25 102 1
25 108 1
25 111 1
25 113 1
25 115 1
25 125 1
25 132 1
25 137 1
25 140 1
25 143 1
25 144 1
25 147 1
25 150 1
25 153 1
25 154 1
25 156 1
25 158 1
25 159 1
25 162 1
25 168 1
25 169 1
25 170 1
25 172 1
25 174 1
25 177 1
25 180 1
25 182 1
25 183 1
25 185 1
25 189 1
25 190 1
26 6 1
26 9 1
26 10 1
26 21 1
26 23 1
26 33 1
26 35 1
26 40 1
26 47 1
26 50 1
26 60 1
26 66 1
26 70 1
26 77 1
26 80 1
26 83 1
26 98 1
26 126 1
26 127 1
26 143 1
26 145 1
26 151 1
26 155 1
26 156 1
26 163 1
26 168 1
26 173 1
26 190 1
26 191 1
26 196 1
27 3 1
27 4 1
27 8 1
27 20 1
27 36 1
27 41 1
27 45 1
27 48 1
27 50 1
27 52 1
27 66 1
27 70 1
27 73 1
27 80 1
27 81 1
27 88 1
27 89 1
27 90 1
27 91 1
27 93 1
27 95 1
27 97 1
27 103 1
27 106 1
27 112 1
27 113 1
27 115 1
27 124 1
27 130 1
27 140 1
27 142 1
27 146 1
27 148 1
27 152 1
27 155 1
27 157 1
27 159 1
27 161 1
27 163 1
27 176 1
27 177 1
27 187 1
27 189 1
27 193 1
27 196 1
28 8 1
28 11 1
28 20 1
28 22 1
28 30 1
28 47 1
28 52 1
28 63 1
28 64 1
28 65 1
28 69 1
28 71 1
28 78 1
28 79 1
28 81 1
28 98 1
28 102 1
28 103 1
28 104 1
28 105 1
28 109 1
28 113 1
28 119 1
28 122 1
28 126 1
28 127 1
28 132 1
28 135 1
28 138 1
28 139 1
28 144 1
28 145 1
28 153 1
28 155 1
28 159 1
28 163 1
28 174 1
28 175 1
28 182 1
28 185 1
28 189 1
28 193 1
28 196 1
28 199 1
29 5 1
29 7 1
29 12 1
29 14 1
29 15 1
29 22 1
29 30 1
29 43 1
29 48 1
29 50 1
29 54 1
29 55 1
29 61 1
29 66 1
29 67 1
29 73 1
29 75 1
29 77 1
29 83 1
29 89 1
29 92 1
29 93 1
29 100 1
29 103 1
29 105 1
29 114 1
29 115 1
29 119 1
29 121 1
29 134 1
29 135 1
29 138 1
29 149 1
29 150 1
29 156 1
29 157 1
29 158 1
29 162 1
29 166 1
29 169 1
29 174 1
29 176 1
29 186 1
29 189 1
29 191 1
29 192 1
29 197 1
29 200 1
30 3 1
30 4 1
30 13 1
30 23 1
30 28 1
30 29 1
30 32 1
30 33 1
30 41 1
30 48 1
30 59 1
30 63 1
30 64 1
30 66 1
30 67 1
30 70 1
30 74 1
30 75 1
30 83 1
30 90 1
30 97 1
30 110 1
30 113 1
30 116 1
30 126 1
30 133 1
30 143 1
30 146 1
30 147 1
30 148 1
30 149 1
30 150 1
30 152 1
30 157 1
30 159 1
30 161 1
30 168 1
30 171 1
30 176 1
30 177 1
30 182 1
30 183 1
30 189 1
30 190 1
30 194 1
30 200 1
31 14 1
31 24 1
31 42 1
31 46 1
31 48 1
31 53 1
31 57 1
31 59 1
31 60 1
31 70 1
31 72 1
31 78 1
31 80 1
31 84 1
31 88 1
31 91 1
31 95 1
31 96 1
31 97 1
31 100 1
31 101 1
31 104 1
31 105 1
31 107 1
31 112 1
31 113 1
31 114 1
31 116 1
31 125 1
31 131 1
31 137 1
31 150 1
31 154 1
31 160 1
31 163 1
31 166 1
31 170 1
31 171 1
31 180 1
31 193 1
31 194 1
32 4 1
32 11 1
32 16 1
32 21 1
32 25 1
32 30 1
32 41 1
32 44 1
32 45 1
32 48 1
32 51 1
32 64 1
32 67 1
32 72 1
32 74 1
32 80 1
32 81 1
32 84 1
32 87 1
32 88 1
32 94 1
32 95 1
32 96 1
32 101 1
32 102 1
32 114 1
32 116 1
32 121 1
32 125 1
32 126 1
32 128 1
32 129 1
32 136 1
32 138 1
32 142 1
32 146 1
32 148 1
32 152 1
32 164 1
32 169 1
32 176 1
32 180 1
32 191 1
32 193 1
32 194 1
33 7 1
33 8 1
33 13 1
33 16 1
33 25 1
33 26 1
33 30 1
33 44 1
33 51 1
33 52 1
33 54 1
33 57 1
33 59 1
33 61 1
33 63 1
33 67 1
33 80 1
33 87 1
33 88 1
33 93 1
33 98 1
33 102 1
33 108 1
33 112 1
33 113 1
33 122 1
33 124 1
33 125 1
33 130 1
33 132 1
33 141 1
33 145 1
33 150 1
33 155 1
33 158 1
33 159 1
33 165 1
33 168 1
33 171 1
33 179 1
33 183 1
33 187 1
33 196 1
33 199 1
34 5 1
34 10 1
34 21 1
34 23 1
34 24 1
34 25 1
34 42 1
34 50 1
34 55 1
34 57 1
34 63 1
34 76 1
34 79 1
34 80 1
34 86 1
34 102 1
34 103 1
34 109 1
34 113 1
34 117 1
34 123 1
34 134 1
34 138 1
34 139 1
34 141 1
34 142 1
34 143 1
34 145 1
34 147 1
34 152 1
34 161 1
34 164 1
34 169 1
34 171 1
34 175 1
34 180 1
34 184 1
34 186 1
34 187 1
34 196 1
35 5 1
35 6 1
35 18 1
35 21 1
35 24 1
35 26 1
35 37 1
35 40 1
35 46 1
35 47 1
35 48 1
35 55 1
35 59 1
35 60 1
35 74 1
35 76 1
35 84 1
35 88 1
35 94 1
35 96 1
35 104 1
35 107 1
35 115 1
35 118 1
35 124 1
35 126 1
35 131 1
35 132 1
35 134 1
35 136 1
35 137 1
35 143 1
35 149 1
35 159 1
35 170 1
35 173 1
35 174 1
35 176 1
35 178 1
35 185 1
35 193 1
35 196 1
35 199 1
36 1 1
36 2 1
36 6 1
36 18 1
36 20 1
36 27 1
36 37 1
36 44 1
36 57 1
36 58 1
36 59 1
36 63 1
36 64 1
36 68 1
36 74 1
36 77 1
36 78 1
36 82 1
36 86 1
36 87 1
36 97 1
36 101 1
36 119 1
36 130 1
36 134 1
36 144 1
36 152 1
36 155 1
36 168 1
36 173 1
36 174 1
36 181 1
36 190 1
36 191 1
36 193 1
36 197 1
37 35 1
37 36 1
37 40 1
37 42 1
37 50 1
37 54 1
37 55 1
37 61 1
37 63 1
37 64 1
37 65 1
37 66 1
37 74 1
37 76 1
37 77 1
37 108 1
37 111 1
37 118 1
37 122 1
37 125 1
37 131 1
37 143 1
37 145 1
37 146 1
37 154 1
37 156 1
37 159 1
37 176 1
37 180 1
37 184 1
37 185 1
37 195 1
37 198 1
37 200 1
38 3 1
38 13 1
38 23 1
38 43 1
38 44 1
38 49 1
38 50 1
38 56 1
38 57 1
38 61 1
38 63 1
38 65 1
38 67 1
38 68 1
38 69 1
38 73 1
38 78 1
38 80 1
38 81 1
38 88 1
38 96 1
38 100 1
38 101 1
38 105 1
38 109 1
38 111 1
38 113 1
38 115 1
38 116 1
38 135 1
38 153 1
38 154 1
38 158 1
38 160 1
38 162 1
38 165 1
38 166 1
38 167 1
38 168 1
38 171 1
38 187 1
38 188 1
38 200 1
39 2 1
39 7 1
39 17 1
39 22 1
39 23 1
39 40 1
39 44 1
39 50 1
39 51 1
39 60 1
39 66 1
39 67 1
39 76 1
39 81 1
39 82 1
39 84 1
39 85 1
39 87 1
39 96 1
39 105 1
39 106 1
39 109 1
39 112 1
39 116 1
39 118 1
39 121 1
39 128 1
39 144 1
39 149 1
39 150 1
39 153 1
39 154 1
39 156 1
39 157 1
39 158 1
39 180 1
39 183 1
39 185 1
39 190 1
39 192 1
39 198 1
40 1 1
40 8 1
40 15 1
40 17 1
40 23 1
40 26 1
40 35 1
40 37 1
40 39 1
40 44 1
40 46 1
40 50 1
40 55 1
40 59 1
40 62 1
40 69 1
40 72 1
40 85 1
40 91 1
40 93 1
40 95 1
40 102 1
40 111 1
40 112 1
40 113 1
40 120 1
40 122 1
40 129 1
40 130 1
40 131 1
40 133 1
40 144 1
40 151 1
40 152 1
40 157 1
40 164 1
40 170 1
40 171 1
40 172 1
40 173 1
40 175 1
40 176 1
40 177 1
40 179 1
40 186 1
40 190 1
40 191 1
41 3 1
41 4 1
41 7 1
41 9 1
41 11 1
41 12 1
41 14 1
41 22 1
41 25 1
41 27 1
41 30 1
41 32 1
41 45 1
41 48 1
41 54 1
41 56 1
41 60 1
41 64 1
41 69 1
41 76 1
41 78 1
41 79 1
41 81 1
41 84 1
41 86 1
41 91 1
41 92 1
41 95 1
41 104 1
41 105 1
41 106 1
41 108 1
41 109 1
41 112 1
41 115 1
41 121 1
41 122 1
41 137 1
41 139 1
41 140 1
41 141 1
41 142 1
41 151 1
41 162 1
41 169 1
41 179 1
41 183 1
41 185 1
41 188 1
41 198 1
41 199 1
42 1 1
42 8 1
42 12 1
42 14 1
42 17 1
42 31 1
42 34 1
42 37 1
42 47 1
42 51 1
42 56 1
42 57 1
42 60 1
42 63 1
42 66 1
42 75 1
42 84 1
42 87 1
42 89 1
42 91 1
42 92 1
42 95 1
42 96 1
42 97 1
42 99 1
42 106 1
42 115 1
42 127 1
42 140 1
42 146 1
42 154 1
42 156 1
42 164 1
42 168 1
42 181 1
42 186 1
42 195 1
42 196 1
42 197 1
42 200 1
43 1 1
43 3 1
43 9 1
43 15 1
43 23 1
43 24 1
43 29 1
43 38 1
43 45 1
43 54 1
43 55 1
43 56 1
43 62 1
43 63 1
43 81 1
43 86 1
43 95 1
43 98 1
43 109 1
43 111 1
43 112 1
43 114 1
43 115 1
43 117 1
43 126 1
43 127 1
43 138 1
43 141 1
43 143 1
43 150 1
43 151 1
43 153 1
43 155 1
43 157 1
43 159 1
43 163 1
43 167 1
43 168 1
43 169 1
43 171 1
43 181 1
43 196 1
43 197 1
44 2 1
44 3 1
44 17 1
44 19 1
44 24 1
44 32 1
44 33 1
44 36 1
44 38 1
44 39 1
44 40 1
44 45 1
44 62 1
44 66 1
44 70 1
44 73 1
44 80 1
44 82 1
44 86 1
44 89 1
44 97 1
44 98 1
44 113 1
44 117 1
44 120 1
44 121 1
44 126 1
44 130 1
44 132 1
44 137 1
44 152 1
44 153 1
44 158 1
44 159 1
44 166 1
44 169 1
44 170 1
44 183 1
44 184 1
44 190 1
44 199 1
45 5 1
45 10 1
45 13 1
45 20 1
45 22 1
45 27 1
45 32 1
45 41 1
45 43 1
45 44 1
45 71 1
45 73 1
45 81 1
45 83 1
45 84 1
45 86 1
45 93 1
45 94 1
45 102 1
45 107 1
45 112 1
45 113 1
45 119 1
45 120 1
45 128 1
45 129 1
45 131 1
45 136 1
45 137 1
45 138 1
45 140 1
45 142 1
45 143 1
45 144 1
45 148 1
45 159 1
45 160 1
45 172 1
45 178 1
45 192 1
45 194 1
45 196 1
45 199 1
45 200 1
46 1 1
46 17 1
46 20 1
46 23 1
46 31 1
46 35 1
46 40 1
46 52 1
46 57 1
46 70 1
46 74 1
46 76 1
46 80 1
46 81 1
46 93 1
46 94 1
46 97 1
46 102 1
46 112 1
46 113 1
46 131 1
46 138 1
46 139 1
46 140 1
46 150 1
46 153 1
46 157 1
46 163 1
46 165 1
46 170 1
46 171 1
46 176 1
46 180 1
46 192 1
46 193 1
47 16 1
47 21 1
47 23 1
47 25 1
47 26 1
47 28 1
47 35 1
47 42 1
47 55 1
47 58 1
47 79 1
47 82 1
47 83 1
47 84 1
47 85 1
47 95 1
47 105 1
47 117 1
47 120 1
47 122 1
47 133 1
47 134 1
47 137 1
47 141 1
47 148 1
47 155 1
47 158 1
47 159 1
47 171 1
47 176 1
47 182 1
47 184 1
47 186 1
47 189 1
47 191 1
47 197 1
47 199 1
48 1 1
48 10 1
48 11 1
48 16 1
48 27 1
48 29 1
48 30 1
48 31 1
48 32 1
48 35 1
48 41 1
48 49 1
48 67 1
48 72 1
48 78 1
48 85 1
48 91 1
48 103 1
48 104 1
48 108 1
48 119 1
48 121 1
48 123 1
48 126 1
48 127 1
48 128 1
48 132 1
48 137 1
48 144 1
48 146 1
48 148 1
48 160 1
48 166 1
48 167 1
48 171 1
48 185 1
48 186 1
48 190 1
48 199 1
49 5 1
49 8 1
49 10 1
49 15 1
49 16 1
49 19 1
49 25 1
49 38 1
49 48 1
49 52 1
49 54 1
49 56 1
49 59 1
49 60 1
49 63 1
49 64 1
49 65 1
49 77 1
49 86 1
49 92 1
49 97 1
49 108 1
49 114 1
49 120 1
49 126 1
49 129 1
49 133 1
49 135 1
49 137 1
49 138 1
49 141 1
49 144 1
49 152 1
49 153 1
49 157 1
49 159 1
49 162 1
49 172 1
49 178 1
49 179 1
49 180 1
49 182 1
49 184 1
49 185 1
49 186 1
49 193 1
49 195 1
49 199 1
49 200 1
50 1 1
50 3 1
50 7 1
50 10 1
50 20 1
50 24 1
50 26 1
50 27 1
50 29 1
50 34 1
50 37 1
50 38 1
50 39 1
50 40 1
50 56 1
50 59 1
50 67 1
50 73 1
50 74 1
50 88 1
50 94 1
50 106 1
50 112 1
50 115 1
50 125 1
50 128 1
50 134 1
50 135 1
50 139 1
50 149 1
50 151 1
50 154 1
50 161 1
50 169 1
50 170 1
50 174 1
50 179 1
50 188 1
50 194 1
51 2 1
51 13 1
51 24 1
51 32 1
51 33 1
51 39 1
51 42 1
51 54 1
51 63 1
51 64 1
51 65 1
51 66 1
51 74 1
51 76 1
51 79 1
51 81 1
51 83 1
51 85 1
51 101 1
51 103 1
51 109 1
51 113 1
51 118 1
51 120 1
51 132 1
51 138 1
51 139 1
51 152 1
51 153 1
51 157 1
51 158 1
51 164 1
51 166 1
51 173 1
51 175 1
51 176 1
51 189 1
51 192 1
52 1 1
52 3 1
52 9 1
52 12 1
52 17 1
52 20 1
52 27 1
52 28 1
52 33 1
52 46 1
52 49 1
52 54 1
52 67 1
52 71 1
52 79 1
52 84 1
52 88 1
52 96 1
52 99 1
52 100 1
52 107 1
52 109 1
52 123 1
52 127 1
52 153 1
52 156 1
52 157 1
52 161 1
52 173 1
52 174 1
52 175 1
52 180 1
52 182 1
52 184 1
52 185 1
52 187 1
52 199 1
53 5 1
53 13 1
53 31 1
53 60 1
53 67 1
53 68 1
53 70 1
53 74 1
53 78 1
53 83 1
53 87 1
53 90 1
53 95 1
53 111 1
53 116 1
53 122 1
53 128 1
53 129 1
53 130 1
53 133 1
53 134 1
53 139 1
53 143 1
53 153 1
53 154 1
53 160 1
53 173 1
53 174 1
53 175 1
53 178 1
53 179 1
53 183 1
53 186 1
53 189 1
53 194 1
54 7 1
54 19 1
54 29 1
54 33 1
54 37 1
54 41 1
54 43 1
54 49 1
54 51 1
54 52 1
54 65 1
54 66 1
54 75 1
54 80 1
54 83 1
54 85 1
54 106 1
54 108 1
54 114 1
54 118 1
54 119 1
54 124 1
54 130 1
54 139 1
54 140 1
54 146 1
54 147 1
54 149 1
54 150 1
54 157 1
54 159 1
54 161 1
54 164 1
54 166 1
54 167 1
54 173 1
54 177 1
54 179 1
54 182 1
54 183 1
54 185 1
54 197 1
55 11 1
55 15 1
55 17 1
55 19 1
55 29 1
55 34 1
55 35 1
55 37 1
55 40 1
55 43 1
55 47 1
55 73 1
55 77 1
55 84 1
55 91 1
55 103 1
55 104 1
55 113 1
55 116 1
55 123 1
55 127 1
55 131 1
55 133 1
55 134 1
55 135 1
55 137 1
55 140 1
55 159 1
55 164 1
55 168 1
55 172 1
55 177 1
55 180 1
55 183 1
55 185 1
55 191 1
55 198 1
56 9 1
56 10 1
56 23 1
56 38 1
56 41 1
56 42 1
56 43 1
56 49 1
56 50 1
56 57 1
56 68 1
56 71 1
56 76 1
56 84 1
56 85 1
56 92 1
56 93 1
56 96 1
56 98 1
56 104 1
56 109 1
56 111 1
56 119 1
56 120 1
56 128 1
56 130 1
56 143 1
56 160 1
56 165 1
56 169 1
56 173 1
56 174 1
56 181 1
56 189 1
56 190 1
56 193 1
56 199 1
57 3 1
57 13 1
57 16 1
57 19 1
57 21 1
57 31 1
57 33 1
57 34 1
57 36 1
57 38 1
57 42 1
57 46 1
57 56 1
57 59 1
57 60 1
57 62 1
57 63 1
57 65 1
57 73 1
57 78 1
57 79 1
57 89 1
57 90 1
57 93 1
57 95 1
57 96 1
57 98 1
57 116 1
57 117 1
57 123 1
57 124 1
57 131 1
57 132 1
57 140 1
57 144 1
57 149 1
57 157 1
57 160 1
57 162 1
57 168 1
57 169 1
57 175 1
57 180 1
57 181 1
57 185 1
57 196 1
58 2 1
58 4 1
58 6 1
58 8 1
58 9 1
58 10 1
58 11 1
58 17 1
58 19 1
58 36 1
58 47 1
58 59 1
58 65 1
58 67 1
58 68 1
58 71 1
58 75 1
58 84 1
58 88 1
58 95 1
58 101 1
58 105 1
58 106 1
58 107 1
58 120 1
58 123 1
58 127 1
58 132 1
58 141 1
58 153 1
58 176 1
58 178 1
58 179 1
58 181 1
58 187 1
59 30 1
59 31 1
59 33 1
59 35 1
59 36 1
59 40 1
59 49 1
59 50 1
59 57 1
59 58 1
59 69 1
59 73 1
59 76 1
59 77 1
59 87 1
59 90 1
59 97 1
59 101 1
59 104 1
59 105 1
59 106 1
59 118 1
59 121 1
59 123 1
59 124 1
59 128 1
59 132 1
59 136 1
59 138 1
59 141 1
59 148 1
59 161 1
59 168 1
59 169 1
59 170 1
59 174 1
59 176 1
59 179 1
59 186 1
59 190 1
59 192 1
59 193 1
59 199 1
60 7 1
60 10 1
60 26 1
60 31 1
60 35 1
60 39 1
60 41 1
60 42 1
60 49 1
60 53 1
60 57 1
60 64 1
60 74 1
60 75 1
60 76 1
60 78 1
60 91 1
60 102 1
60 110 1
60 115 1
60 120 1
60 124 1
60 137 1
60 138 1
60 144 1
60 148 1
60 150 1
60 163 1
60 166 1
60 168 1
60 169 1
60 170 1
60 173 1
60 177 1
60 183 1
60 185 1
60 186 1
60 188 1
60 191 1
60 195 1
61 1 1
61 10 1
61 11 1
61 14 1
61 15 1
61 16 1
61 17 1
61 24 1
61 25 1
61 29 1
61 33 1
61 37 1
61 38 1
61 72 1
61 73 1
61 74 1
61 80 1
61 85 1
61 94 1
61 99 1
61 103 1
61 104 1
61 118 1
61 121 1
61 129 1
61 130 1
61 135 1
61 140 1
61 147 1
61 151 1
61 157 1
61 165 1
61 173 1
61 175 1
61 178 1
61 183 1
61 184 1
61 185 1
61 187 1
61 190 1
61 191 1
61 199 1
62 8 1
62 13 1
62 22 1
62 40 1
62 43 1
62 44 1
62 57 1
62 67 1
62 74 1
62 81 1
62 87 1
62 91 1
62 93 1
62 101 1
62 106 1
62 114 1
62 118 1
62 122 1
62 128 1
62 137 1
62 139 1
62 143 1
62 147 1
62 149 1
62 154 1
62 155 1
62 156 1
62 164 1
62 170 1
62 173 1
62 178 1
63 1 1
63 4 1
63 6 1
63 7 1
63 8 1
63 15 1
63 20 1
63 21 1
63 25 1
63 28 1
63 30 1
63 33 1
63 34 1
63 36 1
63 37 1
63 38 1
63 42 1
63 43 1
63 49 1
63 51 1
63 57 1
63 75 1
63 77 1
63 86 1
63 87 1
63 93 1
63 94 1
63 96 1
63 97 1
63 99 1
63 104 1
63 105 1
63 107 1
63 112 1
63 115 1
63 116 1
63 120 1
63 126 1
63 127 1
63 135 1
63 137 1
63 139 1
63 140 1
63 145 1
63 148 1
63 150 1
63 159 1
63 165 1
63 178 1
63 179 1
63 182 1
63 183 1
63 186 1
64 2 1
64 5 1
64 13 1
64 15 1
64 22 1
64 24 1
64 28 1
64 30 1
64 32 1
64 36 1
64 37 1
64 41 1
64 49 1
64 51 1
64 60 1
64 66 1
64 68 1
64 74 1
64 81 1
64 82 1
64 99 1
64 102 1
64 103 1
64 104 1
64 107 1
64 108 1
64 111 1
64 115 1
64 122 1
64 129 1
64 149 1
64 157 1
64 168 1
64 170 1
64 173 1
64 178 1
64 179 1
64 181 1
64 184 1
64 186 1
65 3 1
65 7 1
65 9 1
65 19 1
65 25 1
65 28 1
65 37 1
65 38 1
65 49 1
65 51 1
65 54 1
65 57 1
65 58 1
65 66 1
65 73 1
65 74 1
65 75 1
65 79 1
65 80 1
65 81 1
65 86 1
65 89 1
65 98 1
65 101 1
65 104 1
65 109 1
65 115 1
65 124 1
65 125 1
65 126 1
65 127 1
65 133 1
65 140 1
65 144 1
65 149 1
65 165 1
65 166 1
65 191 1
65 195 1
65 198 1
66 17 1
66 25 1
66 26 1
66 27 1
66 29 1
66 30 1
66 37 1
66 39 1
66 42 1
66 44 1
66 51 1
66 54 1
66 64 1
66 65 1
66 69 1
66 71 1
66 80 1
66 85 1
66 94 1
66 96 1
66 100 1
66 103 1
66 104 1
66 105 1
66 106 1
66 107 1
66 108 1
66 116 1
66 118 1
66 130 1
66 137 1
66 141 1
66 142 1
66 157 1
66 161 1
66 169 1
66 170 1
66 174 1
66 176 1
66 180 1
66 182 1
66 187 1
66 194 1
66 200 1
67 11 1
67 21 1
67 29 1
67 30 1
67 32 1
67 33 1
67 38 1
67 39 1
67 48 1
67 50 1
67 52 1
67 53 1
67 58 1
67 62 1
67 69 1
67 71 1
67 72 1
67 76 1
67 87 1
67 97 1
67 107 1
67 120 1
67 127 1
67 128 1
67 133 1
67 137 1
67 139 1
67 140 1
67 141 1
67 146 1
67 148 1
67 150 1
67 167 1
67 171 1
67 192 1
67 198 1
67 199 1
68 1 1
68 7 1
68 9 1
68 17 1
68 22 1
68 36 1
68 38 1
68 53 1
68 56 1
68 58 1
68 64 1
68 73 1
68 74 1
68 78 1
68 82 1
68 84 1
68 93 1
68 96 1
68 101 1
68 104 1
68 108 1
68 109 1
68 113 1
68 131 1
68 135 1
68 136 1
68 159 1
68 162 1
68 165 1
68 171 1
68 179 1
68 184 1
68 186 1
68 187 1
68 191 1
69 10 1
69 14 1
69 19 1
69 23 1
69 28 1
69 38 1
69 40 1
69 41 1
69 59 1
69 66 1
69 67 1
69 75 1
69 76 1
69 77 1
69 80 1
69 92 1
69 93 1
69 99 1
69 100 1
69 101 1
69 104 1
69 105 1
69 116 1
69 119 1
69 121 1
69 131 1
69 132 1
69 149 1
69 153 1
69 155 1
69 168 1
69 169 1
69 176 1
69 186 1
69 193 1
69 197 1
70 8 1
70 13 1
70 15 1
70 17 1
70 26 1
70 27 1
70 30 1
70 31 1
70 44 1
70 46 1
70 53 1
70 72 1
70 79 1
70 81 1
70 97 1
70 98 1
70 101 1
70 114 1
70 121 1
70 132 1
70 133 1
70 136 1
70 152 1
70 154 1
70 158 1
70 162 1
70 163 1
70 175 1
70 179 1
70 184 1
70 199 1
70 200 1
71 3 1
71 9 1
71 12 1
71 15 1
71 17 1
71 19 1
71 28 1
71 45 1
71 52 1
71 56 1
71 58 1
71 66 1
71 67 1
71 80 1
71 83 1
71 91 1
71 96 1
71 109 1
71 112 1
71 120 1
71 122 1
71 127 1
71 128 1
71 135 1
71 141 1
71 148 1
71 158 1
71 161 1
71 166 1
71 171 1
71 185 1
71 188 1
71 191 1
71 192 1
71 194 1
71 197 1
71 198 1
72 16 1
72 18 1
72 22 1
72 31 1
72 32 1
72 40 1
72 48 1
72 61 1
72 67 1
72 70 1
72 85 1
72 97 1
72 100 1
72 102 1
72 118 1
72 129 1
72 131 1
72 132 1
72 133 1
72 136 1
72 149 1
72 150 1
72 172 1
72 176 1
72 180 1
72 186 1
72 192 1
72 194 1
72 198 1
72 199 1
72 200 1
73 4 1
73 7 1
73 8 1
73 10 1
73 16 1
73 17 1
73 22 1
73 23 1
73 25 1
73 27 1
73 29 1
73 38 1
73 44 1
73 45 1
73 50 1
73 55 1
73 57 1
73 59 1
73 61 1
73 65 1
73 68 1
73 82 1
73 87 1
73 101 1
73 102 1
73 106 1
73 115 1
73 120 1
73 125 1
73 137 1
73 150 1
73 153 1
73 155 1
73 159 1
73 160 1
73 162 1
73 163 1
73 175 1
73 179 1
73 184 1
73 189 1
73 190 1
73 195 1
74 1 1
74 2 1
74 4 1
74 7 1
74 16 1
74 30 1
74 32 1
74 35 1
74 36 1
74 37 1
74 46 1
74 50 1
74 51 1
74 53 1
74 60 1
74 61 1
74 62 1
74 64 1
74 65 1
74 68 1
74 75 1
74 76 1
74 77 1
74 82 1
74 83 1
74 88 1
74 91 1
74 95 1
74 99 1
74 102 1
74 105 1
74 109 1
74 117 1
74 118 1
74 120 1
74 121 1
74 130 1
74 131 1
74 136 1
74 141 1
74 147 1
74 160 1
74 162 1
74 163 1
74 169 1
74 170 1
74 172 1
74 174 1
74 182 1
74 184 1
74 185 1
74 189 1
74 191 1
74 192 1
74 196 1
74 197 1
74 199 1
75 3 1
75 4 1
75 12 1
75 16 1
75 24 1
75 29 1
75 30 1
75 42 1
75 54 1
75 58 1
75 60 1
75 63 1
75 65 1
75 69 1
75 74 1
75 79 1
75 81 1
75 85 1
75 86 1
75 87 1
75 88 1
75 93 1
75 94 1
75 95 1
75 103 1
75 104 1
75 108 1
75 110 1
75 111 1
75 123 1
75 129 1
75 134 1
75 135 1
75 142 1
75 149 1
75 152 1
75 154 1
75 161 1
75 168 1
75 172 1
75 179 1
75 194 1
76 3 1
76 5 1
76 14 1
76 15 1
76 22 1
76 25 1
76 34 1
76 35 1
76 37 1
76 39 1
76 41 1
76 46 1
76 51 1
76 56 1
76 59 1
76 60 1
76 67 1
76 69 1
76 74 1
76 82 1
76 83 1
76 86 1
76 88 1
76 91 1
76 94 1
76 102 1
76 103 1
76 110 1
76 117 1
76 124 1
76 125 1
76 128 1
76 129 1
76 135 1
76 137 1
76 140 1
76 141 1
76 145 1
76 147 1
76 150 1
76 151 1
76 159 1
76 161 1
76 165 1
76 169 1
76 183 1
76 185 1
76 186 1
76 187 1
76 188 1
76 198 1
76 199 1
77 6 1
77 8 1
77 9 1
77 12 1
77 19 1
77 21 1
77 25 1
77 26 1
77 29 1
77 36 1
77 37 1
77 49 1
77 55 1
77 59 1
77 63 1
77 69 1
77 74 1
77 84 1
77 88 1
77 91 1
77 93 1
77 96 1
77 101 1
77 102 1
77 103 1
77 113 1
77 120 1
77 131 1
77 132 1
77 134 1
77 142 1
77 149 1
77 159 1
77 167 1
77 170 1
77 176 1
77 180 1
77 190 1
77 199 1
78 1 1
78 6 1
78 11 1
78 12 1
78 13 1
78 28 1
78 31 1
78 36 1
78 38 1
78 41 1
78 48 1
78 53 1
78 57 1
78 60 1
78 68 1
78 79 1
78 88 1
78 92 1
78 120 1
78 128 1
78 132 1
78 133 1
78 135 1
78 148 1
78 149 1
78 152 1
78 164 1
78 165 1
78 169 1
78 170 1
78 178 1
78 184 1
78 189 1
78 197 1
78 198 1
79 2 1
79 4 1
79 9 1
79 15 1
79 21 1
79 28 1
79 34 1
79 41 1
79 47 1
79 51 1
79 52 1
79 57 1
79 65 1
79 70 1
79 75 1
79 78 1
79 81 1
79 82 1
79 89 1
79 93 1
79 94 1
79 101 1
79 107 1
79 110 1
79 111 1
79 122 1
79 133 1
79 139 1
79 141 1
79 144 1
79 165 1
79 177 1
79 178 1
79 183 1
79 193 1
79 195 1
80 2 1
80 16 1
80 17 1
80 21 1
80 26 1
80 27 1
80 31 1
80 32 1
80 33 1
80 34 1
80 38 1
80 44 1
80 46 1
80 54 1
80 61 1
80 65 1
80 66 1
80 69 1
80 71 1
80 83 1
80 85 1
80 86 1
80 90 1
80 94 1
80 96 1
80 99 1
80 100 1
80 103 1
80 109 1
80 118 1
80 121 1
80 122 1
80 130 1
80 133 1
80 137 1
80 140 1
80 141 1
80 155 1
80 156 1
80 162 1
80 164 1
80 170 1
80 171 1
80 183 1
80 184 1
80 194 1
80 198 1
81 2 1
81 10 1
81 15 1
81 21 1
81 24 1
81 27 1
81 28 1
81 32 1
81 38 1
81 39 1
81 41 1
81 43 1
81 45 1
81 46 1
81 51 1
81 62 1
81 64 1
81 65 1
81 70 1
81 75 1
81 79 1
81 88 1
81 89 1
81 97 1
81 112 1
81 113 1
81 114 1
81 122 1
81 123 1
81 128 1
81 134 1
81 138 1
81 140 1
81 146 1
81 151 1
81 156 1
81 157 1
81 165 1
81 170 1
81 186 1
81 200 1
82 6 1
82 36 1
82 39 1
82 44 1
82 47 1
82 64 1
82 68 1
82 73 1
82 74 1
82 76 1
82 79 1
82 86 1
82 89 1
82 92 1
82 101 1
82 102 1
82 116 1
82 123 1
82 128 1
82 131 1
82 132 1
82 137 1
82 147 1
82 148 1
82 154 1
82 155 1
82 162 1
82 174 1
82 177 1
82 179 1
82 181 1
82 192 1
82 198 1
83 3 1
83 19 1
83 20 1
83 21 1
83 26 1
83 29 1
83 30 1
83 45 1
83 47 1
83 51 1
83 53 1
83 54 1
83 71 1
83 74 1
83 76 1
83 80 1
83 84 1
83 85 1
83 87 1
83 91 1
83 104 1
83 106 1
83 117 1
83 118 1
83 121 1
83 132 1
83 139 1
83 143 1
83 144 1
83 145 1
83 160 1
83 166 1
83 171 1
83 173 1
84 10 1
84 12 1
84 15 1
84 24 1
84 31 1
84 32 1
84 35 1
84 39 1
84 41 1
84 42 1
84 45 1
84 47 1
84 52 1
84 55 1
84 56 1
84 58 1
84 68 1
84 77 1
84 83 1
84 86 1
84 90 1
84 92 1
84 98 1
84 100 1
84 103 1
84 111 1
84 112 1
84 113 1
84 115 1
84 122 1
84 123 1
84 127 1
84 132 1
84 135 1
84 141 1
84 145 1
84 146 1
84 163 1
84 178 1
84 179 1
84 188 1
84 190 1
84 191 1
84 193 1
84 194 1
85 2 1
85 7 1
85 10 1
85 16 1
85 23 1
85 39 1
85 40 1
85 47 1
85 48 1
85 51 1
85 54 1
85 56 1
85 61 1
85 66 1
85 72 1
85 75 1
85 80 1
85 83 1
85 89 1
85 91 1
85 97 1
85 98 1
85 99 1
85 104 1
85 108 1
85 112 1
85 113 1
85 116 1
85 119 1
85 123 1
85 126 1
85 130 1
85 137 1
85 138 1
85 139 1
85 140 1
85 147 1
85 148 1
85 155 1
85 160 1
85 166 1
85 168 1
85 170 1
85 176 1
85 180 1
85 181 1
85 186 1
86 2 1
86 15 1
86 34 1
86 36 1
86 41 1
86 43 1
86 44 1
86 45 1
86 49 1
86 63 1
86 65 1
86 75 1
86 76 1
86 80 1
86 82 1
86 84 1
86 103 1
86 105 1
86 107 1
86 108 1
86 114 1
86 116 1
86 117 1
86 126 1
86 160 1
86 168 1
86 175 1
86 178 1
86 183 1
86 193 1
86 195 1
86 196 1
86 200 1
87 7 1
87 8 1
87 9 1
87 12 1
87 15 1
87 17 1
87 21 1
87 32 1
87 33 1
87 36 1
87 39 1
87 42 1
87 53 1
87 59 1
87 62 1
87 63 1
87 67 1
87 73 1
87 75 1
87 83 1
87 96 1
87 100 1
87 103 1
87 104 1
87 105 1
87 130 1
87 132 1
87 142 1
87 144 1
87 148 1
87 154 1
87 158 1
87 160 1
87 179 1
87 180 1
87 184 1
87 185 1
88 3 1
88 5 1
88 6 1
88 17 1
88 22 1
88 27 1
88 31 1
88 32 1
88 33 1
88 35 1
88 38 1
88 50 1
88 52 1
88 58 1
88 74 1
88 75 1
88 76 1
88 77 1
88 78 1
88 81 1
88 90 1
88 94 1
88 99 1
88 104 1
88 106 1
88 107 1
88 108 1
88 109 1
88 119 1
88 122 1
88 126 1
88 129 1
88 141 1
88 143 1
88 152 1
88 166 1
88 171 1
88 175 1
88 183 1
88 188 1
88 191 1
89 2 1
89 10 1
89 12 1
89 14 1
89 22 1
89 27 1
89 29 1
89 42 1
89 44 1
89 57 1
89 65 1
89 79 1
89 81 1
89 82 1
89 85 1
89 91 1
89 103 1
89 108 1
89 111 1
89 113 1
89 120 1
89 135 1
89 139 1
89 140 1
89 141 1
89 143 1
89 146 1
89 147 1
89 149 1
89 156 1
89 168 1
89 172 1
89 180 1
89 183 1
89 186 1
89 187 1
89 200 1
90 9 1
90 11 1
90 17 1
90 21 1
90 22 1
90 25 1
90 27 1
90 30 1
90 53 1
90 57 1
90 59 1
90 80 1
90 84 1
90 88 1
90 91 1
90 100 1
90 101 1
90 104 1
90 117 1
90 132 1
90 141 1
90 146 1
90 152 1
90 153 1
90 154 1
90 156 1
90 158 1
90 161 1
90 170 1
90 178 1
90 192 1
90 199 1
90 200 1
91 13 1
91 25 1
91 27 1
91 31 1
91 40 1
91 41 1
91 42 1
91 48 1
91 55 1
91 60 1
91 62 1
91 71 1
91 74 1
91 76 1
91 77 1
91 83 1
91 85 1
91 89 1
91 90 1
91 96 1
91 98 1
91 100 1
91 105 1
91 107 1
91 119 1
91 120 1
91 122 1
91 131 1
91 136 1
91 146 1
91 147 1
91 151 1
91 156 1
91 168 1
91 171 1
91 174 1
91 191 1
91 195 1
91 198 1
92 4 1
92 18 1
92 21 1
92 22 1
92 29 1
92 41 1
92 42 1
92 49 1
92 56 1
92 69 1
92 78 1
92 82 1
92 84 1
92 98 1
92 101 1
92 105 1
92 109 1
92 122 1
92 128 1
92 136 1
92 154 1
92 161 1
92 165 1
92 166 1
92 170 1
92 171 1
92 172 1
92 182 1
92 189 1
92 190 1
93 2 1
93 4 1
93 9 1
93 24 1
93 25 1
93 27 1
93 29 1
93 33 1
93 40 1
93 45 1
93 46 1
93 56 1
93 57 1
93 62 1
93 63 1
93 68 1
93 69 1
93 75 1
93 77 1
93 79 1
93 102 1
93 110 1
93 113 1
93 124 1
93 125 1
93 129 1
93 131 1
93 137 1
93 139 1
93 142 1
93 157 1
93 160 1
93 162 1
93 166 1
93 169 1
93 183 1
93 187 1
93 188 1
93 190 1
94 10 1
94 16 1
94 17 1
94 20 1
94 23 1
94 24 1
94 32 1
94 35 1
94 45 1
94 46 1
94 50 1
94 61 1
94 63 1
94 66 1
94 75 1
94 76 1
94 79 1
94 80 1
94 88 1
94 97 1
94 98 1
94 99 1
94 105 1
94 106 1
94 107 1
94 108 1
94 112 1
94 113 1
94 116 1
94 117 1
94 126 1
94 128 1
94 135 1
94 144 1
94 152 1
94 168 1
94 169 1
94 170 1
94 171 1
94 173 1
94 186 1
94 189 1
94 190 1
94 195 1
94 197 1
95 2 1
95 5 1
95 10 1
95 14 1
95 17 1
95 19 1
95 23 1
95 25 1
95 27 1
95 31 1
95 32 1
95 40 1
95 41 1
95 42 1
95 43 1
95 47 1
95 53 1
95 57 1
95 58 1
95 74 1
95 75 1
95 99 1
95 107 1
95 108 1
95 109 1
95 112 1
95 117 1
95 118 1
95 119 1
95 122 1
95 123 1
95 125 1
95 128 1
95 134 1
95 137 1
95 138 1
95 143 1
95 155 1
95 158 1
95 160 1
95 162 1
95 163 1
95 172 1
95 174 1
95 177 1
95 192 1
95 197 1
96 18 1
96 19 1
96 24 1
96 31 1
96 32 1
96 35 1
96 38 1
96 39 1
96 42 1
96 52 1
96 56 1
96 57 1
96 63 1
96 66 1
96 68 1
96 71 1
96 77 1
96 80 1
96 87 1
96 91 1
96 98 1
96 99 1
96 104 1
96 108 1
96 126 1
96 130 1
96 141 1
96 145 1
96 170 1
96 177 1
96 183 1
96 186 1
96 190 1
96 197 1
97 5 1
97 13 1
97 17 1
97 18 1
97 27 1
97 30 1
97 31 1
97 36 1
97 42 1
97 44 1
97 46 1
97 49 1
97 59 1
97 63 1
97 67 1
97 70 1
97 72 1
97 81 1
97 85 1
97 94 1
97 101 1
97 103 1
97 104 1
97 105 1
97 107 1
97 120 1
97 133 1
97 135 1
97 140 1
97 141 1
97 142 1
97 147 1
97 159 1
97 162 1
97 171 1
97 175 1
97 182 1
97 184 1
97 188 1
97 189 1
97 199 1
98 5 1
98 16 1
98 26 1
98 28 1
98 33 1
98 43 1
98 44 1
98 56 1
98 57 1
98 65 1
98 70 1
98 84 1
98 85 1
98 91 1
98 92 1
98 94 1
98 96 1
98 104 1
98 112 1
98 113 1
98 117 1
98 121 1
98 136 1
98 137 1
98 138 1
98 141 1
98 143 1
98 148 1
98 150 1
98 152 1
98 154 1
98 155 1
98 156 1
98 157 1
98 166 1
98 167 1
98 178 1
98 187 1
98 199 1
99 8 1
99 10 1
99 15 1
99 23 1
99 24 1
99 42 1
99 52 1
99 61 1
99 63 1
99 64 1
99 69 1
99 74 1
99 80 1
99 85 1
99 88 1
99 94 1
99 95 1
99 96 1
99 112 1
99 125 1
99 129 1
99 139 1
99 141 1
99 142 1
99 147 1
99 164 1
99 170 1
99 177 1
99 178 1
99 179 1
99 186 1
100 1 1
100 14 1
100 29 1
100 31 1
100 38 1
100 52 1
100 66 1
100 69 1
100 72 1
100 80 1
100 84 1
100 87 1
100 90 1
100 91 1
100 101 1
100 105 1
100 109 1
100 112 1
100 116 1
100 118 1
100 124 1
100 126 1
100 131 1
100 138 1
100 139 1
100 140 1
100 143 1
100 151 1
100 156 1
100 159 1
100 164 1
100 166 1
100 188 1
100 191 1
101 4 1
101 10 1
101 11 1
101 17 1
101 22 1
101 31 1
101 32 1
101 36 1
101 38 1
101 51 1
101 58 1
101 59 1
101 62 1
101 65 1
101 68 1
101 69 1
101 70 1
101 73 1
101 77 1
101 79 1
101 82 1
101 90 1
101 92 1
101 97 1
101 100 1
101 115 1
101 117 1
101 124 1
101 135 1
101 136 1
101 137 1
101 143 1
101 151 1
101 160 1
101 162 1
101 165 1
101 166 1
101 167 1
101 170 1
101 175 1
101 176 1
101 179 1
101 181 1
101 183 1
101 188 1
101 192 1
101 195 1
101 200 1
102 18 1
102 22 1
102 23 1
102 25 1
102 28 1
102 32 1
102 33 1
102 34 1
102 40 1
102 45 1
102 46 1
102 60 1
102 64 1
102 72 1
102 73 1
102 74 1
102 76 1
102 77 1
102 82 1
102 93 1
102 118 1
102 120 1
102 125 1
102 128 1
102 140 1
102 144 1
102 146 1
102 149 1
102 153 1
102 167 1
102 168 1
102 170 1
102 178 1
102 189 1
102 191 1
102 198 1
103 2 1
103 3 1
103 4 1
103 5 1
103 8 1
103 9 1
103 13 1
103 18 1
103 22 1
103 27 1
103 28 1
103 29 1
103 34 1
103 48 1
103 51 1
103 55 1
103 61 1
103 64 1
103 66 1
103 75 1
103 76 1
103 77 1
103 80 1
103 84 1
103 86 1
103 87 1
103 89 1
103 97 1
103 106 1
103 112 1
103 114 1
103 117 1
103 118 1
103 124 1
103 127 1
103 128 1
103 130 1
103 131 1
103 135 1
103 137 1
103 147 1
103 148 1
103 152 1
103 163 1
103 178 1
103 181 1
103 186 1
103 191 1
104 12 1
104 20 1
104 21 1
104 28 1
104 31 1
104 35 1
104 41 1
104 48 1
104 55 1
104 56 1
104 59 1
104 61 1
104 63 1
104 64 1
104 65 1
104 66 1
104 68 1
104 69 1
104 75 1
104 83 1
104 85 1
104 87 1
104 88 1
104 90 1
104 96 1
104 97 1
104 98 1
104 106 1
104 114 1
104 117 1
104 122 1
104 124 1
104 129 1
104 135 1
104 149 1
104 157 1
104 161 1
104 163 1
104 168 1
104 170 1
104 184 1
104 189 1
104 190 1
104 192 1
105 12 1
105 14 1
105 15 1
105 16 1
105 18 1
105 22 1
105 28 1
105 29 1
105 31 1
105 38 1
105 39 1
105 41 1
105 47 1
105 58 1
105 59 1
105 63 1
105 66 1
105 69 1
105 74 1
105 86 1
105 87 1
105 91 1
105 92 1
105 94 1
105 97 1
105 100 1
105 114 1
105 115 1
105 126 1
105 131 1
105 148 1
105 149 1
105 153 1
105 159 1
105 160 1
105 162 1
105 164 1
105 166 1
105 167 1
105 171 1
105 173 1
105 188 1
105 189 1
105 190 1
105 196 1
105 198 1
106 1 1
106 2 1
106 5 1
106 14 1
106 21 1
106 27 1
106 39 1
106 41 1
106 42 1
106 50 1
106 54 1
106 58 1
106 59 1
106 62 1
106 66 1
106 73 1
106 83 1
106 88 1
106 94 1
106 103 1
106 104 1
106 122 1
106 136 1
106 137 1
106 141 1
106 142 1
106 144 1
106 150 1
106 161 1
106 166 1
106 169 1
106 171 1
106 184 1
106 189 1
106 190 1
106 200 1
107 13 1
107 14 1
107 17 1
107 31 1
107 35 1
107 45 1
107 52 1
107 58 1
107 63 1
107 64 1
107 66 1
107 67 1
107 79 1
107 86 1
107 88 1
107 91 1
107 94 1
107 95 1
107 97 1
107 114 1
107 116 1
107 120 1
107 122 1
107 123 1
107 128 1
107 135 1
107 136 1
107 139 1
107 141 1
107 143 1
107 144 1
107 145 1
107 146 1
107 164 1
107 169 1
107 174 1
107 176 1
107 182 1
107 188 1
107 196 1
107 197 1
108 13 1
108 14 1
108 15 1
108 25 1
108 33 1
108 37 1
108 41 1
108 48 1
108 49 1
108 54 1
108 64 1
108 66 1
108 68 1
108 75 1
108 85 1
108 86 1
108 88 1
108 89 1
108 94 1
108 95 1
108 96 1
108 109 1
108 112 1
108 137 1
108 140 1
108 142 1
108 143 1
108 148 1
108 149 1
108 155 1
108 159 1
108 163 1
108 171 1
108 174 1
108 181 1
108 185 1
108 188 1
108 196 1
108 197 1
109 3 1
109 21 1
109 24 1
109 28 1
109 34 1
109 38 1
109 39 1
109 41 1
109 43 1
109 51 1
109 52 1
109 56 1
109 65 1
109 68 1
109 71 1
109 74 1
109 80 1
109 88 1
109 92 1
109 95 1
109 100 1
109 108 1
109 112 1
109 115 1
109 119 1
109 124 1
109 133 1
109 141 1
109 147 1
109 154 1
109 158 1
109 159 1
109 160 1
109 161 1
109 168 1
109 170 1
109 174 1
109 175 1
109 185 1
109 192 1
109 195 1
110 4 1
110 6 1
110 7 1
110 10 1
110 11 1
110 13 1
110 18 1
110 20 1
110 22 1
110 24 1
110 30 1
110 60 1
110 75 1
110 76 1
110 79 1
110 93 1
110 116 1
110 119 1
110 124 1
110 128 1
110 132 1
110 135 1
110 137 1
110 140 1
110 147 1
110 157 1
110 164 1
110 167 1
110 170 1
110 183 1
110 191 1
110 192 1
110 195 1
110 196 1
110 197 1
110 199 1
110 200 1
111 14 1
111 17 1
111 20 1
111 22 1
111 25 1
111 37 1
111 38 1
111 40 1
111 43 1
111 53 1
111 56 1
111 64 1
111 75 1
111 79 1
111 84 1
111 89 1
111 113 1
111 116 1
111 117 1
111 125 1
111 139 1
111 143 1
111 146 1
111 164 1
111 166 1
111 168 1
111 188 1
111 191 1
111 194 1
111 195 1
111 196 1
111 197 1
111 199 1
112 1 1
112 10 1
112 11 1
112 13 1
112 16 1
112 27 1
112 31 1
112 33 1
112 39 1
112 40 1
112 41 1
112 43 1
112 45 1
112 46 1
112 50 1
112 63 1
112 71 1
112 81 1
112 84 1
112 85 1
112 94 1
112 95 1
112 98 1
112 99 1
112 100 1
112 103 1
112 108 1
112 109 1
112 118 1
112 119 1
112 121 1
112 129 1
112 132 1
112 142 1
112 145 1
112 146 1
112 160 1
112 163 1
112 176 1
112 179 1
112 183 1
112 190 1
112 192 1
112 193 1
112 195 1
112 199 1
113 2 1
113 3 1
113 12 1
113 15 1
113 22 1
113 25 1
113 27 1
113 28 1
113 30 1
113 31 1
113 33 1
113 34 1
113 38 1
113 40 1
113 44 1
113 45 1
113 46 1
113 51 1
113 55 1
113 68 1
113 77 1
113 81 1
113 84 1
113 85 1
113 89 1
113 93 1
113 94 1
113 98 1
113 111 1
113 116 1
113 121 1
113 122 1
113 124 1
113 126 1
113 136 1
113 144 1
113 148 1
113 153 1
113 156 1
113 161 1
113 165 1
113 175 1
113 180 1
113 188 1
113 189 1
113 190 1
113 197 1
114 1 1
114 2 1
114 10 1
114 29 1
114 31 1
114 32 1
114 43 1
114 49 1
114 54 1
114 62 1
114 70 1
114 81 1
114 86 1
114 103 1
114 104 1
114 105 1
114 107 1
114 118 1
114 126 1
114 139 1
114 143 1
114 149 1
114 152 1
114 159 1
114 162 1
114 163 1
114 165 1
114 177 1
114 200 1
115 1 1
115 11 1
115 19 1
115 25 1
115 27 1
115 29 1
115 35 1
115 38 1
115 41 1
115 42 1
115 43 1
115 50 1
115 60 1
115 63 1
115 64 1
115 65 1
115 73 1
115 84 1
115 101 1
115 105 1
115 109 1
115 120 1
115 125 1
115 132 1
115 136 1
115 140 1
115 146 1
115 151 1
115 156 1
115 157 1
115 163 1
115 168 1
115 175 1
115 187 1
115 192 1
115 200 1
116 8 1
116 9 1
116 17 1
116 20 1
116 30 1
116 31 1
116 32 1
116 38 1
116 39 1
116 53 1
116 55 1
116 57 1
116 63 1
116 66 1
116 69 1
116 82 1
116 85 1
116 86 1
116 94 1
116 100 1
116 107 1
116 110 1
116 111 1
116 113 1
116 121 1
116 128 1
116 130 1
116 134 1
116 140 1
116 142 1
116 145 1
116 147 1
116 153 1
116 160 1
116 168 1
116 171 1
116 177 1
116 180 1
116 194 1
117 4 1
117 5 1
117 6 1
117 8 1
117 10 1
117 12 1
117 13 1
117 24 1
117 34 1
117 43 1
117 44 1
117 47 1
117 57 1
117 74 1
117 76 1
117 83 1
117 86 1
117 90 1
117 94 1
117 95 1
117 98 1
117 101 1
117 103 1
117 104 1
117 111 1
117 122 1
117 123 1
117 124 1
117 128 1
117 130 1
117 131 1
117 133 1
117 135 1
117 139 1
117 140 1
117 143 1
117 145 1
117 147 1
117 150 1
117 155 1
117 158 1
117 161 1
117 174 1
117 182 1
117 189 1
117 193 1
117 197 1
117 198 1
118 1 1
118 2 1
118 35 1
118 37 1
118 39 1
118 51 1
118 54 1
118 59 1
118 61 1
118 62 1
118 66 1
118 72 1
118 74 1
118 80 1
118 83 1
118 95 1
118 100 1
118 102 1
118 103 1
118 112 1
118 114 1
118 119 1
118 120 1
118 133 1
118 142 1
118 157 1
118 160 1
118 162 1
118 165 1
118 169 1
118 170 1
118 181 1
118 190 1
118 194 1
118 195 1
118 196 1
118 200 1
119 5 1
119 13 1
119 16 1
119 17 1
119 28 1
119 29 1
119 36 1
119 45 1
119 48 1
119 54 1
119 56 1
119 69 1
119 85 1
119 88 1
119 91 1
119 95 1
119 109 1
119 110 1
119 112 1
119 118 1
119 126 1
119 133 1
119 135 1
119 136 1
119 140 1
119 145 1
119 151 1
119 152 1
119 153 1
119 159 1
119 163 1
119 167 1
119 175 1
119 176 1
119 177 1
119 178 1
119 179 1
119 180 1
119 181 1
119 186 1
119 192 1
119 193 1
120 7 1
120 40 1
120 44 1
120 45 1
120 47 1
120 49 1
120 51 1
120 56 1
120 58 1
120 60 1
120 63 1
120 67 1
120 71 1
120 73 1
120 74 1
120 77 1
120 78 1
120 89 1
120 91 1
120 97 1
120 102 1
120 107 1
120 115 1
120 118 1
120 121 1
120 125 1
120 126 1
120 130 1
120 133 1
120 140 1
120 145 1
120 148 1
120 151 1
120 159 1
120 161 1
120 163 1
120 168 1
120 170 1
120 171 1
120 172 1
120 174 1
120 184 1
120 187 1
120 191 1
121 6 1
121 7 1
121 15 1
121 22 1
121 29 1
121 32 1
121 39 1
121 41 1
121 44 1
121 48 1
121 59 1
121 61 1
121 69 1
121 70 1
121 74 1
121 80 1
121 83 1
121 98 1
121 112 1
121 113 1
121 116 1
121 120 1
121 122 1
121 131 1
121 138 1
121 142 1
121 149 1
121 154 1
121 157 1
121 158 1
121 164 1
121 169 1
121 180 1
121 182 1
121 183 1
121 187 1
122 8 1
122 17 1
122 28 1
122 33 1
122 37 1
122 40 1
122 41 1
122 47 1
122 53 1
122 62 1
122 64 1
122 71 1
122 79 1
122 80 1
122 81 1
122 84 1
122 88 1
122 91 1
122 92 1
122 95 1
122 104 1
122 106 1
122 107 1
122 113 1
122 117 1
122 121 1
122 124 1
122 130 1
122 132 1
122 138 1
122 143 1
122 147 1
122 148 1
122 152 1
122 153 1
122 162 1
122 172 1
122 174 1
122 178 1
122 181 1
122 183 1
122 184 1
122 185 1
122 187 1
122 196 1
123 16 1
123 34 1
123 48 1
123 52 1
123 55 1
123 57 1
123 58 1
123 59 1
123 75 1
123 81 1
123 82 1
123 84 1
123 85 1
123 95 1
123 107 1
123 117 1
123 126 1
123 136 1
123 139 1
123 144 1
123 145 1
123 148 1
123 153 1
123 154 1
123 156 1
123 159 1
123 168 1
123 178 1
123 182 1
123 185 1
124 18 1
124 21 1
124 27 1
124 33 1
124 35 1
124 54 1
124 57 1
124 59 1
124 60 1
124 65 1
124 76 1
124 93 1
124 100 1
124 101 1
124 103 1
124 104 1
124 109 1
124 110 1
124 113 1
124 117 1
124 122 1
124 127 1
124 129 1
124 148 1
124 163 1
124 169 1
124 176 1
124 183 1
124 186 1
124 187 1
124 198 1
125 1 1
125 3 1
125 14 1
125 18 1
125 21 1
125 25 1
125 31 1
125 32 1
125 33 1
125 37 1
125 50 1
125 65 1
125 73 1
125 76 1
125 93 1
125 95 1
125 99 1
125 102 1
125 111 1
125 115 1
125 120 1
125 149 1
125 158 1
125 159 1
125 160 1
125 162 1
125 165 1
125 166 1
125 167 1
125 178 1
125 180 1
125 184 1
125 189 1
125 191 1
125 195 1
125 197 1
125 198 1
126 1 1
126 8 1
126 12 1
126 13 1
126 14 1
126 16 1
126 19 1
126 26 1
126 28 1
126 30 1
126 32 1
126 35 1
126 43 1
126 44 1
126 48 1
126 49 1
126 63 1
126 65 1
126 85 1
126 86 1
126 88 1
126 94 1
126 96 1
126 100 1
126 105 1
126 113 1
126 114 1
126 119 1
126 120 1
126 123 1
126 141 1
126 144 1
126 151 1
126 167 1
126 173 1
126 175 1
126 176 1
126 178 1
126 183 1
126 186 1
126 188 1
126 190 1
126 194 1
126 196 1
126 197 1
127 3 1
127 9 1
127 10 1
127 16 1
127 20 1
127 24 1
127 26 1
127 28 1
127 42 1
127 43 1
127 48 1
127 52 1
127 55 1
127 58 1
127 63 1
127 65 1
127 67 1
127 71 1
127 84 1
127 103 1
127 124 1
127 128 1
127 140 1
127 148 1
127 156 1
127 166 1
127 172 1
127 177 1
127 180 1
127 181 1
127 184 1
127 188 1
127 189 1
127 190 1
127 191 1
127 192 1
127 193 1
127 198 1
128 4 1
128 12 1
128 16 1
128 17 1
128 19 1
128 32 1
128 39 1
128 45 1
128 48 1
128 50 1
128 53 1
128 56 1
128 59 1
128 62 1
128 67 1
128 71 1
128 76 1
128 78 1
128 81 1
128 82 1
128 92 1
128 94 1
128 95 1
128 102 1
128 103 1
128 107 1
128 110 1
128 116 1
128 117 1
128 127 1
128 137 1
128 144 1
128 146 1
128 148 1
128 157 1
128 158 1
128 161 1
128 163 1
128 165 1
128 169 1
128 172 1
128 176 1
128 178 1
128 184 1
128 186 1
128 189 1
128 194 1
128 196 1
128 197 1
129 4 1
129 9 1
129 10 1
129 12 1
129 19 1
129 21 1
129 32 1
129 40 1
129 45 1
129 49 1
129 53 1
129 61 1
129 64 1
129 72 1
129 75 1
129 76 1
129 88 1
129 93 1
129 99 1
129 104 1
129 112 1
129 124 1
129 130 1
129 152 1
129 157 1
129 165 1
129 169 1
129 184 1
129 186 1
130 7 1
130 8 1
130 18 1
130 27 1
130 33 1
130 36 1
130 40 1
130 44 1
130 53 1
130 54 1
130 56 1
130 61 1
130 66 1
130 74 1
130 80 1
130 85 1
130 87 1
130 96 1
130 103 1
130 116 1
130 117 1
130 120 1
130 122 1
130 129 1
130 138 1
130 141 1
130 143 1
130 147 1
130 153 1
130 160 1
130 166 1
130 168 1
130 169 1
130 182 1
130 198 1
131 10 1
131 13 1
131 14 1
131 15 1
131 19 1
131 22 1
131 31 1
131 35 1
131 37 1
131 40 1
131 45 1
131 46 1
131 55 1
131 57 1
131 68 1
131 69 1
131 72 1
131 74 1
131 77 1
131 82 1
131 91 1
131 93 1
131 100 1
131 103 1
131 105 1
131 117 1
131 121 1
131 135 1
131 136 1
131 146 1
131 147 1
131 151 1
131 154 1
131 164 1
131 170 1
131 172 1
131 185 1
131 188 1
131 190 1
131 196 1
131 198 1
131 199 1
132 13 1
132 14 1
132 17 1
132 18 1
132 20 1
132 21 1
132 22 1
132 25 1
132 28 1
132 33 1
132 35 1
132 44 1
132 48 1
132 51 1
132 57 1
132 58 1
132 59 1
132 69 1
132 70 1
132 72 1
132 77 1
132 78 1
132 82 1
132 83 1
132 84 1
132 87 1
132 90 1
132 110 1
132 112 1
132 115 1
132 122 1
132 138 1
132 153 1
132 154 1
132 163 1
132 169 1
132 170 1
132 174 1
132 186 1
132 194 1
132 195 1
133 9 1
133 16 1
133 21 1
133 30 1
133 40 1
133 47 1
133 49 1
133 53 1
133 55 1
133 65 1
133 67 1
133 70 1
133 72 1
133 78 1
133 79 1
133 80 1
133 97 1
133 109 1
133 117 1
133 118 1
133 119 1
133 120 1
133 148 1
133 152 1
133 155 1
133 160 1
133 162 1
133 171 1
133 180 1
133 185 1
134 1 1
134 20 1
134 29 1
134 34 1
134 35 1
134 36 1
134 47 1
134 50 1
134 53 1
134 55 1
134 75 1
134 77 1
134 81 1
134 95 1
134 116 1
134 157 1
134 164 1
134 171 1
134 175 1
134 191 1
134 194 1
134 196 1
134 199 1
135 11 1
135 12 1
135 18 1
135 24 1
135 28 1
135 29 1
135 38 1
135 49 1
135 50 1
135 55 1
135 61 1
135 63 1
135 68 1
135 71 1
135 75 1
135 76 1
135 78 1
135 84 1
135 89 1
135 94 1
135 97 1
135 101 1
135 103 1
135 104 1
135 107 1
135 110 1
135 117 1
135 119 1
135 131 1
135 141 1
135 152 1
135 153 1
135 157 1
135 162 1
135 184 1
135 185 1
135 192 1
135 193 1
136 4 1
136 6 1
136 8 1
136 9 1
136 11 1
136 13 1
136 16 1
136 20 1
136 32 1
136 35 1
136 45 1
136 59 1
136 68 1
136 70 1
136 72 1
136 74 1
136 91 1
136 92 1
136 98 1
136 101 1
136 106 1
136 107 1
136 113 1
136 115 1
136 119 1
136 123 1
136 131 1
136 139 1
136 142 1
136 145 1
136 147 1
136 153 1
136 162 1
136 176 1
136 196 1
137 6 1
137 9 1
137 13 1
137 15 1
137 17 1
137 19 1
137 22 1
137 24 1
137 25 1
137 31 1
137 35 1
137 41 1
137 44 1
137 45 1
137 47 1
137 48 1
137 49 1
137 55 1
137 60 1
137 62 1
137 63 1
137 66 1
137 67 1
137 73 1
137 76 1
137 80 1
137 82 1
137 85 1
137 93 1
137 95 1
137 98 1
137 101 1
137 103 1
137 106 1
137 108 1
137 110 1
137 128 1
137 138 1
137 148 1
137 150 1
137 152 1
137 155 1
137 164 1
137 173 1
137 184 1
137 186 1
137 188 1
137 190 1
137 196 1
137 200 1
138 1 1
138 5 1
138 28 1
138 29 1
138 32 1
138 34 1
138 43 1
138 45 1
138 46 1
138 49 1
138 51 1
138 59 1
138 60 1
138 81 1
138 85 1
138 95 1
138 98 1
138 100 1
138 121 1
138 122 1
138 130 1
138 132 1
138 137 1
138 141 1
138 152 1
138 153 1
138 162 1
138 178 1
138 180 1
138 185 1
138 193 1
138 200 1
139 3 1
139 4 1
139 10 1
139 24 1
139 28 1
139 34 1
139 41 1
139 46 1
139 50 1
139 51 1
139 53 1
139 54 1
139 62 1
139 63 1
139 67 1
139 79 1
139 83 1
139 85 1
139 89 1
139 93 1
139 99 1
139 100 1
139 107 1
139 111 1
139 114 1
139 117 1
139 123 1
139 136 1
139 140 1
139 144 1
139 152 1
139 155 1
139 167 1
139 168 1
139 174 1
139 176 1
139 179 1
139 187 1
139 191 1
139 199 1
140 1 1
140 2 1
140 10 1
140 19 1
140 25 1
140 27 1
140 41 1
140 42 1
140 45 1
140 46 1
140 54 1
140 55 1
140 57 1
140 61 1
140 63 1
140 65 1
140 67 1
140 76 1
140 80 1
140 81 1
140 85 1
140 89 1
140 97 1
140 100 1
140 102 1
140 108 1
140 110 1
140 115 1
140 116 1
140 117 1
140 119 1
140 120 1
140 127 1
140 139 1
140 142 1
140 143 1
140 162 1
140 171 1
140 177 1
140 187 1
140 190 1
140 193 1
140 194 1
141 1 1
141 8 1
141 10 1
141 17 1
141 21 1
141 33 1
141 34 1
141 41 1
141 43 1
141 47 1
141 49 1
141 58 1
141 59 1
141 66 1
141 67 1
141 71 1
141 74 1
141 76 1
141 79 1
141 80 1
141 84 1
141 88 1
141 89 1
141 90 1
141 96 1
141 97 1
141 98 1
141 99 1
141 106 1
141 107 1
141 109 1
141 126 1
141 130 1
141 135 1
141 138 1
141 153 1
141 159 1
141 161 1
141 172 1
141 174 1
141 179 1
141 185 1
141 187 1
141 189 1
142 4 1
142 16 1
142 19 1
142 27 1
142 32 1
142 34 1
142 41 1
142 45 1
142 66 1
142 75 1
142 77 1
142 87 1
142 93 1
142 97 1
142 99 1
142 106 1
142 108 1
142 112 1
142 116 1
142 118 1
142 121 1
142 136 1
142 140 1
142 148 1
142 149 1
142 150 1
142 165 1
142 168 1
142 172 1
142 179 1
142 182 1
142 186 1
142 187 1
142 190 1
142 192 1
142 195 1
143 14 1
143 20 1
143 21 1
143 25 1
143 26 1
143 30 1
143 34 1
143 35 1
143 37 1
143 43 1
143 45 1
143 53 1
143 56 1
143 62 1
143 83 1
143 88 1
143 89 1
143 95 1
143 98 1
143 100 1
143 101 1
143 107 1
143 108 1
143 111 1
143 114 1
143 117 1
143 122 1
143 130 1
143 140 1
143 145 1
143 149 1
143 152 1
143 165 1
143 169 1
143 171 1
143 173 1
143 179 1
143 186 1
143 196 1
143 199 1
144 5 1
144 9 1
144 18 1
144 25 1
144 28 1
144 36 1
144 39 1
144 40 1
144 45 1
144 48 1
144 49 1
144 57 1
144 60 1
144 65 1
144 79 1
144 83 1
144 87 1
144 94 1
144 102 1
144 106 1
144 107 1
144 113 1
144 123 1
144 126 1
144 128 1
144 139 1
144 149 1
144 153 1
144 160 1
144 165 1
144 174 1
144 178 1
144 184 1
144 186 1
144 187 1
144 196 1
144 197 1
144 200 1
145 1 1
145 7 1
145 19 1
145 20 1
145 26 1
145 28 1
145 33 1
145 34 1
145 37 1
145 63 1
145 76 1
145 83 1
145 84 1
145 96 1
145 107 1
145 112 1
145 116 1
145 117 1
145 119 1
145 120 1
145 123 1
145 136 1
145 143 1
145 147 1
145 149 1
145 160 1
145 161 1
145 164 1
145 166 1
145 167 1
145 169 1
145 170 1
145 171 1
145 177 1
145 179 1
145 180 1
145 184 1
145 188 1
145 189 1
145 194 1
145 197 1
146 6 1
146 9 1
146 13 1
146 21 1
146 27 1
146 30 1
146 32 1
146 37 1
146 42 1
146 48 1
146 54 1
146 67 1
146 81 1
146 84 1
146 89 1
146 90 1
146 91 1
146 102 1
146 107 1
146 111 1
146 112 1
146 115 1
146 128 1
146 131 1
146 175 1
146 177 1
146 179 1
146 193 1
147 1 1
147 4 1
147 8 1
147 14 1
147 16 1
147 23 1
147 24 1
147 25 1
147 30 1
147 34 1
147 54 1
147 61 1
147 62 1
147 74 1
147 76 1
147 82 1
147 85 1
147 89 1
147 91 1
147 97 1
147 99 1
147 103 1
147 109 1
147 110 1
147 116 1
147 117 1
147 122 1
147 130 1
147 131 1
147 136 1
147 145 1
147 148 1
147 152 1
147 169 1
147 172 1
147 183 1
147 189 1
147 190 1
148 7 1
148 10 1
148 19 1
148 20 1
148 24 1
148 27 1
148 30 1
148 32 1
148 45 1
148 47 1
148 48 1
148 59 1
148 60 1
148 63 1
148 67 1
148 71 1
148 78 1
148 82 1
148 85 1
148 87 1
148 98 1
148 103 1
148 105 1
148 108 1
148 113 1
148 120 1
148 122 1
148 123 1
148 124 1
148 127 1
148 128 1
148 133 1
148 137 1
148 142 1
148 147 1
148 149 1
148 150 1
148 171 1
148 179 1
149 2 1
149 3 1
149 6 1
149 10 1
149 24 1
149 29 1
149 30 1
149 35 1
149 39 1
149 50 1
149 54 1
149 57 1
149 62 1
149 64 1
149 65 1
149 69 1
149 72 1
149 75 1
149 77 1
149 78 1
149 89 1
149 102 1
149 104 1
149 105 1
149 108 1
149 114 1
149 121 1
149 125 1
149 142 1
149 143 1
149 144 1
149 145 1
149 148 1
149 151 1
149 155 1
149 156 1
149 161 1
149 162 1
149 163 1
149 166 1
149 175 1
149 177 1
149 185 1
149 187 1
149 189 1
149 195 1
149 196 1
150 1 1
150 6 1
150 11 1
150 24 1
150 25 1
150 29 1
150 30 1
150 31 1
150 33 1
150 39 1
150 43 1
150 46 1
150 54 1
150 60 1
150 63 1
150 67 1
150 72 1
150 73 1
150 76 1
150 98 1
150 106 1
150 117 1
150 137 1
150 142 1
150 148 1
150 155 1
150 156 1
150 157 1
150 158 1
150 166 1
150 167 1
150 168 1
150 173 1
150 174 1
150 175 1
150 176 1
150 182 1
150 185 1
150 191 1
150 194 1
150 196 1
151 9 1
151 12 1
151 26 1
151 40 1
151 41 1
151 43 1
151 50 1
151 61 1
151 76 1
151 81 1
151 91 1
151 100 1
151 101 1
151 115 1
151 119 1
151 120 1
151 126 1
151 131 1
151 149 1
151 175 1
151 177 1
151 178 1
151 180 1
151 193 1
152 4 1
152 13 1
152 15 1
152 21 1
152 23 1
152 27 1
152 30 1
152 32 1
152 34 1
152 36 1
152 40 1
152 44 1
152 49 1
152 51 1
152 70 1
152 75 1
152 78 1
152 88 1
152 90 1
152 94 1
152 98 1
152 103 1
152 114 1
152 119 1
152 122 1
152 129 1
152 133 1
152 135 1
152 137 1
152 138 1
152 139 1
152 143 1
152 147 1
152 154 1
152 166 1
152 167 1
152 183 1
152 188 1
152 190 1
152 196 1
152 199 1
153 3 1
153 4 1
153 10 1
153 13 1
153 19 1
153 25 1
153 28 1
153 38 1
153 39 1
153 43 1
153 44 1
153 46 1
153 49 1
153 51 1
153 52 1
153 53 1
153 58 1
153 69 1
153 73 1
153 90 1
153 102 1
153 105 1
153 113 1
153 116 1
153 119 1
153 122 1
153 123 1
153 130 1
153 132 1
153 135 1
153 136 1
153 138 1
153 141 1
153 144 1
153 154 1
153 155 1
153 158 1
153 159 1
153 161 1
153 162 1
153 164 1
153 173 1
153 175 1
153 177 1
153 180 1
153 187 1
153 195 1
154 2 1
154 7 1
154 9 1
154 21 1
154 22 1
154 25 1
154 31 1
154 37 1
154 38 1
154 39 1
154 42 1
154 50 1
154 53 1
154 62 1
154 70 1
154 75 1
154 82 1
154 87 1
154 90 1
154 92 1
154 98 1
154 109 1
154 121 1
154 123 1
154 131 1
154 132 1
154 152 1
154 153 1
154 157 1
154 167 1
154 176 1
154 198 1
155 12 1
155 13 1
155 19 1
155 20 1
155 21 1
155 26 1
155 27 1
155 28 1
155 33 1
155 36 1
155 43 1
155 47 1
155 62 1
155 69 1
155 73 1
155 80 1
155 82 1
155 85 1
155 95 1
155 98 1
155 108 1
155 117 1
155 133 1
155 137 1
155 139 1
155 149 1
155 150 1
155 153 1
155 156 1
155 166 1
155 168 1
155 169 1
155 170 1
155 172 1
155 187 1
155 196 1
156 1 1
156 8 1
156 11 1
156 25 1
156 26 1
156 29 1
156 37 1
156 39 1
156 42 1
156 52 1
156 62 1
156 80 1
156 81 1
156 89 1
156 90 1
156 91 1
156 98 1
156 100 1
156 113 1
156 115 1
156 123 1
156 127 1
156 149 1
156 150 1
156 155 1
156 166 1
156 169 1
156 177 1
156 178 1
156 180 1
156 191 1
156 192 1
157 2 1
157 3 1
157 11 1
157 15 1
157 24 1
157 27 1
157 29 1
157 30 1
157 39 1
157 40 1
157 43 1
157 46 1
157 49 1
157 51 1
157 52 1
157 54 1
157 57 1
157 61 1
157 64 1
157 66 1
157 81 1
157 93 1
157 98 1
157 104 1
157 110 1
157 115 1
157 118 1
157 121 1
157 128 1
157 129 1
157 134 1
157 135 1
157 150 1
157 154 1
157 159 1
157 162 1
157 170 1
157 176 1
157 189 1
157 194 1
158 4 1
158 10 1
158 13 1
158 16 1
158 22 1
158 25 1
158 29 1
158 33 1
158 38 1
158 39 1
158 44 1
158 47 1
158 51 1
158 70 1
158 71 1
158 87 1
158 90 1
158 95 1
158 109 1
158 117 1
158 121 1
158 125 1
158 128 1
158 150 1
158 153 1
158 163 1
158 167 1
158 170 1
158 179 1
158 185 1
158 193 1
158 194 1
159 2 1
159 14 1
159 21 1
159 24 1
159 25 1
159 27 1
159 28 1
159 30 1
159 33 1
159 35 1
159 37 1
159 43 1
159 44 1
159 45 1
159 47 1
159 49 1
159 54 1
159 55 1
159 63 1
159 68 1
159 73 1
159 76 1
159 77 1
159 97 1
159 100 1
159 105 1
159 108 1
159 109 1
159 114 1
159 119 1
159 120 1
159 123 1
159 125 1
159 141 1
159 153 1
159 157 1
159 162 1
159 186 1
159 192 1
160 5 1
160 7 1
160 9 1
160 10 1
160 13 1
160 16 1
160 24 1
160 31 1
160 38 1
160 45 1
160 48 1
160 53 1
160 56 1
160 57 1
160 73 1
160 74 1
160 83 1
160 85 1
160 86 1
160 87 1
160 93 1
160 95 1
160 101 1
160 105 1
160 109 1
160 112 1
160 116 1
160 118 1
160 125 1
160 130 1
160 133 1
160 144 1
160 145 1
160 166 1
160 167 1
160 175 1
160 177 1
160 184 1
160 193 1
161 1 1
161 5 1
161 18 1
161 27 1
161 30 1
161 34 1
161 50 1
161 52 1
161 54 1
161 59 1
161 66 1
161 71 1
161 75 1
161 76 1
161 90 1
161 92 1
161 104 1
161 106 1
161 109 1
161 113 1
161 117 1
161 120 1
161 128 1
161 141 1
161 145 1
161 149 1
161 153 1
161 167 1
161 168 1
161 173 1
161 175 1
161 178 1
161 179 1
161 180 1
161 184 1
161 187 1
161 191 1
161 193 1
161 194 1
161 195 1
161 199 1
162 4 1
162 8 1
162 12 1
162 17 1
162 19 1
162 20 1
162 25 1
162 29 1
162 38 1
162 41 1
162 49 1
162 57 1
162 68 1
162 70 1
162 73 1
162 74 1
162 80 1
162 82 1
162 93 1
162 95 1
162 97 1
162 101 1
162 105 1
162 114 1
162 118 1
162 122 1
162 125 1
162 133 1
162 135 1
162 136 1
162 138 1
162 140 1
162 149 1
162 153 1
162 157 1
162 159 1
162 167 1
162 168 1
162 169 1
162 172 1
162 176 1
162 177 1
162 180 1
162 186 1
162 194 1
163 7 1
163 14 1
163 26 1
163 27 1
163 28 1
163 31 1
163 43 1
163 46 1
163 60 1
163 70 1
163 73 1
163 74 1
163 84 1
163 95 1
163 103 1
163 104 1
163 108 1
163 112 1
163 114 1
163 115 1
163 119 1
163 120 1
163 124 1
163 128 1
163 132 1
163 149 1
163 158 1
163 167 1
163 174 1
163 176 1
163 180 1
163 181 1
163 186 1
163 189 1
163 196 1
163 199 1
164 1 1
164 18 1
164 32 1
164 34 1
164 40 1
164 42 1
164 51 1
164 54 1
164 55 1
164 62 1
164 78 1
164 80 1
164 99 1
164 100 1
164 105 1
164 107 1
164 110 1
164 111 1
164 121 1
164 131 1
164 134 1
164 137 1
164 145 1
164 153 1
164 167 1
164 175 1
164 183 1
164 187 1
164 189 1
164 194 1
164 200 1
165 10 1
165 14 1
165 17 1
165 21 1
165 33 1
165 38 1
165 46 1
165 56 1
165 61 1
165 63 1
165 65 1
165 68 1
165 76 1
165 78 1
165 79 1
165 81 1
165 92 1
165 101 1
165 113 1
165 114 1
165 118 1
165 125 1
165 128 1
165 129 1
165 142 1
165 143 1
165 144 1
165 172 1
165 188 1
165 200 1
166 1 1
166 2 1
166 3 1
166 8 1
166 14 1
166 18 1
166 24 1
166 29 1
166 31 1
166 38 1
166 44 1
166 48 1
166 51 1
166 54 1
166 60 1
166 65 1
166 71 1
166 83 1
166 85 1
166 88 1
166 92 1
166 93 1
166 98 1
166 100 1
166 101 1
166 105 1
166 106 1
166 111 1
166 125 1
166 127 1
166 130 1
166 145 1
166 149 1
166 150 1
166 152 1
166 155 1
166 156 1
166 160 1
166 173 1
166 183 1
166 187 1
166 190 1
167 6 1
167 18 1
167 38 1
167 43 1
167 48 1
167 54 1
167 67 1
167 77 1
167 98 1
167 101 1
167 102 1
167 105 1
167 110 1
167 119 1
167 125 1
167 126 1
167 139 1
167 145 1
167 150 1
167 152 1
167 154 1
167 158 1
167 160 1
167 161 1
167 162 1
167 163 1
167 164 1
167 168 1
167 182 1
167 192 1
167 198 1
167 200 1
168 9 1
168 23 1
168 24 1
168 25 1
168 26 1
168 30 1
168 33 1
168 36 1
168 38 1
168 42 1
168 43 1
168 55 1
168 57 1
168 59 1
168 60 1
168 64 1
168 69 1
168 75 1
168 85 1
168 86 1
168 89 1
168 91 1
168 94 1
168 102 1
168 104 1
168 109 1
168 111 1
168 115 1
168 116 1
168 120 1
168 123 1
168 130 1
168 139 1
168 142 1
168 150 1
168 155 1
168 161 1
168 162 1
168 167 1
168 180 1
168 181 1
168 182 1
168 185 1
168 186 1
168 190 1
168 193 1
169 5 1
169 20 1
169 25 1
169 29 1
169 32 1
169 34 1
169 41 1
169 43 1
169 44 1
169 50 1
169 56 1
169 57 1
169 59 1
169 60 1
169 66 1
169 69 1
169 74 1
169 76 1
169 78 1
169 93 1
169 94 1
169 106 1
169 107 1
169 118 1
169 121 1
169 124 1
169 128 1
169 129 1
169 130 1
169 132 1
169 143 1
169 145 1
169 147 1
169 155 1
169 156 1
169 162 1
169 170 1
169 172 1
169 188 1
169 192 1
170 11 1
170 25 1
170 31 1
170 35 1
170 40 1
170 44 1
170 46 1
170 50 1
170 59 1
170 60 1
170 62 1
170 64 1
170 66 1
170 74 1
170 77 1
170 78 1
170 80 1
170 81 1
170 85 1
170 90 1
170 92 1
170 94 1
170 96 1
170 99 1
170 101 1
170 102 1
170 104 1
170 109 1
170 110 1
170 118 1
170 120 1
170 131 1
170 132 1
170 145 1
170 155 1
170 157 1
170 158 1
170 169 1
170 176 1
170 179 1
170 183 1
170 188 1
170 194 1
170 195 1
170 196 1
171 2 1
171 16 1
171 30 1
171 31 1
171 33 1
171 34 1
171 38 1
171 40 1
171 43 1
171 46 1
171 47 1
171 48 1
171 67 1
171 68 1
171 71 1
171 80 1
171 83 1
171 88 1
171 91 1
171 92 1
171 94 1
171 97 1
171 105 1
171 106 1
171 108 1
171 116 1
171 120 1
171 133 1
171 134 1
171 140 1
171 143 1
171 145 1
171 148 1
171 173 1
171 174 1
171 180 1
171 181 1
171 183 1
171 184 1
171 185 1
171 187 1
171 190 1
171 191 1
171 192 1
171 193 1
172 4 1
172 13 1
172 16 1
172 21 1
172 23 1
172 24 1
172 25 1
172 40 1
172 45 1
172 49 1
172 55 1
172 72 1
172 74 1
172 75 1
172 89 1
172 92 1
172 95 1
172 120 1
172 122 1
172 127 1
172 128 1
172 131 1
172 141 1
172 142 1
172 147 1
172 155 1
172 162 1
172 165 1
172 169 1
172 175 1
172 190 1
172 196 1
172 198 1
173 9 1
173 19 1
173 22 1
173 26 1
173 35 1
173 36 1
173 40 1
173 51 1
173 52 1
173 53 1
173 54 1
173 56 1
173 60 1
173 61 1
173 62 1
173 64 1
173 83 1
173 94 1
173 105 1
173 126 1
173 137 1
173 143 1
173 150 1
173 153 1
173 161 1
173 166 1
173 171 1
173 175 1
173 181 1
173 191 1
173 192 1
173 193 1
173 195 1
174 1 1
174 8 1
174 22 1
174 25 1
174 28 1
174 29 1
174 35 1
174 36 1
174 50 1
174 52 1
174 53 1
174 56 1
174 59 1
174 66 1
174 74 1
174 82 1
174 91 1
174 95 1
174 107 1
174 108 1
174 109 1
174 117 1
174 120 1
174 122 1
174 132 1
174 139 1
174 141 1
174 144 1
174 150 1
174 163 1
174 171 1
174 176 1
174 182 1
174 185 1
174 187 1
174 197 1
175 3 1
175 6 1
175 16 1
175 21 1
175 28 1
175 34 1
175 40 1
175 51 1
175 52 1
175 53 1
175 57 1
175 61 1
175 70 1
175 73 1
175 86 1
175 88 1
175 97 1
175 101 1
175 109 1
175 113 1
175 115 1
175 119 1
175 126 1
175 134 1
175 146 1
175 149 1
175 150 1
175 151 1
175 153 1
175 160 1
175 161 1
175 164 1
175 172 1
175 173 1
175 176 1
175 178 1
175 182 1
175 184 1
175 199 1
176 3 1
176 4 1
176 10 1
176 27 1
176 29 1
176 30 1
176 32 1
176 35 1
176 37 1
176 40 1
176 46 1
176 47 1
176 51 1
176 58 1
176 59 1
176 66 1
176 69 1
176 72 1
176 77 1
176 85 1
176 101 1
176 107 1
176 112 1
176 119 1
176 124 1
176 126 1
176 128 1
176 136 1
176 139 1
176 150 1
176 154 1
176 157 1
176 162 1
176 163 1
176 170 1
176 174 1
176 175 1
176 177 1
176 180 1
176 185 1
176 186 1
176 187 1
176 191 1
176 192 1
176 197 1
177 7 1
177 13 1
177 16 1
177 25 1
177 27 1
177 30 1
177 40 1
177 54 1
177 55 1
177 60 1
177 79 1
177 82 1
177 95 1
177 96 1
177 99 1
177 114 1
177 116 1
177 119 1
177 127 1
177 140 1
177 145 1
177 146 1
177 149 1
177 151 1
177 153 1
177 156 1
177 160 1
177 162 1
177 176 1
177 189 1
177 193 1
177 199 1
178 10 1
178 13 1
178 14 1
178 16 1
178 17 1
178 18 1
178 20 1
178 22 1
178 24 1
178 35 1
178 45 1
178 49 1
178 53 1
178 58 1
178 61 1
178 62 1
178 63 1
178 64 1
178 78 1
178 79 1
178 84 1
178 86 1
178 90 1
178 98 1
178 99 1
178 102 1
178 103 1
178 119 1
178 122 1
178 123 1
178 125 1
178 126 1
178 128 1
178 138 1
178 144 1
178 151 1
178 156 1
178 161 1
178 175 1
178 181 1
178 189 1
178 191 1
178 197 1
179 10 1
179 17 1
179 23 1
179 33 1
179 40 1
179 41 1
179 49 1
179 50 1
179 53 1
179 54 1
179 58 1
179 59 1
179 63 1
179 64 1
179 68 1
179 70 1
179 73 1
179 75 1
179 82 1
179 84 1
179 87 1
179 99 1
179 101 1
179 112 1
179 119 1
179 139 1
179 141 1
179 142 1
179 143 1
179 145 1
179 146 1
179 148 1
179 158 1
179 161 1
179 170 1
179 185 1
179 188 1
179 189 1
179 190 1
179 191 1
180 4 1
180 14 1
180 17 1
180 25 1
180 31 1
180 32 1
180 34 1
180 37 1
180 39 1
180 46 1
180 49 1
180 52 1
180 55 1
180 57 1
180 66 1
180 72 1
180 77 1
180 85 1
180 87 1
180 89 1
180 113 1
180 116 1
180 119 1
180 121 1
180 125 1
180 127 1
180 133 1
180 138 1
180 145 1
180 151 1
180 153 1
180 156 1
180 161 1
180 162 1
180 163 1
180 168 1
180 171 1
180 176 1
180 182 1
180 184 1
180 186 1
180 195 1
180 199 1
181 9 1
181 11 1
181 14 1
181 21 1
181 36 1
181 42 1
181 43 1
181 56 1
181 57 1
181 58 1
181 64 1
181 82 1
181 85 1
181 101 1
181 103 1
181 108 1
181 118 1
181 119 1
181 122 1
181 127 1
181 163 1
181 168 1
181 171 1
181 173 1
181 178 1
182 8 1
182 11 1
182 18 1
182 25 1
182 28 1
182 30 1
182 47 1
182 49 1
182 52 1
182 54 1
182 63 1
182 66 1
182 74 1
182 92 1
182 97 1
182 107 1
182 117 1
182 121 1
182 123 1
182 130 1
182 142 1
182 150 1
182 167 1
182 168 1
182 174 1
182 175 1
182 180 1
182 196 1
182 199 1
183 1 1
183 8 1
183 18 1
183 24 1
183 25 1
183 30 1
183 33 1
183 39 1
183 41 1
183 44 1
183 53 1
183 54 1
183 55 1
183 60 1
183 61 1
183 63 1
183 76 1
183 79 1
183 80 1
183 86 1
183 88 1
183 89 1
183 93 1
183 96 1
183 101 1
183 110 1
183 112 1
183 121 1
183 122 1
183 124 1
183 126 1
183 147 1
183 152 1
183 164 1
183 166 1
183 170 1
183 171 1
183 184 1
183 191 1
183 196 1
184 6 1
184 7 1
184 8 1
184 9 1
184 10 1
184 12 1
184 15 1
184 24 1
184 34 1
184 37 1
184 44 1
184 47 1
184 49 1
184 52 1
184 61 1
184 64 1
184 68 1
184 70 1
184 73 1
184 74 1
184 78 1
184 80 1
184 87 1
184 97 1
184 104 1
184 106 1
184 120 1
184 122 1
184 125 1
184 127 1
184 128 1
184 129 1
184 135 1
184 137 1
184 144 1
184 145 1
184 160 1
184 161 1
184 171 1
184 175 1
184 180 1
184 183 1
184 187 1
184 188 1
184 190 1
185 4 1
185 10 1
185 11 1
185 12 1
185 25 1
185 28 1
185 35 1
185 37 1
185 39 1
185 41 1
185 48 1
185 49 1
185 52 1
185 54 1
185 55 1
185 57 1
185 60 1
185 61 1
185 71 1
185 74 1
185 76 1
185 87 1
185 108 1
185 109 1
185 122 1
185 123 1
185 131 1
185 133 1
185 135 1
185 138 1
185 141 1
185 149 1
185 150 1
185 158 1
185 168 1
185 171 1
185 174 1
185 176 1
185 179 1
185 190 1
185 198 1
186 1 1
186 2 1
186 14 1
186 17 1
186 29 1
186 34 1
186 40 1
186 42 1
186 47 1
186 48 1
186 49 1
186 53 1
186 59 1
186 60 1
186 63 1
186 64 1
186 68 1
186 69 1
186 72 1
186 76 1
186 81 1
186 85 1
186 89 1
186 94 1
186 96 1
186 99 1
186 103 1
186 119 1
186 124 1
186 126 1
186 128 1
186 129 1
186 132 1
186 137 1
186 142 1
186 143 1
186 144 1
186 159 1
186 162 1
186 163 1
186 168 1
186 176 1
186 180 1
186 188 1
186 192 1
187 2 1
187 8 1
187 27 1
187 33 1
187 34 1
187 38 1
187 52 1
187 58 1
187 61 1
187 66 1
187 68 1
187 76 1
187 89 1
187 93 1
187 98 1
187 115 1
187 120 1
187 121 1
187 122 1
187 124 1
187 139 1
187 140 1
187 141 1
187 142 1
187 144 1
187 149 1
187 153 1
187 155 1
187 161 1
187 164 1
187 166 1
187 171 1
187 174 1
187 176 1
187 184 1
188 3 1
188 4 1
188 5 1
188 8 1
188 10 1
188 15 1
188 20 1
188 24 1
188 38 1
188 41 1
188 50 1
188 60 1
188 71 1
188 76 1
188 84 1
188 88 1
188 93 1
188 97 1
188 100 1
188 101 1
188 105 1
188 107 1
188 108 1
188 111 1
188 113 1
188 126 1
188 127 1
188 131 1
188 137 1
188 145 1
188 152 1
188 165 1
188 169 1
188 170 1
188 179 1
188 184 1
188 186 1
188 191 1
188 196 1
188 200 1
189 2 1
189 8 1
189 15 1
189 19 1
189 25 1
189 27 1
189 28 1
189 29 1
189 30 1
189 47 1
189 51 1
189 53 1
189 56 1
189 73 1
189 74 1
189 78 1
189 92 1
189 94 1
189 97 1
189 102 1
189 104 1
189 105 1
189 106 1
189 113 1
189 117 1
189 125 1
189 127 1
189 128 1
189 141 1
189 145 1
189 147 1
189 149 1
189 157 1
189 163 1
189 164 1
189 177 1
189 178 1
189 179 1
189 190 1
189 193 1
189 200 1
190 1 1
190 4 1
190 5 1
190 20 1
190 21 1
190 25 1
190 26 1
190 30 1
190 36 1
190 39 1
190 40 1
190 44 1
190 48 1
190 56 1
190 59 1
190 61 1
190 73 1
190 77 1
190 84 1
190 92 1
190 93 1
190 94 1
190 96 1
190 104 1
190 105 1
190 106 1
190 112 1
190 113 1
190 118 1
190 126 1
190 127 1
190 131 1
190 137 1
190 140 1
190 142 1
190 147 1
190 152 1
190 166 1
190 168 1
190 171 1
190 172 1
190 179 1
190 184 1
190 185 1
190 189 1
190 196 1
190 200 1
191 3 1
191 6 1
191 7 1
191 8 1
191 11 1
191 12 1
191 21 1
191 26 1
191 29 1
191 32 1
191 36 1
191 40 1
191 47 1
191 55 1
191 60 1
191 61 1
191 65 1
191 68 1
191 71 1
191 74 1
191 84 1
191 88 1
191 91 1
191 100 1
191 102 1
191 103 1
191 110 1
191 111 1
191 120 1
191 125 1
191 127 1
191 134 1
191 139 1
191 150 1
191 156 1
191 161 1
191 171 1
191 173 1
191 176 1
191 178 1
191 179 1
191 183 1
191 188 1
191 195 1
192 7 1
192 9 1
192 10 1
192 12 1
192 16 1
192 22 1
192 29 1
192 39 1
192 45 1
192 46 1
192 51 1
192 59 1
192 67 1
192 71 1
192 72 1
192 74 1
192 82 1
192 90 1
192 95 1
192 101 1
192 104 1
192 109 1
192 110 1
192 112 1
192 115 1
192 119 1
192 127 1
192 135 1
192 142 1
192 156 1
192 159 1
192 167 1
192 169 1
192 171 1
192 173 1
192 176 1
192 186 1
192 200 1
193 9 1
193 10 1
193 18 1
193 22 1
193 23 1
193 24 1
193 27 1
193 28 1
193 31 1
193 32 1
193 35 1
193 36 1
193 46 1
193 49 1
193 56 1
193 59 1
193 69 1
193 79 1
193 84 1
193 86 1
193 112 1
193 117 1
193 119 1
193 127 1
193 135 1
193 138 1
193 140 1
193 146 1
193 151 1
193 158 1
193 160 1
193 161 1
193 168 1
193 171 1
193 173 1
193 177 1
193 189 1
194 6 1
194 7 1
194 12 1
194 15 1
194 16 1
194 17 1
194 30 1
194 31 1
194 32 1
194 45 1
194 50 1
194 53 1
194 66 1
194 71 1
194 72 1
194 75 1
194 80 1
194 84 1
194 111 1
194 116 1
194 118 1
194 126 1
194 128 1
194 132 1
194 134 1
194 140 1
194 145 1
194 150 1
194 157 1
194 158 1
194 161 1
194 162 1
194 164 1
194 170 1
194 195 1
195 9 1
195 12 1
195 14 1
195 15 1
195 37 1
195 42 1
195 49 1
195 60 1
195 65 1
195 73 1
195 79 1
195 86 1
195 91 1
195 94 1
195 101 1
195 109 1
195 110 1
195 111 1
195 112 1
195 118 1
195 125 1
195 132 1
195 142 1
195 149 1
195 153 1
195 161 1
195 170 1
195 173 1
195 180 1
195 191 1
195 194 1
196 26 1
196 27 1
196 28 1
196 33 1
196 34 1
196 35 1
196 42 1
196 43 1
196 45 1
196 57 1
196 74 1
196 86 1
196 105 1
196 107 1
196 108 1
196 110 1
196 111 1
196 118 1
196 122 1
196 126 1
196 128 1
196 131 1
196 134 1
196 136 1
196 137 1
196 143 1
196 144 1
196 149 1
196 150 1
196 152 1
196 155 1
196 163 1
196 170 1
196 172 1
196 182 1
196 183 1
196 188 1
196 190 1
196 200 1
197 4 1
197 12 1
197 18 1
197 20 1
197 24 1
197 29 1
197 36 1
197 42 1
197 43 1
197 47 1
197 54 1
197 69 1
197 71 1
197 74 1
197 78 1
197 94 1
197 95 1
197 96 1
197 107 1
197 108 1
197 110 1
197 111 1
197 113 1
197 117 1
197 125 1
197 126 1
197 128 1
197 144 1
197 145 1
197 174 1
197 176 1
197 178 1
198 4 1
198 9 1
198 11 1
198 20 1
198 23 1
198 37 1
198 39 1
198 41 1
198 55 1
198 65 1
198 67 1
198 71 1
198 72 1
198 76 1
198 78 1
198 80 1
198 82 1
198 91 1
198 102 1
198 105 1
198 117 1
198 124 1
198 125 1
198 127 1
198 130 1
198 131 1
198 154 1
198 167 1
198 172 1
198 185 1
198 200 1
199 6 1
199 9 1
199 18 1
199 28 1
199 33 1
199 35 1
199 41 1
199 44 1
199 45 1
199 47 1
199 48 1
199 49 1
199 52 1
199 56 1
199 59 1
199 61 1
199 67 1
199 70 1
199 72 1
199 74 1
199 76 1
199 77 1
199 90 1
199 97 1
199 98 1
199 110 1
199 111 1
199 112 1
199 131 1
199 134 1
199 139 1
199 143 1
199 152 1
199 161 1
199 163 1
199 175 1
199 177 1
199 180 1
199 182 1
199 200 1
200 18 1
200 29 1
200 30 1
200 37 1
200 38 1
200 42 1
200 45 1
200 49 1
200 66 1
200 70 1
200 72 1
200 81 1
200 86 1
200 89 1
200 90 1
200 101 1
200 106 1
200 110 1
200 114 1
200 115 1
200 118 1
200 137 1
200 138 1
200 144 1
200 164 1
200 165 1
200 167 1
200 188 1
200 189 1
200 190 1
200 192 1
200 196 1
200 198 1
200 199 1
