%%MatrixMarket matrix coordinate integer general
% Cubo de Fibonacci Gamma_11 | 233 vertices | 1488 arestas
233 233 1488
1 2 1
2 1 1
1 3 1
3 1 1
1 4 1
4 1 1
1 6 1
6 1 1
1 9 1
9 1 1
1 14 1
14 1 1
1 22 1
22 1 1
1 35 1
35 1 1
1 56 1
56 1 1
1 90 1
90 1 1
1 145 1
145 1 1
2 5 1
5 2 1
2 7 1
7 2 1
2 10 1
10 2 1
2 15 1
15 2 1
2 23 1
23 2 1
2 36 1
36 2 1
2 57 1
57 2 1
2 91 1
91 2 1
2 146 1
146 2 1
3 8 1
8 3 1
3 11 1
11 3 1
3 16 1
16 3 1
3 24 1
24 3 1
3 37 1
37 3 1
3 58 1
58 3 1
3 92 1
92 3 1
3 147 1
147 3 1
4 5 1
5 4 1
4 12 1
12 4 1
4 17 1
17 4 1
4 25 1
25 4 1
4 38 1
38 4 1
4 59 1
59 4 1
4 93 1
93 4 1
4 148 1
148 4 1
5 13 1
13 5 1
5 18 1
18 5 1
5 26 1
26 5 1
5 39 1
39 5 1
5 60 1
60 5 1
5 94 1
94 5 1
5 149 1
149 5 1
6 7 1
7 6 1
6 8 1
8 6 1
6 19 1
19 6 1
6 27 1
27 6 1
6 40 1
40 6 1
6 61 1
61 6 1
6 95 1
95 6 1
6 150 1
150 6 1
7 20 1
20 7 1
7 28 1
28 7 1
7 41 1
41 7 1
7 62 1
62 7 1
7 96 1
96 7 1
7 151 1
151 7 1
8 21 1
21 8 1
8 29 1
29 8 1
8 42 1
42 8 1
8 63 1
63 8 1
8 97 1
97 8 1
8 152 1
152 8 1
9 10 1
10 9 1
9 11 1
11 9 1
9 12 1
12 9 1
9 30 1
30 9 1
9 43 1
43 9 1
9 64 1
64 9 1
9 98 1
98 9 1
9 153 1
153 9 1
10 13 1
13 10 1
10 31 1
31 10 1
10 44 1
44 10 1
10 65 1
65 10 1
10 99 1
99 10 1
10 154 1
154 10 1
11 32 1
32 11 1
11 45 1
45 11 1
11 66 1
66 11 1
11 100 1
100 11 1
11 155 1
155 11 1
12 13 1
13 12 1
12 33 1
33 12 1
12 46 1
46 12 1
12 67 1
67 12 1
12 101 1
101 12 1
12 156 1
156 12 1
13 34 1
34 13 1
13 47 1
47 13 1
13 68 1
68 13 1
13 102 1
102 13 1
13 157 1
157 13 1
14 15 1
15 14 1
14 16 1
16 14 1
14 17 1
17 14 1
14 19 1
19 14 1
14 48 1
48 14 1
14 69 1
69 14 1
14 103 1
103 14 1
14 158 1
158 14 1
15 18 1
18 15 1
15 20 1
20 15 1
15 49 1
49 15 1
15 70 1
70 15 1
15 104 1
104 15 1
15 159 1
159 15 1
16 21 1
21 16 1
16 50 1
50 16 1
16 71 1
71 16 1
16 105 1
105 16 1
16 160 1
160 16 1
17 18 1
18 17 1
17 51 1
51 17 1
17 72 1
72 17 1
17 106 1
106 17 1
17 161 1
161 17 1
18 52 1
52 18 1
18 73 1
73 18 1
18 107 1
107 18 1
18 162 1
162 18 1
19 20 1
20 19 1
19 21 1
21 19 1
19 53 1
53 19 1
19 74 1
74 19 1
19 108 1
108 19 1
19 163 1
163 19 1
20 54 1
54 20 1
20 75 1
75 20 1
20 109 1
109 20 1
20 164 1
164 20 1
21 55 1
55 21 1
21 76 1
76 21 1
21 110 1
110 21 1
21 165 1
165 21 1
22 23 1
23 22 1
22 24 1
24 22 1
22 25 1
25 22 1
22 27 1
27 22 1
22 30 1
30 22 1
22 77 1
77 22 1
22 111 1
111 22 1
22 166 1
166 22 1
23 26 1
26 23 1
23 28 1
28 23 1
23 31 1
31 23 1
23 78 1
78 23 1
23 112 1
112 23 1
23 167 1
167 23 1
24 29 1
29 24 1
24 32 1
32 24 1
24 79 1
79 24 1
24 113 1
113 24 1
24 168 1
168 24 1
25 26 1
26 25 1
25 33 1
33 25 1
25 80 1
80 25 1
25 114 1
114 25 1
25 169 1
169 25 1
26 34 1
34 26 1
26 81 1
81 26 1
26 115 1
115 26 1
26 170 1
170 26 1
27 28 1
28 27 1
27 29 1
29 27 1
27 82 1
82 27 1
27 116 1
116 27 1
27 171 1
171 27 1
28 83 1
83 28 1
28 117 1
117 28 1
28 172 1
172 28 1
29 84 1
84 29 1
29 118 1
118 29 1
29 173 1
173 29 1
30 31 1
31 30 1
30 32 1
32 30 1
30 33 1
33 30 1
30 85 1
85 30 1
30 119 1
119 30 1
30 174 1
174 30 1
31 34 1
34 31 1
31 86 1
86 31 1
31 120 1
120 31 1
31 175 1
175 31 1
32 87 1
87 32 1
32 121 1
121 32 1
32 176 1
176 32 1
33 34 1
34 33 1
33 88 1
88 33 1
33 122 1
122 33 1
33 177 1
177 33 1
34 89 1
89 34 1
34 123 1
123 34 1
34 178 1
178 34 1
35 36 1
36 35 1
35 37 1
37 35 1
35 38 1
38 35 1
35 40 1
40 35 1
35 43 1
43 35 1
35 48 1
48 35 1
35 124 1
124 35 1
35 179 1
179 35 1
36 39 1
39 36 1
36 41 1
41 36 1
36 44 1
44 36 1
36 49 1
49 36 1
36 125 1
125 36 1
36 180 1
180 36 1
37 42 1
42 37 1
37 45 1
45 37 1
37 50 1
50 37 1
37 126 1
126 37 1
37 181 1
181 37 1
38 39 1
39 38 1
38 46 1
46 38 1
38 51 1
51 38 1
38 127 1
127 38 1
38 182 1
182 38 1
39 47 1
47 39 1
39 52 1
52 39 1
39 128 1
128 39 1
39 183 1
183 39 1
40 41 1
41 40 1
40 42 1
42 40 1
40 53 1
53 40 1
40 129 1
129 40 1
40 184 1
184 40 1
41 54 1
54 41 1
41 130 1
130 41 1
41 185 1
185 41 1
42 55 1
55 42 1
42 131 1
131 42 1
42 186 1
186 42 1
43 44 1
44 43 1
43 45 1
45 43 1
43 46 1
46 43 1
43 132 1
132 43 1
43 187 1
187 43 1
44 47 1
47 44 1
44 133 1
133 44 1
44 188 1
188 44 1
45 134 1
134 45 1
45 189 1
189 45 1
46 47 1
47 46 1
46 135 1
135 46 1
46 190 1
190 46 1
47 136 1
136 47 1
47 191 1
191 47 1
48 49 1
49 48 1
48 50 1
50 48 1
48 51 1
51 48 1
48 53 1
53 48 1
48 137 1
137 48 1
48 192 1
192 48 1
49 52 1
52 49 1
49 54 1
54 49 1
49 138 1
138 49 1
49 193 1
193 49 1
50 55 1
55 50 1
50 139 1
139 50 1
50 194 1
194 50 1
51 52 1
52 51 1
51 140 1
140 51 1
51 195 1
195 51 1
52 141 1
141 52 1
52 196 1
196 52 1
53 54 1
54 53 1
53 55 1
55 53 1
53 142 1
142 53 1
53 197 1
197 53 1
54 143 1
143 54 1
54 198 1
198 54 1
55 144 1
144 55 1
55 199 1
199 55 1
56 57 1
57 56 1
56 58 1
58 56 1
56 59 1
59 56 1
56 61 1
61 56 1
56 64 1
64 56 1
56 69 1
69 56 1
56 77 1
77 56 1
56 200 1
200 56 1
57 60 1
60 57 1
57 62 1
62 57 1
57 65 1
65 57 1
57 70 1
70 57 1
57 78 1
78 57 1
57 201 1
201 57 1
58 63 1
63 58 1
58 66 1
66 58 1
58 71 1
71 58 1
58 79 1
79 58 1
58 202 1
202 58 1
59 60 1
60 59 1
59 67 1
67 59 1
59 72 1
72 59 1
59 80 1
80 59 1
59 203 1
203 59 1
60 68 1
68 60 1
60 73 1
73 60 1
60 81 1
81 60 1
60 204 1
204 60 1
61 62 1
62 61 1
61 63 1
63 61 1
61 74 1
74 61 1
61 82 1
82 61 1
61 205 1
205 61 1
62 75 1
75 62 1
62 83 1
83 62 1
62 206 1
206 62 1
63 76 1
76 63 1
63 84 1
84 63 1
63 207 1
207 63 1
64 65 1
65 64 1
64 66 1
66 64 1
64 67 1
67 64 1
64 85 1
85 64 1
64 208 1
208 64 1
65 68 1
68 65 1
65 86 1
86 65 1
65 209 1
209 65 1
66 87 1
87 66 1
66 210 1
210 66 1
67 68 1
68 67 1
67 88 1
88 67 1
67 211 1
211 67 1
68 89 1
89 68 1
68 212 1
212 68 1
69 70 1
70 69 1
69 71 1
71 69 1
69 72 1
72 69 1
69 74 1
74 69 1
69 213 1
213 69 1
70 73 1
73 70 1
70 75 1
75 70 1
70 214 1
214 70 1
71 76 1
76 71 1
71 215 1
215 71 1
72 73 1
73 72 1
72 216 1
216 72 1
73 217 1
217 73 1
74 75 1
75 74 1
74 76 1
76 74 1
74 218 1
218 74 1
75 219 1
219 75 1
76 220 1
220 76 1
77 78 1
78 77 1
77 79 1
79 77 1
77 80 1
80 77 1
77 82 1
82 77 1
77 85 1
85 77 1
77 221 1
221 77 1
78 81 1
81 78 1
78 83 1
83 78 1
78 86 1
86 78 1
78 222 1
222 78 1
79 84 1
84 79 1
79 87 1
87 79 1
79 223 1
223 79 1
80 81 1
81 80 1
80 88 1
88 80 1
80 224 1
224 80 1
81 89 1
89 81 1
81 225 1
225 81 1
82 83 1
83 82 1
82 84 1
84 82 1
82 226 1
226 82 1
83 227 1
227 83 1
84 228 1
228 84 1
85 86 1
86 85 1
85 87 1
87 85 1
85 88 1
88 85 1
85 229 1
229 85 1
86 89 1
89 86 1
86 230 1
230 86 1
87 231 1
231 87 1
88 89 1
89 88 1
88 232 1
232 88 1
89 233 1
233 89 1
90 91 1
91 90 1
90 92 1
92 90 1
90 93 1
93 90 1
90 95 1
95 90 1
90 98 1
98 90 1
90 103 1
103 90 1
90 111 1
111 90 1
90 124 1
124 90 1
91 94 1
94 91 1
91 96 1
96 91 1
91 99 1
99 91 1
91 104 1
104 91 1
91 112 1
112 91 1
91 125 1
125 91 1
92 97 1
97 92 1
92 100 1
100 92 1
92 105 1
105 92 1
92 113 1
113 92 1
92 126 1
126 92 1
93 94 1
94 93 1
93 101 1
101 93 1
93 106 1
106 93 1
93 114 1
114 93 1
93 127 1
127 93 1
94 102 1
102 94 1
94 107 1
107 94 1
94 115 1
115 94 1
94 128 1
128 94 1
95 96 1
96 95 1
95 97 1
97 95 1
95 108 1
108 95 1
95 116 1
116 95 1
95 129 1
129 95 1
96 109 1
109 96 1
96 117 1
117 96 1
96 130 1
130 96 1
97 110 1
110 97 1
97 118 1
118 97 1
97 131 1
131 97 1
98 99 1
99 98 1
98 100 1
100 98 1
98 101 1
101 98 1
98 119 1
119 98 1
98 132 1
132 98 1
99 102 1
102 99 1
99 120 1
120 99 1
99 133 1
133 99 1
100 121 1
121 100 1
100 134 1
134 100 1
101 102 1
102 101 1
101 122 1
122 101 1
101 135 1
135 101 1
102 123 1
123 102 1
102 136 1
136 102 1
103 104 1
104 103 1
103 105 1
105 103 1
103 106 1
106 103 1
103 108 1
108 103 1
103 137 1
137 103 1
104 107 1
107 104 1
104 109 1
109 104 1
104 138 1
138 104 1
105 110 1
110 105 1
105 139 1
139 105 1
106 107 1
107 106 1
106 140 1
140 106 1
107 141 1
141 107 1
108 109 1
109 108 1
108 110 1
110 108 1
108 142 1
142 108 1
109 143 1
143 109 1
110 144 1
144 110 1
111 112 1
112 111 1
111 113 1
113 111 1
111 114 1
114 111 1
111 116 1
116 111 1
111 119 1
119 111 1
112 115 1
115 112 1
112 117 1
117 112 1
112 120 1
120 112 1
113 118 1
118 113 1
113 121 1
121 113 1
114 115 1
115 114 1
114 122 1
122 114 1
115 123 1
123 115 1
116 117 1
117 116 1
116 118 1
118 116 1
119 120 1
120 119 1
119 121 1
121 119 1
119 122 1
122 119 1
120 123 1
123 120 1
122 123 1
123 122 1
124 125 1
125 124 1
124 126 1
126 124 1
124 127 1
127 124 1
124 129 1
129 124 1
124 132 1
132 124 1
124 137 1
137 124 1
125 128 1
128 125 1
125 130 1
130 125 1
125 133 1
133 125 1
125 138 1
138 125 1
126 131 1
131 126 1
126 134 1
134 126 1
126 139 1
139 126 1
127 128 1
128 127 1
127 135 1
135 127 1
127 140 1
140 127 1
128 136 1
136 128 1
128 141 1
141 128 1
129 130 1
130 129 1
129 131 1
131 129 1
129 142 1
142 129 1
130 143 1
143 130 1
131 144 1
144 131 1
132 133 1
133 132 1
132 134 1
134 132 1
132 135 1
135 132 1
133 136 1
136 133 1
135 136 1
136 135 1
137 138 1
138 137 1
137 139 1
139 137 1
137 140 1
140 137 1
137 142 1
142 137 1
138 141 1
141 138 1
138 143 1
143 138 1
139 144 1
144 139 1
140 141 1
141 140 1
142 143 1
143 142 1
142 144 1
144 142 1
145 146 1
146 145 1
145 147 1
147 145 1
145 148 1
148 145 1
145 150 1
150 145 1
145 153 1
153 145 1
145 158 1
158 145 1
145 166 1
166 145 1
145 179 1
179 145 1
145 200 1
200 145 1
146 149 1
149 146 1
146 151 1
151 146 1
146 154 1
154 146 1
146 159 1
159 146 1
146 167 1
167 146 1
146 180 1
180 146 1
146 201 1
201 146 1
147 152 1
152 147 1
147 155 1
155 147 1
147 160 1
160 147 1
147 168 1
168 147 1
147 181 1
181 147 1
147 202 1
202 147 1
148 149 1
149 148 1
148 156 1
156 148 1
148 161 1
161 148 1
148 169 1
169 148 1
148 182 1
182 148 1
148 203 1
203 148 1
149 157 1
157 149 1
149 162 1
162 149 1
149 170 1
170 149 1
149 183 1
183 149 1
149 204 1
204 149 1
150 151 1
151 150 1
150 152 1
152 150 1
150 163 1
163 150 1
150 171 1
171 150 1
150 184 1
184 150 1
150 205 1
205 150 1
151 164 1
164 151 1
151 172 1
172 151 1
151 185 1
185 151 1
151 206 1
206 151 1
152 165 1
165 152 1
152 173 1
173 152 1
152 186 1
186 152 1
152 207 1
207 152 1
153 154 1
154 153 1
153 155 1
155 153 1
153 156 1
156 153 1
153 174 1
174 153 1
153 187 1
187 153 1
153 208 1
208 153 1
154 157 1
157 154 1
154 175 1
175 154 1
154 188 1
188 154 1
154 209 1
209 154 1
155 176 1
176 155 1
155 189 1
189 155 1
155 210 1
210 155 1
156 157 1
157 156 1
156 177 1
177 156 1
156 190 1
190 156 1
156 211 1
211 156 1
157 178 1
178 157 1
157 191 1
191 157 1
157 212 1
212 157 1
158 159 1
159 158 1
158 160 1
160 158 1
158 161 1
161 158 1
158 163 1
163 158 1
158 192 1
192 158 1
158 213 1
213 158 1
159 162 1
162 159 1
159 164 1
164 159 1
159 193 1
193 159 1
159 214 1
214 159 1
160 165 1
165 160 1
160 194 1
194 160 1
160 215 1
215 160 1
161 162 1
162 161 1
161 195 1
195 161 1
161 216 1
216 161 1
162 196 1
196 162 1
162 217 1
217 162 1
163 164 1
164 163 1
163 165 1
165 163 1
163 197 1
197 163 1
163 218 1
218 163 1
164 198 1
198 164 1
164 219 1
219 164 1
165 199 1
199 165 1
165 220 1
220 165 1
166 167 1
167 166 1
166 168 1
168 166 1
166 169 1
169 166 1
166 171 1
171 166 1
166 174 1
174 166 1
166 221 1
221 166 1
167 170 1
170 167 1
167 172 1
172 167 1
167 175 1
175 167 1
167 222 1
222 167 1
168 173 1
173 168 1
168 176 1
176 168 1
168 223 1
223 168 1
169 170 1
170 169 1
169 177 1
177 169 1
169 224 1
224 169 1
170 178 1
178 170 1
170 225 1
225 170 1
171 172 1
172 171 1
171 173 1
173 171 1
171 226 1
226 171 1
172 227 1
227 172 1
173 228 1
228 173 1
174 175 1
175 174 1
174 176 1
176 174 1
174 177 1
177 174 1
174 229 1
229 174 1
175 178 1
178 175 1
175 230 1
230 175 1
176 231 1
231 176 1
177 178 1
178 177 1
177 232 1
232 177 1
178 233 1
233 178 1
179 180 1
180 179 1
179 181 1
181 179 1
179 182 1
182 179 1
179 184 1
184 179 1
179 187 1
187 179 1
179 192 1
192 179 1
180 183 1
183 180 1
180 185 1
185 180 1
180 188 1
188 180 1
180 193 1
193 180 1
181 186 1
186 181 1
181 189 1
189 181 1
181 194 1
194 181 1
182 183 1
183 182 1
182 190 1
190 182 1
182 195 1
195 182 1
183 191 1
191 183 1
183 196 1
196 183 1
184 185 1
185 184 1
184 186 1
186 184 1
184 197 1
197 184 1
185 198 1
198 185 1
186 199 1
199 186 1
187 188 1
188 187 1
187 189 1
189 187 1
187 190 1
190 187 1
188 191 1
191 188 1
190 191 1
191 190 1
192 193 1
193 192 1
192 194 1
194 192 1
192 195 1
195 192 1
192 197 1
197 192 1
193 196 1
196 193 1
193 198 1
198 193 1
194 199 1
199 194 1
195 196 1
196 195 1
197 198 1
198 197 1
197 199 1
199 197 1
200 201 1
201 200 1
200 202 1
202 200 1
200 203 1
203 200 1
200 205 1
205 200 1
200 208 1
208 200 1
200 213 1
213 200 1
200 221 1
221 200 1
201 204 1
204 201 1
201 206 1
206 201 1
201 209 1
209 201 1
201 214 1
214 201 1
201 222 1
222 201 1
202 207 1
207 202 1
202 210 1
210 202 1
202 215 1
215 202 1
202 223 1
223 202 1
203 204 1
204 203 1
203 211 1
211 203 1
203 216 1
216 203 1
203 224 1
224 203 1
204 212 1
212 204 1
204 217 1
217 204 1
204 225 1
225 204 1
205 206 1
206 205 1
205 207 1
207 205 1
205 218 1
218 205 1
205 226 1
226 205 1
206 219 1
219 206 1
206 227 1
227 206 1
207 220 1
220 207 1
207 228 1
228 207 1
208 209 1
209 208 1
208 210 1
210 208 1
208 211 1
211 208 1
208 229 1
229 208 1
209 212 1
212 209 1
209 230 1
230 209 1
210 231 1
231 210 1
211 212 1
212 211 1
211 232 1
232 211 1
212 233 1
233 212 1
213 214 1
214 213 1
213 215 1
215 213 1
213 216 1
216 213 1
213 218 1
218 213 1
214 217 1
217 214 1
214 219 1
219 214 1
215 220 1
220 215 1
216 217 1
217 216 1
218 219 1
219 218 1
218 220 1
220 218 1
221 222 1
222 221 1
221 223 1
223 221 1
221 224 1
224 221 1
221 226 1
226 221 1
221 229 1
229 221 1
222 225 1
225 222 1
222 227 1
227 222 1
222 230 1
230 222 1
223 228 1
228 223 1
223 231 1
231 223 1
224 225 1
225 224 1
224 232 1
232 224 1
225 233 1
233 225 1
226 227 1
227 226 1
226 228 1
228 226 1
229 230 1
230 229 1
229 231 1
231 229 1
229 232 1
232 229 1
230 233 1
233 230 1
232 233 1
233 232 1
