%%MatrixMarket matrix coordinate integer general
%
200 200 2644
1 2 1
1 3 1
1 4 1
1 63 1
1 64 1
1 65 1
1 66 1
1 93 1
1 94 1
1 121 1
1 122 1
1 157 1
1 158 1
1 179 1
1 180 1
2 1 1
2 3 1
2 4 1
2 63 1
2 64 1
2 65 1
2 66 1
2 93 1
2 94 1
2 121 1
2 122 1
2 157 1
2 158 1
2 179 1
2 180 1
3 1 1
3 2 1
3 4 1
3 63 1
3 64 1
3 65 1
3 66 1
3 93 1
3 94 1
3 121 1
3 122 1
3 157 1
3 158 1
3 179 1
3 180 1
4 1 1
4 2 1
4 3 1
4 63 1
4 64 1
4 65 1
4 66 1
4 93 1
4 94 1
4 121 1
4 122 1
4 157 1
4 158 1
4 179 1
4 180 1
5 6 1
5 7 1
5 8 1
6 5 1
7 5 1
7 8 1
7 9 1
7 10 1
8 5 1
8 7 1
8 9 1
8 10 1
8 151 1
8 186 1
8 200 1
9 7 1
9 8 1
9 10 1
9 53 1
10 7 1
10 8 1
10 9 1
10 54 1
11 12 1
11 13 1
11 14 1
11 131 1
11 132 1
11 173 1
11 174 1
11 177 1
11 178 1
12 11 1
12 13 1
12 14 1
12 131 1
12 132 1
12 173 1
12 174 1
12 177 1
12 178 1
12 181 1
13 11 1
13 12 1
13 14 1
13 131 1
13 132 1
13 173 1
13 174 1
13 177 1
13 178 1
14 11 1
14 12 1
14 13 1
14 131 1
14 132 1
14 173 1
14 174 1
14 177 1
14 178 1
14 181 1
15 16 1
15 17 1
15 18 1
15 39 1
15 40 1
15 41 1
15 42 1
15 43 1
15 44 1
15 45 1
15 46 1
15 47 1
15 48 1
15 73 1
15 74 1
15 75 1
15 76 1
15 159 1
15 160 1
15 161 1
15 162 1
15 163 1
15 164 1
15 165 1
15 166 1
15 167 1
15 168 1
15 184 1
16 15 1
16 17 1
16 18 1
16 39 1
16 40 1
16 41 1
16 42 1
16 43 1
16 44 1
16 45 1
16 46 1
16 47 1
16 48 1
16 73 1
16 74 1
16 75 1
16 76 1
16 159 1
16 160 1
16 161 1
16 162 1
16 163 1
16 164 1
16 165 1
16 166 1
16 167 1
16 168 1
17 15 1
17 16 1
17 18 1
17 39 1
17 40 1
17 41 1
17 42 1
17 43 1
17 44 1
17 45 1
17 46 1
17 47 1
17 48 1
17 73 1
17 74 1
17 75 1
17 76 1
17 159 1
17 160 1
17 161 1
17 162 1
17 163 1
17 164 1
17 165 1
17 166 1
17 167 1
17 168 1
17 184 1
18 15 1
18 16 1
18 17 1
18 39 1
18 40 1
18 41 1
18 42 1
18 43 1
18 44 1
18 45 1
18 46 1
18 47 1
18 48 1
18 73 1
18 74 1
18 75 1
18 76 1
18 159 1
18 160 1
18 161 1
18 162 1
18 163 1
18 164 1
18 165 1
18 166 1
18 167 1
18 168 1
19 20 1
19 29 1
19 30 1
19 67 1
19 68 1
19 69 1
19 70 1
19 81 1
19 84 1
19 175 1
20 19 1
20 29 1
20 30 1
20 67 1
20 68 1
20 69 1
20 70 1
20 81 1
20 82 1
20 84 1
20 176 1
21 22 1
21 23 1
21 24 1
21 77 1
21 78 1
21 97 1
21 98 1
21 101 1
21 102 1
21 113 1
21 114 1
21 135 1
21 136 1
21 197 1
21 198 1
22 21 1
22 23 1
22 24 1
22 77 1
22 78 1
22 97 1
22 98 1
22 101 1
22 102 1
22 113 1
22 114 1
22 135 1
22 136 1
22 197 1
22 198 1
23 21 1
23 22 1
23 24 1
23 79 1
23 80 1
24 21 1
24 22 1
24 23 1
24 79 1
24 80 1
25 26 1
25 49 1
25 50 1
25 57 1
25 58 1
25 59 1
25 60 1
25 61 1
25 62 1
25 77 1
25 78 1
25 87 1
25 88 1
26 25 1
26 49 1
26 50 1
26 57 1
26 58 1
26 59 1
26 60 1
26 61 1
26 62 1
26 77 1
26 78 1
26 87 1
26 88 1
27 28 1
28 27 1
28 126 1
29 19 1
29 20 1
29 30 1
29 67 1
29 68 1
29 69 1
29 70 1
29 82 1
29 84 1
29 169 1
29 170 1
29 175 1
29 176 1
30 19 1
30 20 1
30 29 1
30 67 1
30 68 1
30 69 1
30 70 1
30 81 1
30 169 1
30 170 1
30 175 1
30 176 1
31 32 1
31 33 1
31 34 1
31 95 1
31 96 1
31 125 1
31 126 1
31 149 1
31 150 1
32 31 1
32 33 1
32 34 1
32 95 1
32 96 1
32 108 1
32 125 1
32 126 1
32 149 1
32 150 1
33 31 1
33 32 1
33 34 1
33 95 1
33 96 1
33 125 1
33 126 1
33 149 1
33 150 1
34 31 1
34 32 1
34 33 1
34 95 1
34 96 1
34 108 1
34 125 1
34 126 1
34 149 1
34 150 1
35 36 1
35 37 1
35 38 1
35 39 1
35 40 1
35 41 1
35 42 1
35 43 1
35 44 1
35 55 1
35 56 1
35 91 1
35 92 1
35 105 1
35 106 1
35 130 1
35 141 1
35 142 1
35 159 1
35 160 1
35 161 1
35 162 1
35 163 1
35 164 1
35 183 1
36 35 1
36 37 1
36 38 1
36 39 1
36 40 1
36 41 1
36 42 1
36 43 1
36 44 1
36 55 1
36 56 1
36 91 1
36 92 1
36 105 1
36 106 1
36 130 1
36 141 1
36 142 1
36 159 1
36 160 1
36 161 1
36 162 1
36 163 1
36 164 1
37 35 1
37 36 1
37 38 1
37 39 1
37 40 1
37 41 1
37 42 1
37 43 1
37 44 1
37 55 1
37 56 1
37 91 1
37 92 1
37 105 1
37 106 1
37 130 1
37 141 1
37 142 1
37 159 1
37 160 1
37 161 1
37 162 1
37 163 1
37 164 1
37 183 1
38 35 1
38 36 1
38 37 1
38 39 1
38 40 1
38 41 1
38 42 1
38 43 1
38 44 1
38 55 1
38 56 1
38 91 1
38 92 1
38 105 1
38 106 1
38 130 1
38 141 1
38 142 1
38 159 1
38 160 1
38 161 1
38 162 1
38 163 1
38 164 1
39 15 1
39 16 1
39 17 1
39 18 1
39 35 1
39 36 1
39 37 1
39 38 1
39 40 1
39 41 1
39 42 1
39 43 1
39 44 1
39 91 1
39 92 1
39 105 1
39 106 1
39 129 1
39 159 1
39 160 1
39 161 1
39 162 1
39 163 1
39 164 1
39 165 1
39 166 1
39 167 1
39 168 1
40 15 1
40 16 1
40 17 1
40 18 1
40 35 1
40 36 1
40 37 1
40 38 1
40 39 1
40 41 1
40 42 1
40 43 1
40 44 1
40 91 1
40 92 1
40 105 1
40 106 1
40 129 1
40 130 1
40 159 1
40 160 1
40 161 1
40 162 1
40 163 1
40 164 1
40 165 1
40 166 1
40 167 1
40 168 1
40 183 1
41 15 1
41 16 1
41 17 1
41 18 1
41 35 1
41 36 1
41 37 1
41 38 1
41 39 1
41 40 1
41 42 1
41 43 1
41 44 1
41 91 1
41 92 1
41 105 1
41 106 1
41 129 1
41 159 1
41 160 1
41 161 1
41 162 1
41 163 1
41 164 1
41 165 1
41 166 1
41 167 1
41 168 1
42 15 1
42 16 1
42 17 1
42 18 1
42 35 1
42 36 1
42 37 1
42 38 1
42 39 1
42 40 1
42 41 1
42 43 1
42 44 1
42 91 1
42 92 1
42 105 1
42 106 1
42 129 1
42 130 1
42 159 1
42 160 1
42 161 1
42 162 1
42 163 1
42 164 1
42 165 1
42 166 1
42 167 1
42 168 1
42 183 1
43 15 1
43 16 1
43 17 1
43 18 1
43 35 1
43 36 1
43 37 1
43 38 1
43 39 1
43 40 1
43 41 1
43 42 1
43 44 1
43 45 1
43 46 1
43 47 1
43 48 1
43 73 1
43 74 1
43 75 1
43 76 1
43 91 1
43 92 1
43 105 1
43 106 1
43 159 1
43 160 1
43 161 1
43 162 1
43 163 1
43 164 1
43 165 1
43 166 1
43 167 1
43 168 1
44 15 1
44 16 1
44 17 1
44 18 1
44 35 1
44 36 1
44 37 1
44 38 1
44 39 1
44 40 1
44 41 1
44 42 1
44 43 1
44 45 1
44 46 1
44 47 1
44 48 1
44 73 1
44 74 1
44 75 1
44 76 1
44 91 1
44 92 1
44 105 1
44 106 1
44 129 1
44 159 1
44 160 1
44 161 1
44 162 1
44 163 1
44 164 1
44 165 1
44 166 1
44 167 1
44 168 1
45 15 1
45 16 1
45 17 1
45 18 1
45 43 1
45 44 1
45 46 1
45 47 1
45 48 1
45 73 1
45 74 1
45 75 1
45 76 1
45 159 1
45 160 1
45 165 1
45 166 1
45 167 1
45 168 1
46 15 1
46 16 1
46 17 1
46 18 1
46 43 1
46 44 1
46 45 1
46 47 1
46 48 1
46 73 1
46 74 1
46 75 1
46 76 1
46 159 1
46 160 1
46 165 1
46 166 1
46 167 1
46 168 1
47 15 1
47 16 1
47 17 1
47 18 1
47 43 1
47 44 1
47 45 1
47 46 1
47 48 1
47 73 1
47 74 1
47 75 1
47 76 1
47 159 1
47 160 1
47 165 1
47 166 1
47 167 1
47 168 1
48 15 1
48 16 1
48 17 1
48 18 1
48 43 1
48 44 1
48 45 1
48 46 1
48 47 1
48 73 1
48 74 1
48 75 1
48 76 1
48 106 1
48 159 1
48 160 1
48 165 1
48 166 1
48 167 1
48 168 1
49 25 1
49 26 1
49 50 1
49 57 1
49 58 1
49 59 1
49 60 1
49 61 1
49 62 1
49 87 1
49 88 1
50 25 1
50 26 1
50 49 1
50 57 1
50 58 1
50 59 1
50 60 1
50 61 1
50 62 1
50 87 1
50 88 1
51 52 1
51 86 1
51 128 1
52 51 1
52 85 1
52 127 1
53 9 1
53 54 1
53 55 1
53 56 1
53 186 1
54 10 1
54 53 1
54 55 1
54 56 1
54 179 1
54 180 1
55 35 1
55 36 1
55 37 1
55 38 1
55 53 1
55 54 1
55 56 1
55 141 1
55 142 1
56 35 1
56 36 1
56 37 1
56 38 1
56 53 1
56 54 1
56 55 1
56 141 1
56 142 1
57 25 1
57 26 1
57 49 1
57 50 1
57 58 1
57 59 1
57 60 1
57 61 1
57 62 1
57 87 1
57 88 1
57 134 1
58 25 1
58 26 1
58 49 1
58 50 1
58 57 1
58 59 1
58 60 1
58 61 1
58 62 1
58 87 1
58 88 1
59 25 1
59 26 1
59 49 1
59 50 1
59 57 1
59 58 1
59 60 1
59 61 1
59 62 1
59 87 1
59 88 1
59 134 1
60 25 1
60 26 1
60 49 1
60 50 1
60 57 1
60 58 1
60 59 1
60 61 1
60 62 1
60 87 1
60 88 1
61 25 1
61 26 1
61 49 1
61 50 1
61 57 1
61 58 1
61 59 1
61 60 1
61 62 1
61 87 1
61 88 1
62 25 1
62 26 1
62 49 1
62 50 1
62 57 1
62 58 1
62 59 1
62 60 1
62 61 1
62 87 1
62 88 1
63 1 1
63 2 1
63 3 1
63 4 1
63 64 1
63 65 1
63 66 1
63 93 1
63 94 1
63 116 1
63 121 1
63 122 1
63 143 1
63 157 1
63 158 1
63 179 1
63 180 1
64 1 1
64 2 1
64 3 1
64 4 1
64 63 1
64 65 1
64 66 1
64 93 1
64 94 1
64 121 1
64 122 1
64 157 1
64 158 1
64 179 1
64 180 1
65 1 1
65 2 1
65 3 1
65 4 1
65 63 1
65 64 1
65 66 1
65 93 1
65 94 1
65 116 1
65 121 1
65 122 1
65 143 1
65 157 1
65 158 1
65 179 1
65 180 1
66 1 1
66 2 1
66 3 1
66 4 1
66 63 1
66 64 1
66 65 1
66 93 1
66 94 1
66 121 1
66 122 1
66 157 1
66 158 1
66 179 1
66 180 1
67 19 1
67 20 1
67 29 1
67 30 1
67 68 1
67 69 1
67 70 1
67 82 1
67 84 1
67 169 1
67 170 1
67 175 1
67 176 1
68 19 1
68 20 1
68 29 1
68 30 1
68 67 1
68 69 1
68 70 1
68 83 1
68 169 1
68 170 1
68 175 1
68 176 1
69 19 1
69 20 1
69 29 1
69 30 1
69 67 1
69 68 1
69 70 1
69 82 1
69 84 1
69 169 1
69 170 1
69 175 1
69 176 1
70 19 1
70 20 1
70 29 1
70 30 1
70 67 1
70 68 1
70 69 1
70 83 1
70 169 1
70 170 1
70 175 1
70 176 1
71 72 1
71 79 1
71 80 1
71 113 1
71 114 1
71 145 1
71 146 1
72 71 1
72 79 1
72 80 1
72 100 1
72 113 1
72 114 1
72 123 1
72 145 1
72 146 1
72 147 1
73 15 1
73 16 1
73 17 1
73 18 1
73 43 1
73 44 1
73 45 1
73 46 1
73 47 1
73 48 1
73 74 1
73 75 1
73 76 1
73 159 1
73 160 1
73 165 1
73 166 1
73 167 1
73 168 1
74 15 1
74 16 1
74 17 1
74 18 1
74 43 1
74 44 1
74 45 1
74 46 1
74 47 1
74 48 1
74 73 1
74 75 1
74 76 1
74 159 1
74 160 1
74 165 1
74 166 1
74 167 1
74 168 1
75 15 1
75 16 1
75 17 1
75 18 1
75 43 1
75 44 1
75 45 1
75 46 1
75 47 1
75 48 1
75 73 1
75 74 1
75 76 1
75 159 1
75 160 1
75 165 1
75 166 1
75 167 1
75 168 1
76 15 1
76 16 1
76 17 1
76 18 1
76 43 1
76 44 1
76 45 1
76 46 1
76 47 1
76 48 1
76 73 1
76 74 1
76 75 1
76 159 1
76 160 1
76 165 1
76 166 1
76 167 1
76 168 1
77 21 1
77 22 1
77 25 1
77 26 1
77 78 1
77 87 1
77 88 1
77 97 1
77 98 1
77 101 1
77 102 1
77 113 1
77 114 1
77 135 1
77 136 1
77 197 1
77 198 1
78 21 1
78 22 1
78 25 1
78 26 1
78 77 1
78 87 1
78 88 1
78 97 1
78 98 1
78 101 1
78 102 1
78 113 1
78 114 1
78 135 1
78 136 1
78 197 1
78 198 1
79 23 1
79 24 1
79 71 1
79 72 1
79 80 1
79 113 1
79 114 1
79 145 1
79 146 1
80 23 1
80 24 1
80 71 1
80 72 1
80 79 1
80 113 1
80 114 1
80 145 1
80 146 1
81 19 1
81 20 1
81 30 1
81 82 1
81 83 1
81 84 1
82 20 1
82 29 1
82 67 1
82 69 1
82 81 1
82 83 1
82 84 1
83 68 1
83 70 1
83 81 1
83 82 1
83 84 1
84 19 1
84 20 1
84 29 1
84 67 1
84 69 1
84 81 1
84 82 1
84 83 1
85 52 1
85 86 1
85 127 1
85 128 1
86 51 1
86 85 1
86 127 1
86 128 1
87 25 1
87 26 1
87 49 1
87 50 1
87 57 1
87 58 1
87 59 1
87 60 1
87 61 1
87 62 1
87 77 1
87 78 1
87 88 1
88 25 1
88 26 1
88 49 1
88 50 1
88 57 1
88 58 1
88 59 1
88 60 1
88 61 1
88 62 1
88 77 1
88 78 1
88 87 1
89 90 1
89 119 1
89 120 1
90 89 1
90 119 1
90 120 1
91 35 1
91 36 1
91 37 1
91 38 1
91 39 1
91 40 1
91 41 1
91 42 1
91 43 1
91 44 1
91 92 1
91 105 1
91 106 1
91 129 1
91 130 1
91 159 1
91 160 1
91 161 1
91 162 1
91 163 1
91 164 1
91 183 1
91 184 1
92 35 1
92 36 1
92 37 1
92 38 1
92 39 1
92 40 1
92 41 1
92 42 1
92 43 1
92 44 1
92 91 1
92 105 1
92 106 1
92 129 1
92 130 1
92 159 1
92 160 1
92 161 1
92 162 1
92 163 1
92 164 1
92 183 1
92 184 1
93 1 1
93 2 1
93 3 1
93 4 1
93 63 1
93 64 1
93 65 1
93 66 1
93 94 1
93 115 1
93 116 1
93 119 1
93 120 1
93 121 1
93 122 1
93 131 1
93 132 1
93 157 1
93 158 1
93 179 1
93 180 1
93 181 1
93 182 1
94 1 1
94 2 1
94 3 1
94 4 1
94 63 1
94 64 1
94 65 1
94 66 1
94 93 1
94 115 1
94 116 1
94 119 1
94 120 1
94 121 1
94 122 1
94 131 1
94 132 1
94 157 1
94 158 1
94 179 1
94 180 1
94 181 1
94 182 1
95 31 1
95 32 1
95 33 1
95 34 1
95 96 1
95 99 1
95 100 1
95 123 1
95 124 1
95 125 1
95 126 1
95 147 1
95 148 1
96 31 1
96 32 1
96 33 1
96 34 1
96 95 1
96 99 1
96 100 1
96 123 1
96 124 1
96 125 1
96 126 1
96 147 1
96 148 1
97 21 1
97 22 1
97 77 1
97 78 1
97 98 1
97 101 1
97 102 1
97 113 1
97 114 1
97 127 1
97 128 1
97 135 1
97 136 1
97 197 1
97 198 1
98 21 1
98 22 1
98 77 1
98 78 1
98 97 1
98 101 1
98 102 1
98 113 1
98 114 1
98 127 1
98 128 1
98 135 1
98 136 1
98 197 1
98 198 1
99 95 1
99 96 1
99 100 1
99 107 1
99 108 1
99 109 1
99 110 1
99 123 1
99 124 1
99 147 1
99 148 1
99 171 1
99 172 1
99 179 1
99 180 1
100 72 1
100 95 1
100 96 1
100 99 1
100 107 1
100 108 1
100 109 1
100 110 1
100 123 1
100 124 1
100 147 1
100 148 1
100 149 1
100 171 1
100 172 1
101 21 1
101 22 1
101 77 1
101 78 1
101 97 1
101 98 1
101 102 1
101 113 1
101 114 1
101 135 1
101 136 1
101 197 1
101 198 1
102 21 1
102 22 1
102 77 1
102 78 1
102 97 1
102 98 1
102 101 1
102 113 1
102 114 1
102 135 1
102 136 1
102 197 1
102 198 1
103 104 1
103 135 1
103 136 1
103 139 1
103 140 1
103 196 1
104 103 1
104 135 1
104 136 1
104 139 1
104 140 1
105 35 1
105 36 1
105 37 1
105 38 1
105 39 1
105 40 1
105 41 1
105 42 1
105 43 1
105 44 1
105 91 1
105 92 1
105 106 1
105 129 1
105 130 1
105 159 1
105 160 1
105 161 1
105 162 1
105 163 1
105 164 1
106 35 1
106 36 1
106 37 1
106 38 1
106 39 1
106 40 1
106 41 1
106 42 1
106 43 1
106 44 1
106 48 1
106 91 1
106 92 1
106 105 1
106 129 1
106 130 1
106 159 1
106 160 1
106 161 1
106 162 1
106 163 1
106 164 1
107 99 1
107 100 1
107 108 1
107 109 1
107 110 1
107 171 1
107 172 1
108 32 1
108 34 1
108 99 1
108 100 1
108 107 1
108 109 1
108 110 1
108 171 1
108 172 1
108 179 1
108 180 1
109 99 1
109 100 1
109 107 1
109 108 1
109 110 1
109 171 1
109 172 1
109 179 1
110 99 1
110 100 1
110 107 1
110 108 1
110 109 1
110 171 1
110 172 1
111 112 1
111 117 1
111 118 1
111 133 1
111 134 1
112 111 1
112 117 1
112 118 1
112 133 1
112 134 1
113 21 1
113 22 1
113 71 1
113 72 1
113 77 1
113 78 1
113 79 1
113 80 1
113 97 1
113 98 1
113 101 1
113 102 1
113 114 1
113 135 1
113 136 1
113 145 1
113 146 1
113 179 1
113 197 1
113 198 1
114 21 1
114 22 1
114 71 1
114 72 1
114 77 1
114 78 1
114 79 1
114 80 1
114 97 1
114 98 1
114 101 1
114 102 1
114 113 1
114 135 1
114 136 1
114 145 1
114 146 1
114 197 1
114 198 1
115 93 1
115 94 1
115 116 1
115 119 1
115 120 1
115 131 1
115 132 1
115 143 1
115 144 1
115 157 1
115 158 1
115 179 1
115 180 1
115 181 1
115 182 1
116 63 1
116 65 1
116 93 1
116 94 1
116 115 1
116 119 1
116 120 1
116 131 1
116 132 1
116 143 1
116 144 1
116 157 1
116 158 1
116 179 1
116 180 1
116 181 1
116 182 1
117 111 1
117 112 1
117 118 1
117 123 1
117 124 1
117 133 1
117 134 1
118 111 1
118 112 1
118 117 1
118 123 1
118 124 1
118 133 1
118 134 1
119 89 1
119 90 1
119 93 1
119 94 1
119 115 1
119 116 1
119 120 1
119 131 1
119 132 1
119 157 1
119 158 1
119 179 1
119 180 1
119 181 1
119 182 1
120 89 1
120 90 1
120 93 1
120 94 1
120 115 1
120 116 1
120 119 1
120 131 1
120 132 1
120 157 1
120 158 1
120 180 1
120 181 1
120 182 1
121 1 1
121 2 1
121 3 1
121 4 1
121 63 1
121 64 1
121 65 1
121 66 1
121 93 1
121 94 1
121 122 1
121 157 1
121 158 1
121 171 1
121 172 1
121 179 1
121 180 1
122 1 1
122 2 1
122 3 1
122 4 1
122 63 1
122 64 1
122 65 1
122 66 1
122 93 1
122 94 1
122 121 1
122 157 1
122 158 1
122 171 1
122 172 1
122 179 1
122 180 1
123 72 1
123 95 1
123 96 1
123 99 1
123 100 1
123 117 1
123 118 1
123 124 1
123 147 1
123 148 1
124 95 1
124 96 1
124 99 1
124 100 1
124 117 1
124 118 1
124 123 1
124 147 1
124 148 1
125 31 1
125 32 1
125 33 1
125 34 1
125 95 1
125 96 1
125 126 1
126 28 1
126 31 1
126 32 1
126 33 1
126 34 1
126 95 1
126 96 1
126 125 1
127 52 1
127 85 1
127 86 1
127 97 1
127 98 1
127 128 1
128 51 1
128 85 1
128 86 1
128 97 1
128 98 1
128 127 1
129 39 1
129 40 1
129 41 1
129 42 1
129 44 1
129 91 1
129 92 1
129 105 1
129 106 1
129 130 1
129 160 1
129 161 1
129 162 1
129 163 1
129 164 1
129 183 1
129 184 1
130 35 1
130 36 1
130 37 1
130 38 1
130 40 1
130 42 1
130 91 1
130 92 1
130 105 1
130 106 1
130 129 1
130 162 1
130 164 1
130 183 1
130 184 1
131 11 1
131 12 1
131 13 1
131 14 1
131 93 1
131 94 1
131 115 1
131 116 1
131 119 1
131 120 1
131 132 1
131 157 1
131 158 1
131 173 1
131 174 1
131 177 1
131 178 1
131 180 1
131 181 1
131 182 1
132 11 1
132 12 1
132 13 1
132 14 1
132 93 1
132 94 1
132 115 1
132 116 1
132 119 1
132 120 1
132 131 1
132 157 1
132 158 1
132 173 1
132 174 1
132 177 1
132 178 1
132 179 1
132 180 1
132 181 1
132 182 1
133 111 1
133 112 1
133 117 1
133 118 1
133 134 1
134 57 1
134 59 1
134 111 1
134 112 1
134 117 1
134 118 1
134 133 1
135 21 1
135 22 1
135 77 1
135 78 1
135 97 1
135 98 1
135 101 1
135 102 1
135 103 1
135 104 1
135 113 1
135 114 1
135 136 1
135 139 1
135 140 1
135 197 1
135 198 1
136 21 1
136 22 1
136 77 1
136 78 1
136 97 1
136 98 1
136 101 1
136 102 1
136 103 1
136 104 1
136 113 1
136 114 1
136 135 1
136 139 1
136 140 1
136 197 1
136 198 1
137 138 1
137 139 1
137 140 1
138 137 1
138 139 1
138 140 1
139 103 1
139 104 1
139 135 1
139 136 1
139 137 1
139 138 1
139 140 1
140 103 1
140 104 1
140 135 1
140 136 1
140 137 1
140 138 1
140 139 1
141 35 1
141 36 1
141 37 1
141 38 1
141 55 1
141 56 1
141 142 1
141 143 1
141 144 1
141 180 1
142 35 1
142 36 1
142 37 1
142 38 1
142 55 1
142 56 1
142 141 1
142 143 1
142 144 1
142 180 1
143 63 1
143 65 1
143 115 1
143 116 1
143 141 1
143 142 1
143 144 1
143 179 1
143 180 1
144 115 1
144 116 1
144 141 1
144 142 1
144 143 1
144 179 1
145 71 1
145 72 1
145 79 1
145 80 1
145 113 1
145 114 1
145 146 1
145 147 1
145 148 1
145 179 1
146 71 1
146 72 1
146 79 1
146 80 1
146 113 1
146 114 1
146 145 1
146 147 1
146 148 1
146 179 1
147 72 1
147 95 1
147 96 1
147 99 1
147 100 1
147 123 1
147 124 1
147 145 1
147 146 1
147 148 1
148 95 1
148 96 1
148 99 1
148 100 1
148 123 1
148 124 1
148 145 1
148 146 1
148 147 1
148 179 1
149 31 1
149 32 1
149 33 1
149 34 1
149 100 1
149 150 1
149 153 1
149 154 1
150 31 1
150 32 1
150 33 1
150 34 1
150 149 1
150 153 1
150 154 1
151 8 1
151 152 1
152 151 1
153 149 1
153 150 1
153 154 1
154 149 1
154 150 1
154 153 1
155 156 1
155 169 1
155 170 1
155 173 1
155 174 1
156 155 1
156 169 1
156 170 1
156 173 1
156 174 1
157 1 1
157 2 1
157 3 1
157 4 1
157 63 1
157 64 1
157 65 1
157 66 1
157 93 1
157 94 1
157 115 1
157 116 1
157 119 1
157 120 1
157 121 1
157 122 1
157 131 1
157 132 1
157 158 1
157 179 1
157 180 1
157 181 1
157 182 1
158 1 1
158 2 1
158 3 1
158 4 1
158 63 1
158 64 1
158 65 1
158 66 1
158 93 1
158 94 1
158 115 1
158 116 1
158 119 1
158 120 1
158 121 1
158 122 1
158 131 1
158 132 1
158 157 1
158 179 1
158 180 1
158 181 1
158 182 1
159 15 1
159 16 1
159 17 1
159 18 1
159 35 1
159 36 1
159 37 1
159 38 1
159 39 1
159 40 1
159 41 1
159 42 1
159 43 1
159 44 1
159 45 1
159 46 1
159 47 1
159 48 1
159 73 1
159 74 1
159 75 1
159 76 1
159 91 1
159 92 1
159 105 1
159 106 1
159 160 1
159 161 1
159 162 1
159 163 1
159 164 1
159 165 1
159 166 1
159 167 1
159 168 1
160 15 1
160 16 1
160 17 1
160 18 1
160 35 1
160 36 1
160 37 1
160 38 1
160 39 1
160 40 1
160 41 1
160 42 1
160 43 1
160 44 1
160 45 1
160 46 1
160 47 1
160 48 1
160 73 1
160 74 1
160 75 1
160 76 1
160 91 1
160 92 1
160 105 1
160 106 1
160 129 1
160 159 1
160 161 1
160 162 1
160 163 1
160 164 1
160 165 1
160 166 1
160 167 1
160 168 1
161 15 1
161 16 1
161 17 1
161 18 1
161 35 1
161 36 1
161 37 1
161 38 1
161 39 1
161 40 1
161 41 1
161 42 1
161 43 1
161 44 1
161 91 1
161 92 1
161 105 1
161 106 1
161 129 1
161 159 1
161 160 1
161 162 1
161 163 1
161 164 1
161 165 1
161 166 1
161 167 1
161 168 1
162 15 1
162 16 1
162 17 1
162 18 1
162 35 1
162 36 1
162 37 1
162 38 1
162 39 1
162 40 1
162 41 1
162 42 1
162 43 1
162 44 1
162 91 1
162 92 1
162 105 1
162 106 1
162 129 1
162 130 1
162 159 1
162 160 1
162 161 1
162 163 1
162 164 1
162 165 1
162 166 1
162 167 1
162 168 1
162 183 1
163 15 1
163 16 1
163 17 1
163 18 1
163 35 1
163 36 1
163 37 1
163 38 1
163 39 1
163 40 1
163 41 1
163 42 1
163 43 1
163 44 1
163 91 1
163 92 1
163 105 1
163 106 1
163 129 1
163 159 1
163 160 1
163 161 1
163 162 1
163 164 1
163 165 1
163 166 1
163 167 1
163 168 1
164 15 1
164 16 1
164 17 1
164 18 1
164 35 1
164 36 1
164 37 1
164 38 1
164 39 1
164 40 1
164 41 1
164 42 1
164 43 1
164 44 1
164 91 1
164 92 1
164 105 1
164 106 1
164 129 1
164 130 1
164 159 1
164 160 1
164 161 1
164 162 1
164 163 1
164 165 1
164 166 1
164 167 1
164 168 1
164 183 1
165 15 1
165 16 1
165 17 1
165 18 1
165 39 1
165 40 1
165 41 1
165 42 1
165 43 1
165 44 1
165 45 1
165 46 1
165 47 1
165 48 1
165 73 1
165 74 1
165 75 1
165 76 1
165 159 1
165 160 1
165 161 1
165 162 1
165 163 1
165 164 1
165 166 1
165 167 1
165 168 1
165 184 1
166 15 1
166 16 1
166 17 1
166 18 1
166 39 1
166 40 1
166 41 1
166 42 1
166 43 1
166 44 1
166 45 1
166 46 1
166 47 1
166 48 1
166 73 1
166 74 1
166 75 1
166 76 1
166 159 1
166 160 1
166 161 1
166 162 1
166 163 1
166 164 1
166 165 1
166 167 1
166 168 1
167 15 1
167 16 1
167 17 1
167 18 1
167 39 1
167 40 1
167 41 1
167 42 1
167 43 1
167 44 1
167 45 1
167 46 1
167 47 1
167 48 1
167 73 1
167 74 1
167 75 1
167 76 1
167 159 1
167 160 1
167 161 1
167 162 1
167 163 1
167 164 1
167 165 1
167 166 1
167 168 1
167 184 1
168 15 1
168 16 1
168 17 1
168 18 1
168 39 1
168 40 1
168 41 1
168 42 1
168 43 1
168 44 1
168 45 1
168 46 1
168 47 1
168 48 1
168 73 1
168 74 1
168 75 1
168 76 1
168 159 1
168 160 1
168 161 1
168 162 1
168 163 1
168 164 1
168 165 1
168 166 1
168 167 1
169 29 1
169 30 1
169 67 1
169 68 1
169 69 1
169 70 1
169 155 1
169 156 1
169 170 1
169 173 1
169 174 1
169 175 1
169 176 1
170 29 1
170 30 1
170 67 1
170 68 1
170 69 1
170 70 1
170 155 1
170 156 1
170 169 1
170 173 1
170 174 1
170 175 1
170 176 1
171 99 1
171 100 1
171 107 1
171 108 1
171 109 1
171 110 1
171 121 1
171 122 1
171 172 1
171 179 1
172 99 1
172 100 1
172 107 1
172 108 1
172 109 1
172 110 1
172 121 1
172 122 1
172 171 1
172 179 1
172 180 1
173 11 1
173 12 1
173 13 1
173 14 1
173 131 1
173 132 1
173 155 1
173 156 1
173 169 1
173 170 1
173 174 1
173 177 1
173 178 1
173 179 1
173 180 1
174 11 1
174 12 1
174 13 1
174 14 1
174 131 1
174 132 1
174 155 1
174 156 1
174 169 1
174 170 1
174 173 1
174 177 1
174 178 1
175 19 1
175 29 1
175 30 1
175 67 1
175 68 1
175 69 1
175 70 1
175 169 1
175 170 1
175 176 1
176 20 1
176 29 1
176 30 1
176 67 1
176 68 1
176 69 1
176 70 1
176 169 1
176 170 1
176 175 1
177 11 1
177 12 1
177 13 1
177 14 1
177 131 1
177 132 1
177 173 1
177 174 1
177 178 1
177 179 1
178 11 1
178 12 1
178 13 1
178 14 1
178 131 1
178 132 1
178 173 1
178 174 1
178 177 1
179 1 1
179 2 1
179 3 1
179 4 1
179 54 1
179 63 1
179 64 1
179 65 1
179 66 1
179 93 1
179 94 1
179 99 1
179 108 1
179 109 1
179 113 1
179 115 1
179 116 1
179 119 1
179 121 1
179 122 1
179 132 1
179 143 1
179 144 1
179 145 1
179 146 1
179 148 1
179 157 1
179 158 1
179 171 1
179 172 1
179 173 1
179 177 1
179 180 1
179 181 1
179 182 1
179 186 1
179 187 1
179 188 1
179 189 1
179 190 1
179 191 1
179 195 1
179 196 1
179 198 1
180 1 1
180 2 1
180 3 1
180 4 1
180 54 1
180 63 1
180 64 1
180 65 1
180 66 1
180 93 1
180 94 1
180 99 1
180 108 1
180 115 1
180 116 1
180 119 1
180 120 1
180 121 1
180 122 1
180 131 1
180 132 1
180 141 1
180 142 1
180 143 1
180 157 1
180 158 1
180 172 1
180 173 1
180 179 1
180 181 1
180 184 1
180 185 1
180 186 1
180 188 1
180 189 1
180 194 1
180 195 1
180 196 1
180 198 1
181 12 1
181 14 1
181 93 1
181 94 1
181 115 1
181 116 1
181 119 1
181 120 1
181 131 1
181 132 1
181 157 1
181 158 1
181 179 1
181 180 1
181 182 1
182 93 1
182 94 1
182 115 1
182 116 1
182 119 1
182 120 1
182 131 1
182 132 1
182 157 1
182 158 1
182 179 1
182 181 1
183 35 1
183 37 1
183 40 1
183 42 1
183 91 1
183 92 1
183 129 1
183 130 1
183 162 1
183 164 1
183 184 1
183 185 1
183 186 1
184 15 1
184 17 1
184 91 1
184 92 1
184 129 1
184 130 1
184 165 1
184 167 1
184 180 1
184 183 1
184 185 1
184 186 1
185 180 1
185 183 1
185 184 1
185 186 1
185 187 1
185 188 1
186 8 1
186 53 1
186 179 1
186 180 1
186 183 1
186 184 1
186 185 1
186 187 1
186 188 1
187 179 1
187 185 1
187 186 1
187 188 1
187 189 1
187 190 1
188 179 1
188 180 1
188 185 1
188 186 1
188 187 1
188 189 1
188 190 1
189 179 1
189 180 1
189 187 1
189 188 1
189 190 1
189 191 1
189 192 1
190 179 1
190 187 1
190 188 1
190 189 1
190 191 1
190 192 1
191 179 1
191 189 1
191 190 1
191 192 1
191 193 1
191 194 1
192 189 1
192 190 1
192 191 1
192 193 1
192 194 1
193 191 1
193 192 1
193 194 1
193 195 1
193 196 1
194 180 1
194 191 1
194 192 1
194 193 1
194 195 1
194 196 1
195 179 1
195 180 1
195 193 1
195 194 1
195 196 1
195 197 1
195 198 1
196 103 1
196 179 1
196 180 1
196 193 1
196 194 1
196 195 1
196 197 1
196 198 1
197 21 1
197 22 1
197 77 1
197 78 1
197 97 1
197 98 1
197 101 1
197 102 1
197 113 1
197 114 1
197 135 1
197 136 1
197 195 1
197 196 1
197 198 1
198 21 1
198 22 1
198 77 1
198 78 1
198 97 1
198 98 1
198 101 1
198 102 1
198 113 1
198 114 1
198 135 1
198 136 1
198 179 1
198 180 1
198 195 1
198 196 1
198 197 1
199 200 1
200 8 1
200 199 1
