%%MatrixMarket matrix coordinate integer general
%
400 400 5520
1 2 1
1 4 1
1 128 1
1 130 1
1 217 1
1 218 1
1 253 1
1 254 1
1 303 1
1 304 1
1 343 1
1 344 1
2 1 1
2 3 1
2 127 1
2 129 1
2 217 1
2 218 1
2 253 1
2 254 1
2 303 1
2 304 1
2 343 1
2 344 1
3 2 1
3 4 1
3 128 1
3 130 1
3 217 1
3 218 1
3 253 1
3 254 1
3 303 1
3 304 1
3 343 1
3 344 1
4 1 1
4 3 1
4 127 1
4 129 1
4 217 1
4 218 1
4 253 1
4 254 1
4 303 1
4 304 1
4 343 1
4 344 1
5 6 1
5 9 1
5 10 1
5 197 1
5 198 1
5 199 1
5 200 1
5 385 1
5 386 1
6 5 1
6 9 1
6 10 1
6 197 1
6 198 1
6 199 1
6 200 1
6 385 1
6 386 1
7 8 1
7 9 1
7 10 1
7 11 1
7 12 1
7 27 1
7 28 1
7 385 1
7 386 1
8 7 1
8 9 1
8 10 1
8 11 1
8 12 1
8 27 1
8 28 1
8 385 1
8 386 1
9 5 1
9 6 1
9 7 1
9 8 1
9 10 1
9 11 1
9 12 1
9 385 1
9 386 1
9 393 1
9 394 1
9 395 1
9 396 1
10 5 1
10 6 1
10 7 1
10 8 1
10 9 1
10 11 1
10 12 1
10 385 1
10 386 1
10 393 1
10 394 1
10 395 1
10 396 1
11 7 1
11 8 1
11 9 1
11 10 1
11 12 1
11 17 1
11 18 1
11 393 1
11 394 1
12 7 1
12 8 1
12 9 1
12 10 1
12 11 1
12 393 1
12 394 1
13 14 1
13 15 1
13 16 1
13 295 1
13 296 1
13 381 1
13 382 1
13 391 1
13 392 1
14 13 1
14 15 1
14 16 1
14 295 1
14 296 1
14 381 1
14 382 1
14 391 1
14 392 1
15 13 1
15 14 1
15 16 1
15 295 1
15 296 1
15 381 1
15 382 1
15 391 1
15 392 1
16 13 1
16 14 1
16 15 1
16 295 1
16 296 1
16 381 1
16 382 1
16 391 1
16 392 1
17 11 1
17 18 1
17 19 1
17 20 1
18 11 1
18 17 1
18 19 1
18 20 1
18 358 1
18 392 1
19 17 1
19 18 1
19 20 1
19 103 1
20 17 1
20 18 1
20 19 1
20 104 1
21 22 1
21 23 1
21 24 1
21 263 1
21 264 1
21 333 1
21 334 1
21 341 1
21 342 1
22 21 1
22 23 1
22 24 1
22 263 1
22 264 1
22 333 1
22 334 1
22 341 1
22 342 1
22 353 1
23 21 1
23 22 1
23 24 1
23 263 1
23 264 1
23 333 1
23 334 1
23 341 1
23 342 1
24 21 1
24 22 1
24 23 1
24 263 1
24 264 1
24 333 1
24 334 1
24 341 1
24 342 1
24 353 1
25 26 1
25 27 1
25 28 1
25 201 1
25 202 1
25 295 1
25 296 1
26 25 1
26 27 1
26 28 1
26 201 1
26 202 1
26 295 1
26 296 1
27 7 1
27 8 1
27 25 1
27 26 1
27 28 1
27 385 1
27 386 1
28 7 1
28 8 1
28 25 1
28 26 1
28 27 1
28 385 1
28 386 1
29 30 1
29 31 1
29 32 1
29 41 1
29 49 1
29 50 1
29 53 1
29 54 1
29 69 1
29 70 1
29 179 1
29 180 1
29 181 1
29 185 1
29 188 1
29 223 1
29 224 1
29 269 1
29 270 1
29 305 1
29 306 1
29 327 1
29 375 1
29 376 1
29 377 1
29 378 1
29 379 1
29 380 1
29 399 1
29 400 1
30 29 1
30 31 1
30 32 1
30 34 1
30 42 1
30 49 1
30 50 1
30 51 1
30 52 1
30 53 1
30 54 1
30 70 1
30 179 1
30 180 1
30 186 1
30 187 1
30 223 1
30 224 1
30 269 1
30 270 1
30 305 1
30 306 1
30 375 1
30 376 1
30 377 1
30 378 1
30 379 1
30 380 1
30 399 1
30 400 1
31 29 1
31 30 1
31 32 1
31 41 1
31 42 1
31 43 1
31 44 1
31 49 1
31 50 1
31 53 1
31 54 1
31 61 1
31 63 1
31 69 1
31 70 1
31 179 1
31 180 1
31 188 1
31 223 1
31 269 1
31 270 1
31 305 1
31 306 1
31 375 1
31 376 1
31 378 1
31 379 1
31 380 1
32 29 1
32 30 1
32 31 1
32 41 1
32 42 1
32 43 1
32 44 1
32 53 1
32 54 1
32 69 1
32 70 1
32 179 1
32 180 1
32 186 1
32 187 1
32 223 1
32 224 1
32 269 1
32 270 1
32 305 1
32 306 1
32 345 1
32 346 1
32 375 1
32 376 1
32 377 1
32 379 1
32 380 1
32 399 1
33 34 1
33 35 1
33 36 1
33 43 1
33 50 1
33 54 1
33 59 1
33 60 1
33 65 1
33 111 1
33 113 1
33 265 1
33 266 1
33 268 1
33 270 1
33 379 1
34 30 1
34 33 1
34 35 1
34 36 1
34 43 1
34 53 1
34 59 1
34 60 1
34 65 1
34 66 1
34 187 1
34 265 1
34 266 1
34 378 1
34 399 1
35 33 1
35 34 1
35 36 1
35 43 1
35 60 1
35 66 1
35 265 1
36 33 1
36 34 1
36 35 1
36 44 1
36 49 1
36 50 1
36 54 1
36 59 1
36 65 1
36 266 1
36 268 1
36 305 1
36 377 1
36 400 1
37 38 1
37 39 1
37 40 1
37 89 1
37 90 1
37 91 1
37 92 1
37 93 1
37 94 1
37 95 1
37 96 1
37 97 1
37 98 1
37 139 1
37 140 1
37 141 1
37 142 1
37 309 1
37 310 1
37 313 1
37 314 1
37 315 1
37 316 1
37 317 1
37 318 1
37 319 1
37 320 1
37 356 1
38 37 1
38 39 1
38 40 1
38 89 1
38 90 1
38 91 1
38 92 1
38 93 1
38 94 1
38 95 1
38 96 1
38 97 1
38 98 1
38 139 1
38 140 1
38 141 1
38 142 1
38 309 1
38 310 1
38 313 1
38 314 1
38 315 1
38 316 1
38 317 1
38 318 1
38 319 1
38 320 1
39 37 1
39 38 1
39 40 1
39 89 1
39 90 1
39 91 1
39 92 1
39 93 1
39 94 1
39 95 1
39 96 1
39 97 1
39 98 1
39 139 1
39 140 1
39 141 1
39 142 1
39 309 1
39 310 1
39 313 1
39 314 1
39 315 1
39 316 1
39 318 1
39 320 1
39 356 1
40 37 1
40 38 1
40 39 1
40 89 1
40 90 1
40 91 1
40 92 1
40 93 1
40 94 1
40 95 1
40 96 1
40 97 1
40 98 1
40 139 1
40 140 1
40 141 1
40 142 1
40 309 1
40 310 1
40 313 1
40 314 1
40 315 1
40 316 1
40 317 1
40 319 1
41 29 1
41 31 1
41 32 1
41 42 1
41 43 1
41 44 1
41 49 1
41 50 1
41 51 1
41 53 1
41 54 1
41 61 1
41 62 1
41 63 1
41 64 1
41 69 1
41 70 1
41 109 1
41 110 1
41 112 1
41 114 1
41 179 1
41 185 1
41 188 1
41 223 1
41 269 1
41 270 1
41 289 1
41 290 1
41 291 1
41 292 1
41 305 1
41 311 1
41 312 1
41 375 1
41 377 1
41 378 1
41 399 1
41 400 1
42 30 1
42 31 1
42 32 1
42 41 1
42 43 1
42 44 1
42 49 1
42 50 1
42 51 1
42 53 1
42 54 1
42 61 1
42 62 1
42 63 1
42 64 1
42 69 1
42 70 1
42 109 1
42 110 1
42 111 1
42 113 1
42 179 1
42 180 1
42 186 1
42 187 1
42 269 1
42 270 1
42 289 1
42 290 1
42 291 1
42 292 1
42 306 1
42 311 1
42 312 1
42 346 1
42 375 1
42 376 1
42 377 1
42 378 1
42 380 1
42 399 1
42 400 1
43 31 1
43 32 1
43 33 1
43 34 1
43 35 1
43 41 1
43 42 1
43 44 1
43 49 1
43 50 1
43 53 1
43 54 1
43 60 1
43 61 1
43 62 1
43 63 1
43 64 1
43 69 1
43 70 1
43 123 1
43 124 1
43 125 1
43 126 1
43 179 1
43 223 1
43 229 1
43 230 1
43 269 1
43 270 1
43 289 1
43 290 1
43 291 1
43 292 1
43 305 1
43 306 1
43 346 1
43 375 1
43 379 1
44 31 1
44 32 1
44 36 1
44 41 1
44 42 1
44 43 1
44 50 1
44 51 1
44 53 1
44 54 1
44 59 1
44 61 1
44 62 1
44 63 1
44 64 1
44 65 1
44 66 1
44 69 1
44 70 1
44 123 1
44 124 1
44 125 1
44 126 1
44 180 1
44 224 1
44 229 1
44 230 1
44 265 1
44 269 1
44 289 1
44 290 1
44 291 1
44 292 1
44 305 1
44 306 1
44 345 1
44 376 1
44 380 1
45 46 1
45 47 1
45 48 1
45 137 1
45 138 1
45 139 1
45 140 1
45 141 1
45 142 1
45 143 1
45 144 1
45 145 1
45 146 1
45 321 1
45 322 1
45 323 1
45 324 1
46 45 1
46 47 1
46 48 1
46 137 1
46 138 1
46 139 1
46 140 1
46 141 1
46 142 1
46 143 1
46 144 1
46 145 1
46 146 1
46 321 1
46 322 1
46 323 1
46 324 1
47 45 1
47 46 1
47 48 1
47 137 1
47 138 1
47 139 1
47 140 1
47 141 1
47 142 1
47 143 1
47 144 1
47 145 1
47 146 1
47 321 1
47 322 1
47 323 1
47 324 1
48 45 1
48 46 1
48 47 1
48 137 1
48 138 1
48 139 1
48 140 1
48 141 1
48 142 1
48 143 1
48 144 1
48 145 1
48 146 1
48 321 1
48 322 1
48 323 1
48 324 1
49 29 1
49 30 1
49 31 1
49 36 1
49 41 1
49 42 1
49 43 1
49 50 1
49 53 1
49 54 1
49 61 1
49 63 1
49 69 1
49 185 1
49 186 1
49 187 1
49 188 1
49 223 1
49 265 1
49 266 1
49 335 1
49 338 1
49 345 1
49 377 1
49 378 1
49 399 1
49 400 1
50 29 1
50 30 1
50 31 1
50 33 1
50 36 1
50 41 1
50 42 1
50 43 1
50 44 1
50 49 1
50 53 1
50 54 1
50 60 1
50 61 1
50 62 1
50 63 1
50 64 1
50 66 1
50 69 1
50 70 1
50 111 1
50 112 1
50 113 1
50 114 1
50 179 1
50 180 1
50 181 1
50 185 1
50 186 1
50 187 1
50 188 1
50 265 1
50 266 1
50 269 1
50 298 1
50 345 1
50 375 1
50 376 1
50 377 1
50 378 1
50 380 1
50 399 1
50 400 1
51 30 1
51 41 1
51 42 1
51 44 1
51 52 1
51 53 1
51 54 1
51 60 1
51 61 1
51 63 1
51 66 1
51 69 1
51 112 1
51 114 1
51 123 1
51 124 1
51 125 1
51 126 1
51 165 1
51 166 1
51 171 1
51 172 1
51 180 1
51 181 1
51 182 1
51 186 1
51 187 1
51 193 1
51 194 1
51 269 1
51 297 1
51 327 1
51 328 1
51 349 1
51 350 1
51 376 1
52 30 1
52 51 1
52 53 1
52 54 1
52 123 1
52 124 1
52 125 1
52 126 1
52 165 1
52 166 1
52 170 1
52 171 1
52 172 1
52 181 1
52 182 1
52 186 1
52 187 1
52 193 1
52 194 1
52 327 1
52 328 1
52 373 1
52 374 1
53 29 1
53 30 1
53 31 1
53 32 1
53 34 1
53 41 1
53 42 1
53 43 1
53 44 1
53 49 1
53 50 1
53 51 1
53 52 1
53 54 1
53 61 1
53 62 1
53 63 1
53 64 1
53 66 1
53 69 1
53 70 1
53 110 1
53 112 1
53 114 1
53 123 1
53 124 1
53 125 1
53 126 1
53 165 1
53 166 1
53 171 1
53 172 1
53 179 1
53 180 1
53 181 1
53 182 1
53 185 1
53 186 1
53 187 1
53 188 1
53 193 1
53 194 1
53 223 1
53 224 1
53 265 1
53 269 1
53 270 1
53 290 1
53 292 1
53 297 1
53 305 1
53 306 1
53 312 1
53 328 1
53 375 1
53 376 1
53 378 1
53 379 1
53 380 1
53 399 1
53 400 1
54 29 1
54 30 1
54 31 1
54 32 1
54 33 1
54 36 1
54 41 1
54 42 1
54 43 1
54 44 1
54 49 1
54 50 1
54 51 1
54 52 1
54 53 1
54 61 1
54 62 1
54 63 1
54 64 1
54 66 1
54 69 1
54 70 1
54 123 1
54 125 1
54 165 1
54 166 1
54 171 1
54 172 1
54 179 1
54 180 1
54 181 1
54 182 1
54 185 1
54 186 1
54 187 1
54 188 1
54 193 1
54 194 1
54 223 1
54 265 1
54 266 1
54 270 1
54 305 1
54 306 1
54 327 1
54 345 1
54 373 1
54 375 1
54 376 1
54 377 1
54 378 1
54 379 1
54 399 1
54 400 1
55 56 1
55 57 1
55 58 1
55 169 1
55 170 1
55 193 1
55 194 1
55 297 1
55 298 1
56 55 1
56 57 1
56 58 1
56 115 1
56 117 1
56 169 1
56 170 1
56 193 1
56 194 1
56 297 1
56 298 1
57 55 1
57 56 1
57 58 1
57 169 1
57 170 1
57 193 1
57 194 1
57 297 1
57 298 1
58 55 1
58 56 1
58 57 1
58 117 1
58 169 1
58 170 1
58 193 1
58 194 1
58 297 1
58 298 1
59 33 1
59 34 1
59 36 1
59 44 1
59 60 1
59 61 1
59 62 1
59 63 1
59 64 1
59 66 1
59 111 1
59 112 1
59 113 1
59 114 1
59 266 1
59 268 1
59 298 1
59 305 1
60 33 1
60 34 1
60 35 1
60 43 1
60 50 1
60 51 1
60 59 1
60 61 1
60 62 1
60 63 1
60 64 1
60 65 1
60 111 1
60 112 1
60 113 1
60 114 1
60 265 1
60 266 1
60 305 1
61 31 1
61 41 1
61 42 1
61 43 1
61 44 1
61 49 1
61 50 1
61 51 1
61 53 1
61 54 1
61 59 1
61 60 1
61 62 1
61 63 1
61 64 1
61 65 1
61 66 1
61 69 1
61 111 1
61 112 1
61 113 1
61 114 1
61 305 1
61 377 1
61 400 1
62 41 1
62 42 1
62 43 1
62 44 1
62 50 1
62 53 1
62 54 1
62 59 1
62 60 1
62 61 1
62 63 1
62 64 1
62 65 1
62 66 1
62 70 1
62 111 1
62 112 1
62 113 1
62 114 1
62 270 1
62 305 1
63 31 1
63 41 1
63 42 1
63 43 1
63 44 1
63 49 1
63 50 1
63 51 1
63 53 1
63 54 1
63 59 1
63 60 1
63 61 1
63 62 1
63 64 1
63 65 1
63 66 1
63 69 1
63 111 1
63 112 1
63 113 1
63 114 1
63 305 1
63 377 1
63 400 1
64 41 1
64 42 1
64 43 1
64 44 1
64 50 1
64 53 1
64 54 1
64 59 1
64 60 1
64 61 1
64 62 1
64 63 1
64 65 1
64 66 1
64 70 1
64 111 1
64 112 1
64 113 1
64 114 1
64 270 1
64 305 1
65 33 1
65 34 1
65 36 1
65 44 1
65 60 1
65 61 1
65 62 1
65 63 1
65 64 1
65 66 1
65 111 1
65 112 1
65 113 1
65 114 1
65 266 1
65 305 1
65 306 1
66 34 1
66 35 1
66 44 1
66 50 1
66 51 1
66 53 1
66 54 1
66 59 1
66 61 1
66 62 1
66 63 1
66 64 1
66 65 1
66 111 1
66 112 1
66 113 1
66 114 1
66 265 1
66 305 1
67 68 1
67 79 1
67 80 1
67 131 1
67 132 1
67 133 1
67 134 1
67 151 1
67 152 1
67 155 1
67 159 1
67 162 1
67 163 1
67 209 1
67 210 1
67 339 1
68 67 1
68 79 1
68 80 1
68 131 1
68 132 1
68 133 1
68 134 1
68 151 1
68 152 1
68 155 1
68 156 1
68 159 1
68 160 1
68 162 1
68 163 1
68 164 1
68 209 1
68 210 1
68 211 1
68 340 1
69 29 1
69 31 1
69 32 1
69 41 1
69 42 1
69 43 1
69 44 1
69 49 1
69 50 1
69 51 1
69 53 1
69 54 1
69 61 1
69 63 1
69 70 1
69 109 1
69 171 1
69 172 1
69 185 1
69 223 1
69 297 1
69 298 1
69 305 1
69 306 1
69 311 1
69 345 1
69 349 1
69 350 1
69 377 1
69 399 1
69 400 1
70 29 1
70 30 1
70 31 1
70 32 1
70 41 1
70 42 1
70 43 1
70 44 1
70 50 1
70 53 1
70 54 1
70 62 1
70 64 1
70 69 1
70 171 1
70 172 1
70 224 1
70 297 1
70 298 1
70 305 1
70 346 1
71 72 1
71 73 1
71 74 1
71 147 1
71 148 1
71 221 1
71 232 1
71 245 1
71 246 1
71 271 1
71 272 1
71 369 1
71 370 1
72 71 1
72 73 1
72 74 1
72 147 1
72 148 1
72 222 1
72 231 1
72 245 1
72 246 1
72 271 1
72 272 1
72 369 1
72 370 1
73 71 1
73 72 1
73 74 1
73 149 1
73 150 1
74 71 1
74 72 1
74 73 1
74 149 1
74 150 1
75 76 1
75 100 1
75 115 1
75 116 1
75 117 1
75 118 1
75 121 1
75 122 1
75 147 1
75 148 1
75 203 1
76 75 1
76 99 1
76 100 1
76 115 1
76 116 1
76 117 1
76 118 1
76 121 1
76 122 1
76 147 1
76 148 1
76 204 1
77 78 1
77 183 1
77 184 1
78 77 1
78 183 1
78 184 1
78 258 1
79 67 1
79 68 1
79 80 1
79 131 1
79 132 1
79 133 1
79 134 1
79 156 1
79 162 1
79 210 1
79 329 1
79 330 1
79 339 1
79 340 1
80 67 1
80 68 1
80 79 1
80 131 1
80 132 1
80 133 1
80 134 1
80 155 1
80 210 1
80 329 1
80 330 1
80 339 1
80 340 1
81 82 1
81 83 1
81 84 1
81 219 1
81 220 1
81 257 1
81 258 1
81 293 1
81 294 1
82 81 1
82 83 1
82 84 1
82 219 1
82 220 1
82 240 1
82 257 1
82 258 1
82 293 1
82 294 1
83 81 1
83 82 1
83 84 1
83 219 1
83 220 1
83 257 1
83 258 1
83 293 1
83 294 1
84 81 1
84 82 1
84 83 1
84 219 1
84 220 1
84 240 1
84 257 1
84 258 1
84 293 1
84 294 1
85 86 1
85 88 1
85 90 1
85 91 1
85 92 1
85 94 1
85 105 1
85 106 1
85 215 1
85 216 1
85 237 1
85 238 1
85 262 1
85 277 1
85 278 1
85 310 1
85 313 1
85 314 1
85 316 1
85 355 1
86 85 1
86 87 1
86 89 1
86 91 1
86 92 1
86 93 1
86 105 1
86 106 1
86 215 1
86 216 1
86 237 1
86 238 1
86 262 1
86 277 1
86 278 1
86 309 1
86 313 1
86 314 1
86 315 1
87 86 1
87 88 1
87 90 1
87 91 1
87 92 1
87 94 1
87 105 1
87 106 1
87 215 1
87 216 1
87 237 1
87 238 1
87 262 1
87 277 1
87 278 1
87 310 1
87 313 1
87 314 1
87 316 1
87 355 1
88 85 1
88 87 1
88 89 1
88 91 1
88 92 1
88 93 1
88 105 1
88 106 1
88 215 1
88 216 1
88 237 1
88 238 1
88 262 1
88 277 1
88 278 1
88 309 1
88 313 1
88 314 1
88 315 1
89 37 1
89 38 1
89 39 1
89 40 1
89 86 1
89 88 1
89 90 1
89 92 1
89 94 1
89 215 1
89 216 1
89 237 1
89 238 1
89 261 1
89 310 1
89 313 1
89 314 1
89 316 1
89 317 1
89 318 1
89 319 1
89 320 1
90 37 1
90 38 1
90 39 1
90 40 1
90 85 1
90 87 1
90 89 1
90 91 1
90 93 1
90 215 1
90 216 1
90 237 1
90 238 1
90 261 1
90 262 1
90 309 1
90 313 1
90 314 1
90 315 1
90 317 1
90 318 1
90 319 1
90 320 1
90 355 1
91 37 1
91 38 1
91 39 1
91 40 1
91 85 1
91 86 1
91 87 1
91 88 1
91 90 1
91 92 1
91 93 1
91 94 1
91 215 1
91 216 1
91 237 1
91 238 1
91 261 1
91 309 1
91 310 1
91 313 1
91 314 1
91 316 1
91 317 1
91 318 1
91 319 1
91 320 1
92 37 1
92 38 1
92 39 1
92 40 1
92 85 1
92 86 1
92 87 1
92 88 1
92 89 1
92 91 1
92 93 1
92 94 1
92 215 1
92 216 1
92 237 1
92 238 1
92 261 1
92 262 1
92 309 1
92 310 1
92 313 1
92 314 1
92 315 1
92 317 1
92 318 1
92 319 1
92 320 1
92 355 1
93 37 1
93 38 1
93 39 1
93 40 1
93 86 1
93 88 1
93 90 1
93 91 1
93 92 1
93 94 1
93 95 1
93 96 1
93 97 1
93 98 1
93 139 1
93 140 1
93 141 1
93 142 1
93 215 1
93 216 1
93 237 1
93 238 1
93 310 1
93 313 1
93 314 1
93 316 1
93 317 1
93 318 1
93 319 1
93 320 1
94 37 1
94 38 1
94 39 1
94 40 1
94 85 1
94 87 1
94 89 1
94 91 1
94 92 1
94 93 1
94 95 1
94 96 1
94 97 1
94 98 1
94 139 1
94 140 1
94 141 1
94 142 1
94 215 1
94 216 1
94 237 1
94 238 1
94 261 1
94 309 1
94 313 1
94 314 1
94 315 1
94 317 1
94 318 1
94 319 1
94 320 1
95 37 1
95 38 1
95 39 1
95 40 1
95 93 1
95 94 1
95 96 1
95 97 1
95 98 1
95 139 1
95 141 1
95 309 1
95 310 1
95 317 1
95 318 1
95 319 1
95 320 1
96 37 1
96 38 1
96 39 1
96 40 1
96 93 1
96 94 1
96 95 1
96 97 1
96 98 1
96 140 1
96 142 1
96 309 1
96 310 1
96 317 1
96 318 1
96 319 1
96 320 1
97 37 1
97 38 1
97 39 1
97 40 1
97 93 1
97 94 1
97 95 1
97 96 1
97 98 1
97 139 1
97 140 1
97 141 1
97 142 1
97 309 1
97 310 1
97 317 1
97 318 1
97 319 1
97 320 1
98 37 1
98 38 1
98 39 1
98 40 1
98 93 1
98 94 1
98 95 1
98 96 1
98 97 1
98 139 1
98 140 1
98 141 1
98 142 1
98 238 1
98 309 1
98 310 1
98 317 1
98 318 1
98 319 1
98 320 1
99 76 1
99 100 1
99 115 1
99 116 1
99 117 1
99 118 1
99 121 1
99 122 1
99 203 1
99 297 1
100 75 1
100 76 1
100 99 1
100 115 1
100 116 1
100 117 1
100 118 1
100 121 1
100 122 1
100 204 1
101 102 1
101 190 1
101 260 1
102 101 1
102 189 1
102 259 1
103 19 1
103 104 1
103 105 1
103 106 1
103 358 1
104 20 1
104 103 1
104 105 1
104 106 1
104 343 1
104 344 1
105 85 1
105 86 1
105 87 1
105 88 1
105 103 1
105 104 1
105 106 1
105 277 1
105 278 1
106 85 1
106 86 1
106 87 1
106 88 1
106 103 1
106 104 1
106 105 1
106 277 1
106 278 1
107 108 1
107 173 1
107 174 1
107 213 1
107 214 1
107 326 1
108 107 1
108 174 1
108 176 1
108 213 1
108 214 1
109 41 1
109 42 1
109 69 1
109 110 1
109 289 1
109 290 1
109 291 1
109 292 1
109 311 1
109 312 1
110 41 1
110 42 1
110 53 1
110 109 1
110 289 1
110 290 1
110 291 1
110 292 1
110 311 1
110 312 1
111 33 1
111 42 1
111 50 1
111 59 1
111 60 1
111 61 1
111 62 1
111 63 1
111 64 1
111 65 1
111 66 1
111 112 1
111 113 1
111 114 1
111 115 1
111 116 1
111 117 1
111 118 1
111 266 1
111 306 1
111 307 1
111 308 1
111 327 1
111 400 1
112 41 1
112 50 1
112 51 1
112 53 1
112 59 1
112 60 1
112 61 1
112 62 1
112 63 1
112 64 1
112 65 1
112 66 1
112 111 1
112 113 1
112 114 1
112 115 1
112 116 1
112 117 1
112 118 1
112 305 1
112 307 1
112 308 1
113 33 1
113 42 1
113 50 1
113 59 1
113 60 1
113 61 1
113 62 1
113 63 1
113 64 1
113 65 1
113 66 1
113 111 1
113 112 1
113 114 1
113 115 1
113 116 1
113 117 1
113 118 1
113 266 1
113 306 1
113 307 1
113 308 1
113 327 1
113 400 1
114 41 1
114 50 1
114 51 1
114 53 1
114 59 1
114 60 1
114 61 1
114 62 1
114 63 1
114 64 1
114 65 1
114 66 1
114 111 1
114 112 1
114 113 1
114 115 1
114 116 1
114 117 1
114 118 1
114 305 1
114 307 1
114 308 1
115 56 1
115 75 1
115 76 1
115 99 1
115 100 1
115 111 1
115 112 1
115 113 1
115 114 1
115 116 1
115 117 1
115 118 1
115 121 1
115 122 1
115 203 1
115 204 1
115 268 1
115 307 1
115 308 1
116 75 1
116 76 1
116 99 1
116 100 1
116 111 1
116 112 1
116 113 1
116 114 1
116 115 1
116 117 1
116 118 1
116 121 1
116 122 1
116 203 1
116 204 1
116 307 1
116 308 1
117 56 1
117 58 1
117 75 1
117 76 1
117 99 1
117 100 1
117 111 1
117 112 1
117 113 1
117 114 1
117 115 1
117 116 1
117 118 1
117 121 1
117 122 1
117 203 1
117 204 1
117 268 1
117 307 1
117 308 1
118 75 1
118 76 1
118 99 1
118 100 1
118 111 1
118 112 1
118 113 1
118 114 1
118 115 1
118 116 1
118 117 1
118 121 1
118 122 1
118 203 1
118 204 1
118 307 1
118 308 1
119 120 1
119 121 1
119 122 1
119 123 1
119 124 1
119 125 1
119 126 1
120 119 1
120 121 1
120 122 1
120 123 1
120 124 1
120 125 1
120 126 1
121 75 1
121 76 1
121 99 1
121 100 1
121 115 1
121 116 1
121 117 1
121 118 1
121 119 1
121 120 1
121 122 1
121 123 1
121 124 1
121 125 1
121 126 1
121 203 1
121 204 1
121 297 1
122 75 1
122 76 1
122 99 1
122 100 1
122 115 1
122 116 1
122 117 1
122 118 1
122 119 1
122 120 1
122 121 1
122 123 1
122 124 1
122 125 1
122 126 1
122 203 1
122 204 1
123 43 1
123 44 1
123 51 1
123 52 1
123 53 1
123 54 1
123 119 1
123 120 1
123 121 1
123 122 1
123 124 1
123 126 1
123 182 1
123 230 1
123 289 1
123 290 1
123 291 1
123 292 1
123 305 1
123 306 1
124 43 1
124 44 1
124 51 1
124 52 1
124 53 1
124 119 1
124 120 1
124 121 1
124 122 1
124 123 1
124 125 1
124 194 1
124 229 1
124 289 1
124 290 1
124 291 1
124 292 1
124 305 1
124 306 1
125 43 1
125 44 1
125 51 1
125 52 1
125 53 1
125 54 1
125 119 1
125 120 1
125 121 1
125 122 1
125 124 1
125 126 1
125 229 1
125 230 1
125 289 1
125 290 1
125 291 1
125 292 1
125 305 1
125 306 1
126 43 1
126 44 1
126 51 1
126 52 1
126 53 1
126 119 1
126 120 1
126 121 1
126 122 1
126 123 1
126 125 1
126 194 1
126 229 1
126 230 1
126 289 1
126 290 1
126 291 1
126 292 1
126 305 1
126 306 1
127 2 1
127 4 1
127 128 1
127 130 1
127 217 1
127 218 1
127 248 1
127 253 1
127 254 1
127 279 1
127 303 1
127 304 1
127 343 1
127 344 1
128 1 1
128 3 1
128 127 1
128 129 1
128 217 1
128 218 1
128 253 1
128 254 1
128 303 1
128 304 1
128 343 1
128 344 1
129 2 1
129 4 1
129 128 1
129 130 1
129 217 1
129 218 1
129 248 1
129 253 1
129 254 1
129 279 1
129 303 1
129 304 1
129 343 1
129 344 1
130 1 1
130 3 1
130 127 1
130 129 1
130 217 1
130 218 1
130 253 1
130 254 1
130 303 1
130 304 1
130 343 1
130 344 1
131 67 1
131 68 1
131 79 1
131 80 1
131 132 1
131 133 1
131 134 1
131 156 1
131 159 1
131 162 1
131 163 1
131 329 1
131 330 1
131 339 1
131 340 1
132 67 1
132 68 1
132 79 1
132 80 1
132 131 1
132 133 1
132 134 1
132 151 1
132 152 1
132 160 1
132 161 1
132 329 1
132 330 1
132 339 1
132 340 1
133 67 1
133 68 1
133 79 1
133 80 1
133 131 1
133 132 1
133 134 1
133 156 1
133 159 1
133 162 1
133 163 1
133 329 1
133 330 1
133 339 1
133 340 1
134 67 1
134 68 1
134 79 1
134 80 1
134 131 1
134 132 1
134 133 1
134 151 1
134 152 1
134 160 1
134 161 1
134 329 1
134 330 1
134 339 1
134 340 1
135 136 1
135 149 1
135 150 1
135 245 1
135 246 1
135 281 1
135 282 1
136 135 1
136 149 1
136 150 1
136 226 1
136 245 1
136 246 1
136 255 1
136 281 1
136 282 1
136 283 1
137 45 1
137 46 1
137 47 1
137 48 1
137 138 1
137 143 1
137 144 1
137 145 1
137 146 1
137 321 1
137 323 1
138 45 1
138 46 1
138 47 1
138 48 1
138 137 1
138 143 1
138 144 1
138 145 1
138 146 1
138 322 1
138 324 1
139 37 1
139 38 1
139 39 1
139 40 1
139 45 1
139 46 1
139 47 1
139 48 1
139 93 1
139 94 1
139 95 1
139 97 1
139 98 1
139 140 1
139 142 1
139 143 1
139 144 1
139 145 1
139 146 1
139 309 1
139 310 1
139 317 1
139 318 1
139 319 1
139 320 1
140 37 1
140 38 1
140 39 1
140 40 1
140 45 1
140 46 1
140 47 1
140 48 1
140 93 1
140 94 1
140 96 1
140 97 1
140 98 1
140 139 1
140 141 1
140 143 1
140 144 1
140 145 1
140 146 1
140 309 1
140 310 1
140 317 1
140 318 1
140 319 1
140 320 1
141 37 1
141 38 1
141 39 1
141 40 1
141 45 1
141 46 1
141 47 1
141 48 1
141 93 1
141 94 1
141 95 1
141 97 1
141 98 1
141 140 1
141 142 1
141 143 1
141 144 1
141 145 1
141 146 1
141 309 1
141 310 1
141 317 1
141 318 1
141 319 1
141 320 1
142 37 1
142 38 1
142 39 1
142 40 1
142 45 1
142 46 1
142 47 1
142 48 1
142 93 1
142 94 1
142 96 1
142 97 1
142 98 1
142 139 1
142 141 1
142 143 1
142 144 1
142 145 1
142 146 1
142 309 1
142 310 1
142 317 1
142 318 1
142 319 1
142 320 1
143 45 1
143 46 1
143 47 1
143 48 1
143 137 1
143 138 1
143 139 1
143 140 1
143 141 1
143 142 1
143 144 1
143 145 1
143 146 1
143 321 1
143 322 1
143 323 1
143 324 1
144 45 1
144 46 1
144 47 1
144 48 1
144 137 1
144 138 1
144 139 1
144 140 1
144 141 1
144 142 1
144 143 1
144 145 1
144 146 1
144 321 1
144 322 1
144 323 1
144 324 1
145 45 1
145 46 1
145 47 1
145 48 1
145 137 1
145 138 1
145 139 1
145 140 1
145 141 1
145 142 1
145 143 1
145 144 1
145 146 1
145 321 1
145 322 1
145 323 1
145 324 1
146 45 1
146 46 1
146 47 1
146 48 1
146 137 1
146 138 1
146 139 1
146 140 1
146 141 1
146 142 1
146 143 1
146 144 1
146 145 1
146 321 1
146 322 1
146 323 1
146 324 1
147 71 1
147 72 1
147 75 1
147 76 1
147 148 1
147 203 1
147 204 1
147 221 1
147 222 1
147 231 1
147 232 1
147 245 1
147 246 1
147 271 1
147 272 1
147 369 1
147 370 1
148 71 1
148 72 1
148 75 1
148 76 1
148 147 1
148 203 1
148 204 1
148 221 1
148 222 1
148 231 1
148 232 1
148 245 1
148 246 1
148 271 1
148 272 1
148 369 1
148 370 1
149 73 1
149 74 1
149 135 1
149 136 1
149 150 1
149 245 1
149 246 1
149 281 1
149 282 1
150 73 1
150 74 1
150 135 1
150 136 1
150 149 1
150 245 1
150 246 1
150 281 1
150 282 1
151 67 1
151 68 1
151 132 1
151 134 1
151 152 1
151 155 1
151 156 1
151 159 1
151 160 1
151 161 1
151 162 1
151 163 1
151 164 1
152 67 1
152 68 1
152 132 1
152 134 1
152 151 1
152 155 1
152 156 1
152 159 1
152 160 1
152 161 1
152 162 1
152 163 1
152 164 1
153 154 1
153 157 1
153 158 1
154 153 1
154 157 1
154 158 1
155 67 1
155 68 1
155 80 1
155 151 1
155 152 1
155 156 1
155 159 1
155 160 1
155 161 1
155 162 1
155 163 1
155 164 1
155 191 1
155 192 1
156 68 1
156 79 1
156 131 1
156 133 1
156 151 1
156 152 1
156 155 1
156 159 1
156 160 1
156 161 1
156 162 1
156 163 1
156 164 1
156 191 1
156 192 1
157 153 1
157 154 1
157 158 1
157 159 1
157 160 1
158 153 1
158 154 1
158 157 1
158 159 1
158 160 1
159 67 1
159 68 1
159 131 1
159 133 1
159 151 1
159 152 1
159 155 1
159 156 1
159 157 1
159 158 1
159 160 1
159 161 1
159 162 1
159 163 1
159 164 1
160 68 1
160 132 1
160 134 1
160 151 1
160 152 1
160 155 1
160 156 1
160 157 1
160 158 1
160 159 1
160 161 1
160 162 1
160 163 1
160 164 1
161 132 1
161 134 1
161 151 1
161 152 1
161 155 1
161 156 1
161 159 1
161 160 1
161 162 1
161 163 1
161 164 1
162 67 1
162 68 1
162 79 1
162 131 1
162 133 1
162 151 1
162 152 1
162 155 1
162 156 1
162 159 1
162 160 1
162 161 1
162 163 1
162 164 1
163 67 1
163 68 1
163 131 1
163 133 1
163 151 1
163 152 1
163 155 1
163 156 1
163 159 1
163 160 1
163 161 1
163 162 1
163 164 1
163 209 1
163 210 1
163 339 1
163 340 1
164 68 1
164 151 1
164 152 1
164 155 1
164 156 1
164 159 1
164 160 1
164 161 1
164 162 1
164 163 1
164 209 1
164 210 1
164 339 1
164 340 1
165 51 1
165 52 1
165 53 1
165 54 1
165 166 1
165 167 1
165 168 1
165 169 1
165 170 1
165 171 1
165 172 1
165 181 1
165 182 1
165 193 1
165 194 1
165 327 1
165 328 1
165 373 1
165 374 1
166 51 1
166 52 1
166 53 1
166 54 1
166 165 1
166 167 1
166 168 1
166 169 1
166 170 1
166 171 1
166 172 1
166 181 1
166 182 1
166 193 1
166 194 1
166 328 1
166 373 1
166 374 1
167 165 1
167 166 1
167 168 1
167 169 1
167 170 1
167 373 1
167 374 1
168 165 1
168 166 1
168 167 1
168 169 1
168 170 1
168 374 1
169 55 1
169 56 1
169 57 1
169 58 1
169 165 1
169 166 1
169 167 1
169 168 1
169 170 1
169 193 1
169 194 1
169 373 1
169 374 1
170 52 1
170 55 1
170 56 1
170 57 1
170 58 1
170 165 1
170 166 1
170 167 1
170 168 1
170 169 1
170 193 1
170 194 1
170 373 1
170 374 1
171 51 1
171 52 1
171 53 1
171 54 1
171 69 1
171 70 1
171 165 1
171 166 1
171 172 1
171 181 1
171 182 1
171 193 1
171 194 1
171 297 1
171 298 1
171 327 1
171 328 1
172 51 1
172 52 1
172 53 1
172 54 1
172 69 1
172 70 1
172 165 1
172 166 1
172 171 1
172 181 1
172 182 1
172 193 1
172 194 1
172 297 1
172 298 1
172 327 1
172 328 1
173 107 1
173 174 1
173 175 1
173 176 1
173 213 1
173 214 1
173 325 1
173 326 1
174 107 1
174 108 1
174 173 1
174 175 1
174 176 1
174 213 1
174 214 1
174 325 1
174 326 1
175 173 1
175 174 1
175 176 1
175 177 1
175 178 1
175 195 1
175 196 1
175 213 1
175 214 1
175 325 1
175 326 1
175 347 1
175 348 1
175 351 1
175 352 1
176 108 1
176 173 1
176 174 1
176 175 1
176 177 1
176 178 1
176 195 1
176 196 1
176 213 1
176 214 1
176 325 1
176 326 1
176 347 1
176 348 1
176 351 1
176 352 1
177 175 1
177 176 1
177 178 1
177 195 1
177 196 1
177 347 1
177 348 1
177 351 1
177 352 1
178 175 1
178 176 1
178 177 1
178 195 1
178 196 1
178 347 1
178 348 1
178 351 1
178 352 1
179 29 1
179 30 1
179 31 1
179 32 1
179 41 1
179 42 1
179 43 1
179 50 1
179 53 1
179 54 1
179 180 1
179 223 1
179 224 1
179 269 1
179 306 1
179 375 1
179 376 1
179 379 1
180 29 1
180 30 1
180 31 1
180 32 1
180 42 1
180 44 1
180 50 1
180 51 1
180 53 1
180 54 1
180 179 1
180 223 1
180 224 1
180 265 1
180 270 1
180 305 1
180 375 1
180 376 1
180 380 1
181 29 1
181 50 1
181 51 1
181 52 1
181 53 1
181 54 1
181 165 1
181 166 1
181 171 1
181 172 1
181 182 1
181 187 1
181 188 1
181 193 1
181 194 1
181 327 1
181 328 1
182 51 1
182 52 1
182 53 1
182 54 1
182 123 1
182 165 1
182 166 1
182 171 1
182 172 1
182 181 1
182 187 1
182 188 1
182 193 1
182 194 1
182 327 1
182 328 1
183 77 1
183 78 1
183 184 1
183 191 1
183 192 1
183 195 1
183 196 1
183 351 1
183 352 1
184 77 1
184 78 1
184 183 1
184 191 1
184 192 1
184 195 1
184 196 1
184 351 1
184 352 1
185 29 1
185 41 1
185 49 1
185 50 1
185 53 1
185 54 1
185 69 1
185 186 1
185 187 1
185 188 1
185 345 1
185 377 1
185 378 1
185 399 1
185 400 1
186 30 1
186 32 1
186 42 1
186 49 1
186 50 1
186 51 1
186 52 1
186 53 1
186 54 1
186 185 1
186 187 1
186 188 1
186 377 1
186 378 1
186 399 1
187 30 1
187 32 1
187 34 1
187 42 1
187 49 1
187 50 1
187 51 1
187 52 1
187 53 1
187 54 1
187 181 1
187 182 1
187 185 1
187 186 1
187 188 1
187 306 1
187 377 1
187 378 1
187 399 1
187 400 1
188 29 1
188 31 1
188 41 1
188 49 1
188 50 1
188 53 1
188 54 1
188 181 1
188 182 1
188 185 1
188 186 1
188 187 1
188 377 1
188 378 1
188 399 1
188 400 1
189 102 1
189 190 1
189 259 1
189 260 1
190 101 1
190 189 1
190 259 1
190 260 1
191 155 1
191 156 1
191 183 1
191 184 1
191 192 1
191 195 1
191 196 1
191 351 1
191 352 1
192 155 1
192 156 1
192 183 1
192 184 1
192 191 1
192 195 1
192 196 1
192 351 1
192 352 1
193 51 1
193 52 1
193 53 1
193 54 1
193 55 1
193 56 1
193 57 1
193 58 1
193 165 1
193 166 1
193 169 1
193 170 1
193 171 1
193 172 1
193 181 1
193 182 1
193 194 1
193 328 1
194 51 1
194 52 1
194 53 1
194 54 1
194 55 1
194 56 1
194 57 1
194 58 1
194 124 1
194 126 1
194 165 1
194 166 1
194 169 1
194 170 1
194 171 1
194 172 1
194 181 1
194 182 1
194 193 1
194 327 1
195 175 1
195 176 1
195 177 1
195 178 1
195 183 1
195 184 1
195 191 1
195 192 1
195 196 1
195 347 1
195 348 1
195 351 1
195 352 1
196 175 1
196 176 1
196 177 1
196 178 1
196 183 1
196 184 1
196 191 1
196 192 1
196 195 1
196 347 1
196 348 1
196 351 1
196 352 1
197 5 1
197 6 1
197 198 1
197 199 1
197 200 1
198 5 1
198 6 1
198 197 1
198 199 1
198 200 1
199 5 1
199 6 1
199 197 1
199 198 1
199 200 1
200 5 1
200 6 1
200 197 1
200 198 1
200 199 1
201 25 1
201 26 1
201 202 1
201 295 1
201 296 1
202 25 1
202 26 1
202 201 1
202 295 1
202 296 1
203 75 1
203 99 1
203 115 1
203 116 1
203 117 1
203 118 1
203 121 1
203 122 1
203 147 1
203 148 1
203 204 1
204 76 1
204 100 1
204 115 1
204 116 1
204 117 1
204 118 1
204 121 1
204 122 1
204 147 1
204 148 1
204 203 1
205 206 1
205 251 1
205 252 1
206 205 1
206 251 1
206 252 1
207 208 1
207 285 1
207 287 1
207 288 1
208 207 1
208 285 1
208 286 1
208 287 1
208 288 1
209 67 1
209 68 1
209 163 1
209 164 1
209 210 1
209 211 1
209 212 1
209 339 1
209 340 1
210 67 1
210 68 1
210 79 1
210 80 1
210 163 1
210 164 1
210 209 1
210 211 1
210 212 1
210 339 1
210 340 1
211 68 1
211 209 1
211 210 1
211 212 1
212 209 1
212 210 1
212 211 1
213 107 1
213 108 1
213 173 1
213 174 1
213 175 1
213 176 1
213 214 1
213 325 1
213 326 1
214 107 1
214 108 1
214 173 1
214 174 1
214 175 1
214 176 1
214 213 1
214 325 1
215 85 1
215 86 1
215 87 1
215 88 1
215 89 1
215 90 1
215 91 1
215 92 1
215 93 1
215 94 1
215 216 1
215 237 1
215 238 1
215 261 1
215 262 1
215 309 1
215 310 1
215 313 1
215 314 1
215 315 1
215 316 1
215 355 1
215 356 1
216 85 1
216 86 1
216 87 1
216 88 1
216 89 1
216 90 1
216 91 1
216 92 1
216 93 1
216 94 1
216 215 1
216 237 1
216 238 1
216 261 1
216 262 1
216 309 1
216 310 1
216 313 1
216 314 1
216 315 1
216 316 1
216 355 1
216 356 1
217 1 1
217 2 1
217 3 1
217 4 1
217 127 1
217 128 1
217 129 1
217 130 1
217 218 1
217 247 1
217 248 1
217 251 1
217 252 1
217 253 1
217 254 1
217 263 1
217 264 1
217 303 1
217 304 1
217 343 1
217 344 1
217 353 1
217 354 1
218 1 1
218 2 1
218 3 1
218 4 1
218 127 1
218 128 1
218 129 1
218 130 1
218 217 1
218 247 1
218 248 1
218 251 1
218 252 1
218 253 1
218 254 1
218 263 1
218 264 1
218 303 1
218 304 1
218 343 1
218 344 1
218 353 1
218 354 1
219 81 1
219 82 1
219 83 1
219 84 1
219 220 1
219 225 1
219 226 1
219 255 1
219 256 1
219 257 1
219 258 1
219 283 1
219 284 1
220 81 1
220 82 1
220 83 1
220 84 1
220 219 1
220 225 1
220 226 1
220 255 1
220 256 1
220 257 1
220 258 1
220 283 1
220 284 1
221 71 1
221 147 1
221 148 1
221 222 1
221 231 1
221 245 1
221 246 1
221 259 1
221 260 1
221 271 1
221 272 1
221 369 1
221 370 1
222 72 1
222 147 1
222 148 1
222 221 1
222 232 1
222 245 1
222 246 1
222 259 1
222 260 1
222 271 1
222 272 1
222 369 1
222 370 1
223 29 1
223 30 1
223 31 1
223 32 1
223 41 1
223 43 1
223 49 1
223 53 1
223 54 1
223 69 1
223 179 1
223 180 1
223 224 1
223 269 1
223 270 1
223 305 1
223 306 1
223 345 1
223 346 1
223 375 1
223 376 1
223 378 1
223 379 1
223 380 1
224 29 1
224 30 1
224 32 1
224 44 1
224 53 1
224 70 1
224 179 1
224 180 1
224 223 1
224 269 1
224 270 1
224 305 1
224 306 1
224 345 1
224 346 1
224 375 1
224 376 1
224 379 1
224 380 1
225 219 1
225 220 1
225 226 1
225 239 1
225 240 1
225 241 1
225 242 1
225 255 1
225 256 1
225 283 1
225 284 1
225 331 1
225 332 1
225 343 1
225 344 1
226 136 1
226 219 1
226 220 1
226 225 1
226 239 1
226 240 1
226 241 1
226 242 1
226 255 1
226 256 1
226 283 1
226 284 1
226 293 1
226 331 1
226 332 1
227 228 1
227 335 1
227 336 1
228 227 1
228 335 1
228 336 1
229 43 1
229 44 1
229 124 1
229 125 1
229 126 1
229 230 1
229 289 1
229 290 1
229 291 1
229 292 1
229 305 1
229 306 1
229 337 1
229 338 1
230 43 1
230 44 1
230 123 1
230 125 1
230 126 1
230 229 1
230 289 1
230 290 1
230 291 1
230 292 1
230 305 1
230 306 1
230 337 1
230 338 1
231 72 1
231 147 1
231 148 1
231 221 1
231 232 1
231 245 1
231 246 1
231 271 1
231 272 1
231 369 1
231 370 1
232 71 1
232 147 1
232 148 1
232 222 1
232 231 1
232 246 1
232 271 1
232 272 1
232 369 1
232 370 1
233 234 1
233 271 1
233 272 1
233 275 1
233 276 1
233 368 1
234 233 1
234 271 1
234 272 1
234 275 1
234 276 1
235 236 1
235 273 1
235 274 1
235 287 1
235 288 1
236 235 1
236 274 1
236 287 1
236 288 1
237 85 1
237 86 1
237 87 1
237 88 1
237 89 1
237 90 1
237 91 1
237 92 1
237 93 1
237 94 1
237 215 1
237 216 1
237 238 1
237 261 1
237 262 1
237 309 1
237 310 1
237 313 1
237 314 1
237 315 1
237 316 1
238 85 1
238 86 1
238 87 1
238 88 1
238 89 1
238 90 1
238 91 1
238 92 1
238 93 1
238 94 1
238 98 1
238 215 1
238 216 1
238 237 1
238 261 1
238 262 1
238 309 1
238 310 1
238 313 1
238 314 1
238 315 1
238 316 1
239 225 1
239 226 1
239 240 1
239 241 1
239 242 1
239 331 1
239 332 1
240 82 1
240 84 1
240 225 1
240 226 1
240 239 1
240 241 1
240 242 1
240 331 1
240 332 1
240 343 1
240 344 1
241 225 1
241 226 1
241 239 1
241 240 1
241 242 1
241 331 1
241 343 1
242 225 1
242 226 1
242 239 1
242 240 1
242 241 1
242 331 1
242 332 1
243 244 1
243 249 1
243 250 1
243 267 1
243 268 1
244 243 1
244 249 1
244 250 1
244 267 1
244 268 1
245 71 1
245 72 1
245 135 1
245 136 1
245 147 1
245 148 1
245 149 1
245 150 1
245 221 1
245 222 1
245 231 1
245 246 1
245 271 1
245 272 1
245 281 1
245 282 1
245 343 1
245 369 1
245 370 1
246 71 1
246 72 1
246 135 1
246 136 1
246 147 1
246 148 1
246 149 1
246 150 1
246 221 1
246 222 1
246 231 1
246 232 1
246 245 1
246 271 1
246 272 1
246 281 1
246 282 1
246 369 1
246 370 1
247 217 1
247 218 1
247 248 1
247 251 1
247 252 1
247 264 1
247 279 1
247 280 1
247 303 1
247 304 1
247 343 1
247 344 1
247 353 1
247 354 1
248 127 1
248 129 1
248 217 1
248 218 1
248 247 1
248 251 1
248 252 1
248 263 1
248 279 1
248 280 1
248 303 1
248 304 1
248 343 1
248 344 1
248 353 1
248 354 1
249 243 1
249 244 1
249 250 1
249 255 1
249 256 1
249 267 1
249 268 1
250 243 1
250 244 1
250 249 1
250 255 1
250 256 1
250 267 1
250 268 1
251 205 1
251 206 1
251 217 1
251 218 1
251 247 1
251 248 1
251 252 1
251 263 1
251 264 1
251 303 1
251 304 1
251 343 1
251 344 1
251 353 1
251 354 1
252 205 1
252 206 1
252 217 1
252 218 1
252 247 1
252 248 1
252 251 1
252 263 1
252 264 1
252 303 1
252 304 1
252 344 1
252 353 1
252 354 1
253 1 1
253 2 1
253 3 1
253 4 1
253 127 1
253 128 1
253 129 1
253 130 1
253 217 1
253 218 1
253 254 1
253 303 1
253 304 1
253 331 1
253 332 1
253 343 1
253 344 1
254 1 1
254 2 1
254 3 1
254 4 1
254 127 1
254 128 1
254 129 1
254 130 1
254 217 1
254 218 1
254 253 1
254 303 1
254 304 1
254 331 1
254 332 1
254 343 1
254 344 1
255 136 1
255 219 1
255 220 1
255 225 1
255 226 1
255 249 1
255 250 1
255 256 1
255 283 1
255 284 1
256 219 1
256 220 1
256 225 1
256 226 1
256 249 1
256 250 1
256 255 1
256 283 1
256 284 1
257 81 1
257 82 1
257 83 1
257 84 1
257 219 1
257 220 1
257 258 1
258 78 1
258 81 1
258 82 1
258 83 1
258 84 1
258 219 1
258 220 1
258 257 1
259 102 1
259 189 1
259 190 1
259 221 1
259 222 1
259 260 1
260 101 1
260 189 1
260 190 1
260 221 1
260 222 1
260 259 1
261 89 1
261 90 1
261 91 1
261 92 1
261 94 1
261 215 1
261 216 1
261 237 1
261 238 1
261 262 1
261 310 1
261 313 1
261 314 1
261 315 1
261 316 1
261 355 1
261 356 1
262 85 1
262 86 1
262 87 1
262 88 1
262 90 1
262 92 1
262 215 1
262 216 1
262 237 1
262 238 1
262 261 1
262 316 1
262 355 1
262 356 1
263 21 1
263 22 1
263 23 1
263 24 1
263 217 1
263 218 1
263 248 1
263 251 1
263 252 1
263 264 1
263 303 1
263 304 1
263 333 1
263 334 1
263 341 1
263 342 1
263 344 1
263 353 1
263 354 1
264 21 1
264 22 1
264 23 1
264 24 1
264 217 1
264 218 1
264 247 1
264 251 1
264 252 1
264 263 1
264 303 1
264 304 1
264 333 1
264 334 1
264 341 1
264 342 1
264 343 1
264 344 1
264 353 1
264 354 1
265 33 1
265 34 1
265 35 1
265 44 1
265 49 1
265 50 1
265 53 1
265 54 1
265 60 1
265 66 1
265 180 1
265 266 1
265 267 1
265 268 1
265 269 1
265 270 1
265 305 1
265 376 1
265 377 1
265 400 1
266 33 1
266 34 1
266 36 1
266 49 1
266 50 1
266 54 1
266 59 1
266 60 1
266 65 1
266 111 1
266 113 1
266 265 1
266 267 1
266 268 1
266 269 1
266 270 1
266 305 1
266 377 1
266 400 1
267 243 1
267 244 1
267 249 1
267 250 1
267 265 1
267 266 1
267 268 1
268 33 1
268 36 1
268 59 1
268 115 1
268 117 1
268 243 1
268 244 1
268 249 1
268 250 1
268 265 1
268 266 1
268 267 1
268 305 1
269 29 1
269 30 1
269 31 1
269 32 1
269 41 1
269 42 1
269 43 1
269 44 1
269 50 1
269 51 1
269 53 1
269 179 1
269 223 1
269 224 1
269 265 1
269 266 1
269 270 1
269 305 1
269 375 1
269 376 1
269 380 1
270 29 1
270 30 1
270 31 1
270 32 1
270 33 1
270 41 1
270 42 1
270 43 1
270 53 1
270 54 1
270 62 1
270 64 1
270 180 1
270 223 1
270 224 1
270 265 1
270 266 1
270 269 1
270 306 1
270 375 1
270 376 1
270 379 1
271 71 1
271 72 1
271 147 1
271 148 1
271 221 1
271 222 1
271 231 1
271 232 1
271 233 1
271 234 1
271 245 1
271 246 1
271 272 1
271 275 1
271 276 1
271 369 1
271 370 1
272 71 1
272 72 1
272 147 1
272 148 1
272 221 1
272 222 1
272 231 1
272 232 1
272 233 1
272 234 1
272 245 1
272 246 1
272 271 1
272 275 1
272 276 1
272 369 1
272 370 1
273 235 1
273 274 1
273 275 1
273 276 1
273 287 1
273 288 1
274 235 1
274 236 1
274 273 1
274 275 1
274 276 1
274 287 1
274 288 1
275 233 1
275 234 1
275 271 1
275 272 1
275 273 1
275 274 1
275 276 1
276 233 1
276 234 1
276 271 1
276 272 1
276 273 1
276 274 1
276 275 1
277 85 1
277 86 1
277 87 1
277 88 1
277 105 1
277 106 1
277 278 1
277 279 1
277 280 1
277 344 1
278 85 1
278 86 1
278 87 1
278 88 1
278 105 1
278 106 1
278 277 1
278 279 1
278 280 1
278 344 1
279 127 1
279 129 1
279 247 1
279 248 1
279 277 1
279 278 1
279 280 1
279 343 1
279 344 1
280 247 1
280 248 1
280 277 1
280 278 1
280 279 1
280 343 1
281 135 1
281 136 1
281 149 1
281 150 1
281 245 1
281 246 1
281 282 1
281 283 1
281 284 1
281 343 1
282 135 1
282 136 1
282 149 1
282 150 1
282 245 1
282 246 1
282 281 1
282 283 1
282 284 1
282 343 1
283 136 1
283 219 1
283 220 1
283 225 1
283 226 1
283 255 1
283 256 1
283 281 1
283 282 1
283 284 1
284 219 1
284 220 1
284 225 1
284 226 1
284 255 1
284 256 1
284 281 1
284 282 1
284 283 1
284 343 1
285 207 1
285 208 1
285 286 1
285 287 1
285 288 1
286 208 1
286 285 1
286 287 1
286 288 1
287 207 1
287 208 1
287 235 1
287 236 1
287 273 1
287 274 1
287 285 1
287 286 1
287 288 1
288 207 1
288 208 1
288 235 1
288 236 1
288 273 1
288 274 1
288 285 1
288 286 1
288 287 1
289 41 1
289 42 1
289 43 1
289 44 1
289 109 1
289 110 1
289 123 1
289 124 1
289 125 1
289 126 1
289 229 1
289 230 1
289 290 1
289 291 1
289 292 1
289 305 1
289 306 1
289 311 1
289 312 1
290 41 1
290 42 1
290 43 1
290 44 1
290 53 1
290 109 1
290 110 1
290 123 1
290 124 1
290 125 1
290 126 1
290 229 1
290 230 1
290 289 1
290 291 1
290 292 1
290 305 1
290 306 1
290 311 1
290 312 1
291 41 1
291 42 1
291 43 1
291 44 1
291 109 1
291 110 1
291 123 1
291 124 1
291 125 1
291 126 1
291 229 1
291 230 1
291 289 1
291 290 1
291 292 1
291 305 1
291 306 1
291 311 1
291 312 1
292 41 1
292 42 1
292 43 1
292 44 1
292 53 1
292 109 1
292 110 1
292 123 1
292 124 1
292 125 1
292 126 1
292 229 1
292 230 1
292 289 1
292 290 1
292 291 1
292 305 1
292 306 1
292 311 1
292 312 1
293 81 1
293 82 1
293 83 1
293 84 1
293 226 1
293 294 1
293 299 1
293 300 1
294 81 1
294 82 1
294 83 1
294 84 1
294 293 1
294 299 1
294 300 1
295 13 1
295 14 1
295 15 1
295 16 1
295 25 1
295 26 1
295 201 1
295 202 1
295 296 1
295 381 1
295 382 1
296 13 1
296 14 1
296 15 1
296 16 1
296 25 1
296 26 1
296 201 1
296 202 1
296 295 1
296 381 1
296 382 1
297 51 1
297 53 1
297 55 1
297 56 1
297 57 1
297 58 1
297 69 1
297 70 1
297 99 1
297 121 1
297 171 1
297 172 1
297 298 1
298 50 1
298 55 1
298 56 1
298 57 1
298 58 1
298 59 1
298 69 1
298 70 1
298 171 1
298 172 1
298 297 1
299 293 1
299 294 1
299 300 1
300 293 1
300 294 1
300 299 1
301 302 1
301 329 1
301 330 1
301 333 1
301 334 1
302 301 1
302 329 1
302 330 1
302 333 1
302 334 1
303 1 1
303 2 1
303 3 1
303 4 1
303 127 1
303 128 1
303 129 1
303 130 1
303 217 1
303 218 1
303 247 1
303 248 1
303 251 1
303 252 1
303 253 1
303 254 1
303 263 1
303 264 1
303 304 1
303 343 1
303 344 1
303 353 1
303 354 1
304 1 1
304 2 1
304 3 1
304 4 1
304 127 1
304 128 1
304 129 1
304 130 1
304 217 1
304 218 1
304 247 1
304 248 1
304 251 1
304 252 1
304 253 1
304 254 1
304 263 1
304 264 1
304 303 1
304 343 1
304 344 1
304 353 1
304 354 1
305 29 1
305 30 1
305 31 1
305 32 1
305 36 1
305 41 1
305 43 1
305 44 1
305 53 1
305 54 1
305 59 1
305 60 1
305 61 1
305 62 1
305 63 1
305 64 1
305 65 1
305 66 1
305 69 1
305 70 1
305 112 1
305 114 1
305 123 1
305 124 1
305 125 1
305 126 1
305 180 1
305 223 1
305 224 1
305 229 1
305 230 1
305 265 1
305 266 1
305 268 1
305 269 1
305 289 1
305 290 1
305 291 1
305 292 1
305 306 1
305 349 1
305 375 1
305 376 1
305 379 1
306 29 1
306 30 1
306 31 1
306 32 1
306 42 1
306 43 1
306 44 1
306 53 1
306 54 1
306 65 1
306 69 1
306 111 1
306 113 1
306 123 1
306 124 1
306 125 1
306 126 1
306 179 1
306 187 1
306 223 1
306 224 1
306 229 1
306 230 1
306 270 1
306 289 1
306 290 1
306 291 1
306 292 1
306 305 1
306 375 1
306 376 1
306 380 1
307 111 1
307 112 1
307 113 1
307 114 1
307 115 1
307 116 1
307 117 1
307 118 1
307 308 1
308 111 1
308 112 1
308 113 1
308 114 1
308 115 1
308 116 1
308 117 1
308 118 1
308 307 1
309 37 1
309 38 1
309 39 1
309 40 1
309 86 1
309 88 1
309 90 1
309 91 1
309 92 1
309 94 1
309 95 1
309 96 1
309 97 1
309 98 1
309 139 1
309 140 1
309 141 1
309 142 1
309 215 1
309 216 1
309 237 1
309 238 1
309 310 1
309 313 1
309 314 1
309 316 1
309 317 1
309 318 1
309 319 1
309 320 1
310 37 1
310 38 1
310 39 1
310 40 1
310 85 1
310 87 1
310 89 1
310 91 1
310 92 1
310 93 1
310 95 1
310 96 1
310 97 1
310 98 1
310 139 1
310 140 1
310 141 1
310 142 1
310 215 1
310 216 1
310 237 1
310 238 1
310 261 1
310 309 1
310 313 1
310 314 1
310 315 1
310 317 1
310 318 1
310 319 1
310 320 1
311 41 1
311 42 1
311 69 1
311 109 1
311 110 1
311 289 1
311 290 1
311 291 1
311 292 1
311 312 1
312 41 1
312 42 1
312 53 1
312 109 1
312 110 1
312 289 1
312 290 1
312 291 1
312 292 1
312 311 1
313 37 1
313 38 1
313 39 1
313 40 1
313 85 1
313 86 1
313 87 1
313 88 1
313 89 1
313 90 1
313 91 1
313 92 1
313 93 1
313 94 1
313 215 1
313 216 1
313 237 1
313 238 1
313 261 1
313 309 1
313 310 1
313 314 1
313 315 1
313 316 1
313 317 1
313 318 1
313 319 1
313 320 1
314 37 1
314 38 1
314 39 1
314 40 1
314 85 1
314 86 1
314 87 1
314 88 1
314 89 1
314 90 1
314 91 1
314 92 1
314 93 1
314 94 1
314 215 1
314 216 1
314 237 1
314 238 1
314 261 1
314 309 1
314 310 1
314 313 1
314 315 1
314 316 1
314 317 1
314 318 1
314 319 1
314 320 1
314 355 1
315 37 1
315 38 1
315 39 1
315 40 1
315 86 1
315 88 1
315 90 1
315 92 1
315 94 1
315 215 1
315 216 1
315 237 1
315 238 1
315 261 1
315 310 1
315 313 1
315 314 1
315 316 1
315 317 1
315 318 1
315 319 1
315 320 1
316 37 1
316 38 1
316 39 1
316 40 1
316 85 1
316 87 1
316 89 1
316 91 1
316 93 1
316 215 1
316 216 1
316 237 1
316 238 1
316 261 1
316 262 1
316 309 1
316 313 1
316 314 1
316 315 1
316 317 1
316 318 1
316 319 1
316 320 1
316 355 1
317 37 1
317 38 1
317 40 1
317 89 1
317 90 1
317 91 1
317 92 1
317 93 1
317 94 1
317 95 1
317 96 1
317 97 1
317 98 1
317 139 1
317 140 1
317 141 1
317 142 1
317 309 1
317 310 1
317 313 1
317 314 1
317 315 1
317 316 1
317 318 1
317 320 1
317 356 1
318 37 1
318 38 1
318 39 1
318 89 1
318 90 1
318 91 1
318 92 1
318 93 1
318 94 1
318 95 1
318 96 1
318 97 1
318 98 1
318 139 1
318 140 1
318 141 1
318 142 1
318 309 1
318 310 1
318 313 1
318 314 1
318 315 1
318 316 1
318 317 1
318 319 1
319 37 1
319 38 1
319 40 1
319 89 1
319 90 1
319 91 1
319 92 1
319 93 1
319 94 1
319 95 1
319 96 1
319 97 1
319 98 1
319 139 1
319 140 1
319 141 1
319 142 1
319 309 1
319 310 1
319 313 1
319 314 1
319 315 1
319 316 1
319 318 1
319 320 1
319 356 1
320 37 1
320 38 1
320 39 1
320 89 1
320 90 1
320 91 1
320 92 1
320 93 1
320 94 1
320 95 1
320 96 1
320 97 1
320 98 1
320 139 1
320 140 1
320 141 1
320 142 1
320 309 1
320 310 1
320 313 1
320 314 1
320 315 1
320 316 1
320 317 1
320 319 1
321 45 1
321 46 1
321 47 1
321 48 1
321 137 1
321 143 1
321 144 1
321 145 1
321 146 1
321 322 1
321 324 1
322 45 1
322 46 1
322 47 1
322 48 1
322 138 1
322 143 1
322 144 1
322 145 1
322 146 1
322 321 1
322 323 1
323 45 1
323 46 1
323 47 1
323 48 1
323 137 1
323 143 1
323 144 1
323 145 1
323 146 1
323 322 1
323 324 1
324 45 1
324 46 1
324 47 1
324 48 1
324 138 1
324 143 1
324 144 1
324 145 1
324 146 1
324 321 1
324 323 1
325 173 1
325 174 1
325 175 1
325 176 1
325 213 1
325 214 1
325 326 1
326 107 1
326 173 1
326 174 1
326 175 1
326 176 1
326 213 1
326 325 1
327 29 1
327 51 1
327 52 1
327 54 1
327 111 1
327 113 1
327 165 1
327 171 1
327 172 1
327 181 1
327 182 1
327 194 1
327 328 1
327 349 1
327 350 1
328 51 1
328 52 1
328 53 1
328 165 1
328 166 1
328 171 1
328 172 1
328 181 1
328 182 1
328 193 1
328 327 1
328 349 1
328 350 1
329 79 1
329 80 1
329 131 1
329 132 1
329 133 1
329 134 1
329 301 1
329 302 1
329 330 1
329 333 1
329 334 1
329 339 1
329 340 1
330 79 1
330 80 1
330 131 1
330 132 1
330 133 1
330 134 1
330 301 1
330 302 1
330 329 1
330 333 1
330 334 1
330 339 1
330 340 1
331 225 1
331 226 1
331 239 1
331 240 1
331 241 1
331 242 1
331 253 1
331 254 1
331 332 1
331 343 1
332 225 1
332 226 1
332 239 1
332 240 1
332 242 1
332 253 1
332 254 1
332 331 1
332 343 1
332 344 1
333 21 1
333 22 1
333 23 1
333 24 1
333 263 1
333 264 1
333 301 1
333 302 1
333 329 1
333 330 1
333 334 1
333 341 1
333 342 1
333 343 1
333 344 1
334 21 1
334 22 1
334 23 1
334 24 1
334 263 1
334 264 1
334 301 1
334 302 1
334 329 1
334 330 1
334 333 1
334 341 1
334 342 1
335 49 1
335 227 1
335 228 1
335 336 1
335 337 1
335 338 1
336 227 1
336 228 1
336 335 1
336 337 1
336 338 1
337 229 1
337 230 1
337 335 1
337 336 1
337 338 1
338 49 1
338 229 1
338 230 1
338 335 1
338 336 1
338 337 1
339 67 1
339 79 1
339 80 1
339 131 1
339 132 1
339 133 1
339 134 1
339 163 1
339 164 1
339 209 1
339 210 1
339 329 1
339 330 1
339 340 1
340 68 1
340 79 1
340 80 1
340 131 1
340 132 1
340 133 1
340 134 1
340 163 1
340 164 1
340 209 1
340 210 1
340 329 1
340 330 1
340 339 1
341 21 1
341 22 1
341 23 1
341 24 1
341 263 1
341 264 1
341 333 1
341 334 1
341 342 1
341 343 1
342 21 1
342 22 1
342 23 1
342 24 1
342 263 1
342 264 1
342 333 1
342 334 1
342 341 1
343 1 1
343 2 1
343 3 1
343 4 1
343 104 1
343 127 1
343 128 1
343 129 1
343 130 1
343 217 1
343 218 1
343 225 1
343 240 1
343 241 1
343 245 1
343 247 1
343 248 1
343 251 1
343 253 1
343 254 1
343 264 1
343 279 1
343 280 1
343 281 1
343 282 1
343 284 1
343 303 1
343 304 1
343 331 1
343 332 1
343 333 1
343 341 1
343 344 1
343 353 1
343 354 1
343 358 1
343 359 1
343 360 1
343 361 1
343 362 1
343 363 1
343 367 1
343 368 1
343 370 1
344 1 1
344 2 1
344 3 1
344 4 1
344 104 1
344 127 1
344 128 1
344 129 1
344 130 1
344 217 1
344 218 1
344 225 1
344 240 1
344 247 1
344 248 1
344 251 1
344 252 1
344 253 1
344 254 1
344 263 1
344 264 1
344 277 1
344 278 1
344 279 1
344 303 1
344 304 1
344 332 1
344 333 1
344 343 1
344 353 1
344 356 1
344 357 1
344 358 1
344 360 1
344 361 1
344 366 1
344 367 1
344 368 1
344 370 1
345 32 1
345 44 1
345 49 1
345 50 1
345 54 1
345 69 1
345 185 1
345 223 1
345 224 1
345 346 1
345 377 1
345 400 1
346 32 1
346 42 1
346 43 1
346 70 1
346 223 1
346 224 1
346 345 1
347 175 1
347 176 1
347 177 1
347 178 1
347 195 1
347 196 1
347 348 1
347 351 1
347 352 1
348 175 1
348 176 1
348 177 1
348 178 1
348 195 1
348 196 1
348 347 1
348 351 1
348 352 1
349 51 1
349 69 1
349 305 1
349 327 1
349 328 1
349 350 1
350 51 1
350 69 1
350 327 1
350 328 1
350 349 1
351 175 1
351 176 1
351 177 1
351 178 1
351 183 1
351 184 1
351 191 1
351 192 1
351 195 1
351 196 1
351 347 1
351 348 1
351 352 1
352 175 1
352 176 1
352 177 1
352 178 1
352 183 1
352 184 1
352 191 1
352 192 1
352 195 1
352 196 1
352 347 1
352 348 1
352 351 1
353 22 1
353 24 1
353 217 1
353 218 1
353 247 1
353 248 1
353 251 1
353 252 1
353 263 1
353 264 1
353 303 1
353 304 1
353 343 1
353 344 1
353 354 1
354 217 1
354 218 1
354 247 1
354 248 1
354 251 1
354 252 1
354 263 1
354 264 1
354 303 1
354 304 1
354 343 1
354 353 1
355 85 1
355 87 1
355 90 1
355 92 1
355 215 1
355 216 1
355 261 1
355 262 1
355 314 1
355 316 1
355 356 1
355 357 1
355 358 1
356 37 1
356 39 1
356 215 1
356 216 1
356 261 1
356 262 1
356 317 1
356 319 1
356 344 1
356 355 1
356 357 1
356 358 1
357 344 1
357 355 1
357 356 1
357 358 1
357 359 1
357 360 1
358 18 1
358 103 1
358 343 1
358 344 1
358 355 1
358 356 1
358 357 1
358 359 1
358 360 1
359 343 1
359 357 1
359 358 1
359 360 1
359 361 1
359 362 1
360 343 1
360 344 1
360 357 1
360 358 1
360 359 1
360 361 1
360 362 1
361 343 1
361 344 1
361 359 1
361 360 1
361 362 1
361 363 1
361 364 1
362 343 1
362 359 1
362 360 1
362 361 1
362 363 1
362 364 1
363 343 1
363 361 1
363 362 1
363 364 1
363 365 1
363 366 1
364 361 1
364 362 1
364 363 1
364 365 1
364 366 1
365 363 1
365 364 1
365 366 1
365 367 1
365 368 1
366 344 1
366 363 1
366 364 1
366 365 1
366 367 1
366 368 1
367 343 1
367 344 1
367 365 1
367 366 1
367 368 1
367 369 1
367 370 1
368 233 1
368 343 1
368 344 1
368 365 1
368 366 1
368 367 1
368 369 1
368 370 1
369 71 1
369 72 1
369 147 1
369 148 1
369 221 1
369 222 1
369 231 1
369 232 1
369 245 1
369 246 1
369 271 1
369 272 1
369 367 1
369 368 1
369 370 1
370 71 1
370 72 1
370 147 1
370 148 1
370 221 1
370 222 1
370 231 1
370 232 1
370 245 1
370 246 1
370 271 1
370 272 1
370 343 1
370 344 1
370 367 1
370 368 1
370 369 1
371 372 1
371 373 1
371 374 1
372 371 1
372 373 1
372 374 1
373 52 1
373 54 1
373 165 1
373 166 1
373 167 1
373 169 1
373 170 1
373 371 1
373 372 1
373 374 1
374 52 1
374 165 1
374 166 1
374 167 1
374 168 1
374 169 1
374 170 1
374 371 1
374 372 1
374 373 1
375 29 1
375 30 1
375 31 1
375 32 1
375 41 1
375 42 1
375 43 1
375 50 1
375 53 1
375 54 1
375 179 1
375 180 1
375 223 1
375 224 1
375 269 1
375 270 1
375 305 1
375 306 1
375 376 1
375 379 1
375 380 1
376 29 1
376 30 1
376 31 1
376 32 1
376 42 1
376 44 1
376 50 1
376 51 1
376 53 1
376 54 1
376 179 1
376 180 1
376 223 1
376 224 1
376 265 1
376 269 1
376 270 1
376 305 1
376 306 1
376 375 1
376 380 1
377 29 1
377 30 1
377 32 1
377 36 1
377 41 1
377 42 1
377 49 1
377 50 1
377 54 1
377 61 1
377 63 1
377 69 1
377 185 1
377 186 1
377 187 1
377 188 1
377 265 1
377 266 1
377 345 1
377 378 1
377 399 1
377 400 1
378 29 1
378 30 1
378 31 1
378 34 1
378 41 1
378 42 1
378 49 1
378 50 1
378 53 1
378 54 1
378 185 1
378 186 1
378 187 1
378 188 1
378 223 1
378 377 1
378 399 1
378 400 1
379 29 1
379 30 1
379 31 1
379 32 1
379 33 1
379 43 1
379 53 1
379 54 1
379 179 1
379 223 1
379 224 1
379 270 1
379 305 1
379 375 1
379 380 1
380 29 1
380 30 1
380 31 1
380 32 1
380 42 1
380 44 1
380 50 1
380 53 1
380 180 1
380 223 1
380 224 1
380 269 1
380 306 1
380 375 1
380 376 1
380 379 1
381 13 1
381 14 1
381 15 1
381 16 1
381 295 1
381 296 1
381 382 1
381 383 1
381 384 1
381 391 1
381 392 1
382 13 1
382 14 1
382 15 1
382 16 1
382 295 1
382 296 1
382 381 1
382 383 1
382 384 1
382 391 1
382 392 1
383 381 1
383 382 1
383 384 1
384 381 1
384 382 1
384 383 1
385 5 1
385 6 1
385 7 1
385 8 1
385 9 1
385 10 1
385 27 1
385 28 1
385 386 1
385 389 1
385 390 1
385 393 1
385 394 1
385 395 1
385 396 1
386 5 1
386 6 1
386 7 1
386 8 1
386 9 1
386 10 1
386 27 1
386 28 1
386 385 1
386 389 1
386 390 1
386 393 1
386 394 1
386 395 1
386 396 1
387 388 1
387 389 1
387 390 1
387 391 1
387 392 1
387 397 1
387 398 1
388 387 1
388 389 1
388 390 1
388 391 1
388 392 1
388 397 1
389 385 1
389 386 1
389 387 1
389 388 1
389 390 1
389 393 1
389 394 1
390 385 1
390 386 1
390 387 1
390 388 1
390 389 1
390 393 1
390 394 1
391 13 1
391 14 1
391 15 1
391 16 1
391 381 1
391 382 1
391 387 1
391 388 1
391 392 1
391 397 1
391 398 1
392 13 1
392 14 1
392 15 1
392 16 1
392 18 1
392 381 1
392 382 1
392 387 1
392 388 1
392 391 1
392 397 1
392 398 1
393 9 1
393 10 1
393 11 1
393 12 1
393 385 1
393 386 1
393 389 1
393 390 1
393 394 1
394 9 1
394 10 1
394 11 1
394 12 1
394 385 1
394 386 1
394 389 1
394 390 1
394 393 1
395 9 1
395 10 1
395 385 1
395 386 1
395 396 1
396 9 1
396 10 1
396 385 1
396 386 1
396 395 1
397 387 1
397 388 1
397 391 1
397 392 1
397 398 1
398 387 1
398 391 1
398 392 1
398 397 1
399 29 1
399 30 1
399 32 1
399 34 1
399 41 1
399 42 1
399 49 1
399 50 1
399 53 1
399 54 1
399 69 1
399 185 1
399 186 1
399 187 1
399 188 1
399 377 1
399 378 1
399 400 1
400 29 1
400 30 1
400 36 1
400 41 1
400 42 1
400 49 1
400 50 1
400 53 1
400 54 1
400 61 1
400 63 1
400 69 1
400 111 1
400 113 1
400 185 1
400 187 1
400 188 1
400 265 1
400 266 1
400 345 1
400 377 1
400 378 1
400 399 1
