%%MatrixMarket matrix coordinate integer general
%
400 400 5730
1 2 1
1 3 1
1 4 1
1 127 1
1 128 1
1 129 1
1 130 1
1 217 1
1 218 1
1 251 1
1 252 1
1 301 1
1 302 1
1 339 1
1 340 1
2 1 1
2 3 1
2 4 1
2 127 1
2 128 1
2 129 1
2 130 1
2 217 1
2 218 1
2 251 1
2 252 1
2 301 1
2 302 1
2 339 1
2 340 1
3 1 1
3 2 1
3 4 1
3 127 1
3 128 1
3 129 1
3 130 1
3 217 1
3 218 1
3 251 1
3 252 1
3 301 1
3 302 1
3 339 1
3 340 1
4 1 1
4 2 1
4 3 1
4 127 1
4 128 1
4 129 1
4 130 1
4 217 1
4 218 1
4 251 1
4 252 1
4 301 1
4 302 1
4 339 1
4 340 1
5 6 1
5 11 1
5 12 1
5 195 1
5 196 1
5 197 1
5 198 1
5 379 1
5 380 1
6 5 1
6 11 1
6 12 1
6 195 1
6 196 1
6 197 1
6 198 1
6 379 1
6 380 1
7 8 1
7 377 1
7 378 1
8 7 1
8 377 1
8 378 1
9 10 1
9 11 1
9 12 1
9 13 1
9 14 1
9 29 1
9 30 1
9 379 1
9 380 1
10 9 1
10 11 1
10 12 1
10 13 1
10 14 1
10 29 1
10 30 1
10 379 1
10 380 1
11 5 1
11 6 1
11 9 1
11 10 1
11 12 1
11 13 1
11 14 1
11 379 1
11 380 1
11 387 1
11 388 1
11 393 1
11 394 1
12 5 1
12 6 1
12 9 1
12 10 1
12 11 1
12 13 1
12 14 1
12 379 1
12 380 1
12 387 1
12 388 1
12 393 1
12 394 1
13 9 1
13 10 1
13 11 1
13 12 1
13 14 1
13 19 1
13 20 1
13 387 1
13 388 1
14 9 1
14 10 1
14 11 1
14 12 1
14 13 1
14 387 1
14 388 1
15 16 1
15 17 1
15 18 1
15 293 1
15 294 1
15 375 1
15 376 1
15 385 1
15 386 1
16 15 1
16 17 1
16 18 1
16 293 1
16 294 1
16 375 1
16 376 1
16 385 1
16 386 1
17 15 1
17 16 1
17 18 1
17 293 1
17 294 1
17 375 1
17 376 1
17 385 1
17 386 1
18 15 1
18 16 1
18 17 1
18 293 1
18 294 1
18 375 1
18 376 1
18 385 1
18 386 1
19 13 1
19 20 1
19 21 1
19 22 1
20 13 1
20 19 1
20 21 1
20 22 1
20 293 1
20 354 1
20 386 1
21 19 1
21 20 1
21 22 1
21 105 1
22 19 1
22 20 1
22 21 1
22 106 1
23 24 1
23 25 1
23 26 1
23 261 1
23 262 1
23 329 1
23 330 1
23 337 1
23 338 1
24 23 1
24 25 1
24 26 1
24 261 1
24 262 1
24 329 1
24 330 1
24 337 1
24 338 1
24 349 1
25 23 1
25 24 1
25 26 1
25 261 1
25 262 1
25 329 1
25 330 1
25 337 1
25 338 1
26 23 1
26 24 1
26 25 1
26 261 1
26 262 1
26 329 1
26 330 1
26 337 1
26 338 1
26 349 1
27 28 1
27 29 1
27 30 1
27 199 1
27 200 1
27 293 1
27 294 1
28 27 1
28 29 1
28 30 1
28 199 1
28 200 1
28 293 1
28 294 1
29 9 1
29 10 1
29 27 1
29 28 1
29 30 1
29 379 1
29 380 1
30 9 1
30 10 1
30 27 1
30 28 1
30 29 1
30 379 1
30 380 1
31 32 1
31 33 1
31 34 1
31 43 1
31 51 1
31 52 1
31 55 1
31 56 1
31 71 1
31 72 1
31 177 1
31 178 1
31 179 1
31 183 1
31 186 1
31 223 1
31 224 1
31 267 1
31 268 1
31 303 1
31 304 1
31 323 1
31 369 1
31 370 1
31 371 1
31 372 1
31 373 1
31 374 1
31 399 1
31 400 1
32 31 1
32 33 1
32 34 1
32 36 1
32 44 1
32 51 1
32 52 1
32 53 1
32 54 1
32 55 1
32 56 1
32 72 1
32 177 1
32 178 1
32 184 1
32 185 1
32 223 1
32 224 1
32 267 1
32 268 1
32 303 1
32 304 1
32 369 1
32 370 1
32 371 1
32 372 1
32 373 1
32 374 1
32 399 1
32 400 1
33 31 1
33 32 1
33 34 1
33 43 1
33 44 1
33 45 1
33 46 1
33 51 1
33 52 1
33 55 1
33 56 1
33 63 1
33 65 1
33 71 1
33 72 1
33 177 1
33 178 1
33 186 1
33 223 1
33 224 1
33 267 1
33 268 1
33 303 1
33 304 1
33 369 1
33 370 1
33 372 1
33 373 1
33 374 1
34 31 1
34 32 1
34 33 1
34 43 1
34 44 1
34 45 1
34 46 1
34 55 1
34 56 1
34 71 1
34 72 1
34 177 1
34 178 1
34 184 1
34 185 1
34 223 1
34 224 1
34 267 1
34 268 1
34 303 1
34 304 1
34 341 1
34 342 1
34 369 1
34 370 1
34 371 1
34 373 1
34 374 1
34 399 1
35 36 1
35 37 1
35 38 1
35 45 1
35 52 1
35 56 1
35 61 1
35 62 1
35 67 1
35 111 1
35 113 1
35 263 1
35 264 1
35 266 1
35 268 1
35 373 1
36 32 1
36 35 1
36 37 1
36 38 1
36 45 1
36 55 1
36 61 1
36 62 1
36 67 1
36 68 1
36 185 1
36 263 1
36 264 1
36 372 1
36 399 1
37 35 1
37 36 1
37 38 1
37 45 1
37 62 1
37 68 1
37 263 1
38 35 1
38 36 1
38 37 1
38 46 1
38 51 1
38 52 1
38 56 1
38 61 1
38 67 1
38 264 1
38 266 1
38 303 1
38 371 1
38 400 1
39 40 1
39 41 1
39 42 1
39 91 1
39 92 1
39 93 1
39 94 1
39 95 1
39 96 1
39 97 1
39 98 1
39 99 1
39 100 1
39 139 1
39 140 1
39 141 1
39 142 1
39 307 1
39 308 1
39 311 1
39 312 1
39 313 1
39 314 1
39 315 1
39 316 1
39 317 1
39 318 1
39 352 1
40 39 1
40 41 1
40 42 1
40 91 1
40 92 1
40 93 1
40 94 1
40 95 1
40 96 1
40 97 1
40 98 1
40 99 1
40 100 1
40 139 1
40 140 1
40 141 1
40 142 1
40 307 1
40 308 1
40 311 1
40 312 1
40 313 1
40 314 1
40 315 1
40 316 1
40 317 1
40 318 1
41 39 1
41 40 1
41 42 1
41 91 1
41 92 1
41 93 1
41 94 1
41 95 1
41 96 1
41 97 1
41 98 1
41 99 1
41 100 1
41 139 1
41 140 1
41 141 1
41 142 1
41 307 1
41 308 1
41 311 1
41 312 1
41 313 1
41 314 1
41 315 1
41 316 1
41 317 1
41 318 1
41 352 1
42 39 1
42 40 1
42 41 1
42 91 1
42 92 1
42 93 1
42 94 1
42 95 1
42 96 1
42 97 1
42 98 1
42 99 1
42 100 1
42 139 1
42 140 1
42 141 1
42 142 1
42 307 1
42 308 1
42 311 1
42 312 1
42 313 1
42 314 1
42 315 1
42 316 1
42 317 1
42 318 1
43 31 1
43 33 1
43 34 1
43 44 1
43 45 1
43 46 1
43 51 1
43 52 1
43 53 1
43 55 1
43 56 1
43 63 1
43 64 1
43 65 1
43 66 1
43 71 1
43 72 1
43 109 1
43 110 1
43 112 1
43 114 1
43 177 1
43 183 1
43 186 1
43 223 1
43 267 1
43 268 1
43 287 1
43 288 1
43 289 1
43 290 1
43 303 1
43 309 1
43 310 1
43 369 1
43 371 1
43 372 1
43 399 1
43 400 1
44 32 1
44 33 1
44 34 1
44 43 1
44 45 1
44 46 1
44 51 1
44 52 1
44 53 1
44 55 1
44 56 1
44 63 1
44 64 1
44 65 1
44 66 1
44 71 1
44 72 1
44 109 1
44 110 1
44 111 1
44 113 1
44 177 1
44 178 1
44 184 1
44 185 1
44 267 1
44 268 1
44 287 1
44 288 1
44 289 1
44 290 1
44 304 1
44 309 1
44 310 1
44 342 1
44 369 1
44 370 1
44 371 1
44 372 1
44 374 1
44 399 1
44 400 1
45 33 1
45 34 1
45 35 1
45 36 1
45 37 1
45 43 1
45 44 1
45 46 1
45 51 1
45 52 1
45 55 1
45 56 1
45 62 1
45 63 1
45 64 1
45 65 1
45 66 1
45 71 1
45 72 1
45 123 1
45 124 1
45 125 1
45 126 1
45 177 1
45 223 1
45 227 1
45 228 1
45 267 1
45 268 1
45 287 1
45 288 1
45 289 1
45 290 1
45 303 1
45 304 1
45 342 1
45 369 1
45 373 1
46 33 1
46 34 1
46 38 1
46 43 1
46 44 1
46 45 1
46 52 1
46 53 1
46 55 1
46 56 1
46 61 1
46 63 1
46 64 1
46 65 1
46 66 1
46 67 1
46 68 1
46 71 1
46 72 1
46 123 1
46 124 1
46 125 1
46 126 1
46 178 1
46 224 1
46 227 1
46 228 1
46 263 1
46 267 1
46 287 1
46 288 1
46 289 1
46 290 1
46 303 1
46 304 1
46 341 1
46 370 1
46 374 1
47 48 1
47 49 1
47 50 1
47 137 1
47 138 1
47 139 1
47 140 1
47 141 1
47 142 1
47 143 1
47 144 1
47 145 1
47 146 1
47 319 1
47 320 1
47 321 1
47 322 1
48 47 1
48 49 1
48 50 1
48 137 1
48 138 1
48 139 1
48 140 1
48 141 1
48 142 1
48 143 1
48 144 1
48 145 1
48 146 1
48 319 1
48 320 1
48 321 1
48 322 1
49 47 1
49 48 1
49 50 1
49 137 1
49 138 1
49 139 1
49 140 1
49 141 1
49 142 1
49 143 1
49 144 1
49 145 1
49 146 1
49 319 1
49 320 1
49 321 1
49 322 1
50 47 1
50 48 1
50 49 1
50 137 1
50 138 1
50 139 1
50 140 1
50 141 1
50 142 1
50 143 1
50 144 1
50 145 1
50 146 1
50 319 1
50 320 1
50 321 1
50 322 1
51 31 1
51 32 1
51 33 1
51 38 1
51 43 1
51 44 1
51 45 1
51 52 1
51 55 1
51 56 1
51 63 1
51 65 1
51 71 1
51 183 1
51 184 1
51 185 1
51 186 1
51 223 1
51 263 1
51 264 1
51 331 1
51 334 1
51 341 1
51 371 1
51 372 1
51 399 1
51 400 1
52 31 1
52 32 1
52 33 1
52 35 1
52 38 1
52 43 1
52 44 1
52 45 1
52 46 1
52 51 1
52 55 1
52 56 1
52 62 1
52 63 1
52 64 1
52 65 1
52 66 1
52 68 1
52 71 1
52 72 1
52 111 1
52 112 1
52 113 1
52 114 1
52 177 1
52 178 1
52 179 1
52 183 1
52 184 1
52 185 1
52 186 1
52 263 1
52 264 1
52 267 1
52 296 1
52 341 1
52 369 1
52 370 1
52 371 1
52 372 1
52 374 1
52 399 1
52 400 1
53 32 1
53 43 1
53 44 1
53 46 1
53 54 1
53 55 1
53 56 1
53 62 1
53 63 1
53 65 1
53 68 1
53 71 1
53 112 1
53 114 1
53 123 1
53 124 1
53 125 1
53 126 1
53 165 1
53 166 1
53 171 1
53 172 1
53 178 1
53 179 1
53 180 1
53 184 1
53 185 1
53 191 1
53 192 1
53 267 1
53 295 1
53 323 1
53 324 1
53 345 1
53 346 1
53 370 1
54 32 1
54 53 1
54 55 1
54 56 1
54 123 1
54 124 1
54 125 1
54 126 1
54 165 1
54 166 1
54 170 1
54 171 1
54 172 1
54 179 1
54 180 1
54 184 1
54 185 1
54 191 1
54 192 1
54 323 1
54 324 1
54 367 1
54 368 1
55 31 1
55 32 1
55 33 1
55 34 1
55 36 1
55 43 1
55 44 1
55 45 1
55 46 1
55 51 1
55 52 1
55 53 1
55 54 1
55 56 1
55 63 1
55 64 1
55 65 1
55 66 1
55 68 1
55 71 1
55 72 1
55 110 1
55 112 1
55 114 1
55 123 1
55 124 1
55 125 1
55 126 1
55 165 1
55 166 1
55 171 1
55 172 1
55 177 1
55 178 1
55 179 1
55 180 1
55 183 1
55 184 1
55 185 1
55 186 1
55 191 1
55 192 1
55 223 1
55 224 1
55 263 1
55 267 1
55 268 1
55 288 1
55 290 1
55 295 1
55 303 1
55 304 1
55 310 1
55 323 1
55 324 1
55 369 1
55 370 1
55 372 1
55 373 1
55 374 1
55 399 1
55 400 1
56 31 1
56 32 1
56 33 1
56 34 1
56 35 1
56 38 1
56 43 1
56 44 1
56 45 1
56 46 1
56 51 1
56 52 1
56 53 1
56 54 1
56 55 1
56 63 1
56 64 1
56 65 1
56 66 1
56 68 1
56 71 1
56 72 1
56 123 1
56 125 1
56 165 1
56 166 1
56 171 1
56 172 1
56 177 1
56 178 1
56 179 1
56 180 1
56 183 1
56 184 1
56 185 1
56 186 1
56 191 1
56 192 1
56 223 1
56 263 1
56 264 1
56 268 1
56 303 1
56 304 1
56 323 1
56 324 1
56 341 1
56 367 1
56 369 1
56 370 1
56 371 1
56 372 1
56 373 1
56 399 1
56 400 1
57 58 1
57 59 1
57 60 1
57 169 1
57 170 1
57 191 1
57 192 1
57 295 1
57 296 1
58 57 1
58 59 1
58 60 1
58 115 1
58 117 1
58 169 1
58 170 1
58 191 1
58 192 1
58 295 1
58 296 1
59 57 1
59 58 1
59 60 1
59 169 1
59 170 1
59 191 1
59 192 1
59 295 1
59 296 1
60 57 1
60 58 1
60 59 1
60 115 1
60 117 1
60 169 1
60 170 1
60 191 1
60 192 1
60 295 1
60 296 1
61 35 1
61 36 1
61 38 1
61 46 1
61 62 1
61 63 1
61 64 1
61 65 1
61 66 1
61 67 1
61 68 1
61 111 1
61 112 1
61 113 1
61 114 1
61 264 1
61 266 1
61 296 1
61 303 1
62 35 1
62 36 1
62 37 1
62 45 1
62 52 1
62 53 1
62 61 1
62 63 1
62 64 1
62 65 1
62 66 1
62 67 1
62 68 1
62 111 1
62 112 1
62 113 1
62 114 1
62 263 1
62 264 1
62 303 1
63 33 1
63 43 1
63 44 1
63 45 1
63 46 1
63 51 1
63 52 1
63 53 1
63 55 1
63 56 1
63 61 1
63 62 1
63 64 1
63 65 1
63 66 1
63 67 1
63 68 1
63 71 1
63 111 1
63 112 1
63 113 1
63 114 1
63 303 1
63 371 1
63 400 1
64 43 1
64 44 1
64 45 1
64 46 1
64 52 1
64 55 1
64 56 1
64 61 1
64 62 1
64 63 1
64 65 1
64 66 1
64 67 1
64 68 1
64 72 1
64 111 1
64 112 1
64 113 1
64 114 1
64 268 1
64 303 1
65 33 1
65 43 1
65 44 1
65 45 1
65 46 1
65 51 1
65 52 1
65 53 1
65 55 1
65 56 1
65 61 1
65 62 1
65 63 1
65 64 1
65 66 1
65 67 1
65 68 1
65 71 1
65 111 1
65 112 1
65 113 1
65 114 1
65 303 1
65 371 1
65 400 1
66 43 1
66 44 1
66 45 1
66 46 1
66 52 1
66 55 1
66 56 1
66 61 1
66 62 1
66 63 1
66 64 1
66 65 1
66 67 1
66 68 1
66 72 1
66 111 1
66 112 1
66 113 1
66 114 1
66 268 1
66 303 1
67 35 1
67 36 1
67 38 1
67 46 1
67 61 1
67 62 1
67 63 1
67 64 1
67 65 1
67 66 1
67 68 1
67 111 1
67 112 1
67 113 1
67 114 1
67 264 1
67 303 1
67 304 1
68 36 1
68 37 1
68 46 1
68 52 1
68 53 1
68 55 1
68 56 1
68 61 1
68 62 1
68 63 1
68 64 1
68 65 1
68 66 1
68 67 1
68 111 1
68 112 1
68 113 1
68 114 1
68 263 1
68 303 1
69 70 1
69 81 1
69 82 1
69 131 1
69 132 1
69 133 1
69 134 1
69 151 1
69 152 1
69 155 1
69 159 1
69 162 1
69 163 1
69 211 1
69 212 1
69 335 1
70 69 1
70 81 1
70 82 1
70 131 1
70 132 1
70 133 1
70 134 1
70 151 1
70 152 1
70 155 1
70 156 1
70 159 1
70 160 1
70 162 1
70 163 1
70 164 1
70 211 1
70 212 1
70 213 1
70 336 1
71 31 1
71 33 1
71 34 1
71 43 1
71 44 1
71 45 1
71 46 1
71 51 1
71 52 1
71 53 1
71 55 1
71 56 1
71 63 1
71 65 1
71 72 1
71 109 1
71 171 1
71 172 1
71 183 1
71 223 1
71 295 1
71 296 1
71 303 1
71 304 1
71 309 1
71 341 1
71 345 1
71 346 1
71 371 1
71 399 1
71 400 1
72 31 1
72 32 1
72 33 1
72 34 1
72 43 1
72 44 1
72 45 1
72 46 1
72 52 1
72 55 1
72 56 1
72 64 1
72 66 1
72 71 1
72 171 1
72 172 1
72 224 1
72 295 1
72 296 1
72 303 1
72 342 1
73 74 1
73 75 1
73 76 1
73 147 1
73 148 1
73 221 1
73 222 1
73 229 1
73 230 1
73 243 1
73 244 1
73 269 1
73 270 1
73 365 1
73 366 1
74 73 1
74 75 1
74 76 1
74 147 1
74 148 1
74 221 1
74 222 1
74 229 1
74 230 1
74 243 1
74 244 1
74 269 1
74 270 1
74 365 1
74 366 1
75 73 1
75 74 1
75 76 1
75 149 1
75 150 1
76 73 1
76 74 1
76 75 1
76 149 1
76 150 1
77 78 1
77 101 1
77 102 1
77 115 1
77 116 1
77 117 1
77 118 1
77 121 1
77 122 1
77 147 1
77 148 1
77 201 1
77 202 1
78 77 1
78 101 1
78 102 1
78 115 1
78 116 1
78 117 1
78 118 1
78 121 1
78 122 1
78 147 1
78 148 1
78 201 1
78 202 1
79 80 1
79 181 1
79 182 1
80 79 1
80 181 1
80 182 1
80 256 1
81 69 1
81 70 1
81 82 1
81 131 1
81 132 1
81 133 1
81 134 1
81 156 1
81 162 1
81 212 1
81 325 1
81 326 1
81 335 1
81 336 1
82 69 1
82 70 1
82 81 1
82 131 1
82 132 1
82 133 1
82 134 1
82 155 1
82 212 1
82 325 1
82 326 1
82 335 1
82 336 1
83 84 1
83 85 1
83 86 1
83 219 1
83 220 1
83 255 1
83 256 1
83 291 1
83 292 1
84 83 1
84 85 1
84 86 1
84 219 1
84 220 1
84 238 1
84 255 1
84 256 1
84 291 1
84 292 1
85 83 1
85 84 1
85 86 1
85 219 1
85 220 1
85 255 1
85 256 1
85 291 1
85 292 1
86 83 1
86 84 1
86 85 1
86 219 1
86 220 1
86 238 1
86 255 1
86 256 1
86 291 1
86 292 1
87 88 1
87 89 1
87 90 1
87 91 1
87 92 1
87 93 1
87 94 1
87 95 1
87 96 1
87 107 1
87 108 1
87 215 1
87 216 1
87 235 1
87 236 1
87 260 1
87 275 1
87 276 1
87 307 1
87 308 1
87 311 1
87 312 1
87 313 1
87 314 1
87 351 1
88 87 1
88 89 1
88 90 1
88 91 1
88 92 1
88 93 1
88 94 1
88 95 1
88 96 1
88 107 1
88 108 1
88 215 1
88 216 1
88 235 1
88 236 1
88 260 1
88 275 1
88 276 1
88 307 1
88 308 1
88 311 1
88 312 1
88 313 1
88 314 1
89 87 1
89 88 1
89 90 1
89 91 1
89 92 1
89 93 1
89 94 1
89 95 1
89 96 1
89 107 1
89 108 1
89 215 1
89 216 1
89 235 1
89 236 1
89 260 1
89 275 1
89 276 1
89 307 1
89 308 1
89 311 1
89 312 1
89 313 1
89 314 1
89 351 1
90 87 1
90 88 1
90 89 1
90 91 1
90 92 1
90 93 1
90 94 1
90 95 1
90 96 1
90 107 1
90 108 1
90 215 1
90 216 1
90 235 1
90 236 1
90 260 1
90 275 1
90 276 1
90 307 1
90 308 1
90 311 1
90 312 1
90 313 1
90 314 1
91 39 1
91 40 1
91 41 1
91 42 1
91 87 1
91 88 1
91 89 1
91 90 1
91 92 1
91 93 1
91 94 1
91 95 1
91 96 1
91 215 1
91 216 1
91 235 1
91 236 1
91 259 1
91 307 1
91 308 1
91 311 1
91 312 1
91 313 1
91 314 1
91 315 1
91 316 1
91 317 1
91 318 1
92 39 1
92 40 1
92 41 1
92 42 1
92 87 1
92 88 1
92 89 1
92 90 1
92 91 1
92 93 1
92 94 1
92 95 1
92 96 1
92 215 1
92 216 1
92 235 1
92 236 1
92 259 1
92 260 1
92 307 1
92 308 1
92 311 1
92 312 1
92 313 1
92 314 1
92 315 1
92 316 1
92 317 1
92 318 1
92 351 1
93 39 1
93 40 1
93 41 1
93 42 1
93 87 1
93 88 1
93 89 1
93 90 1
93 91 1
93 92 1
93 94 1
93 95 1
93 96 1
93 215 1
93 216 1
93 235 1
93 236 1
93 259 1
93 307 1
93 308 1
93 311 1
93 312 1
93 313 1
93 314 1
93 315 1
93 316 1
93 317 1
93 318 1
94 39 1
94 40 1
94 41 1
94 42 1
94 87 1
94 88 1
94 89 1
94 90 1
94 91 1
94 92 1
94 93 1
94 95 1
94 96 1
94 215 1
94 216 1
94 235 1
94 236 1
94 259 1
94 260 1
94 307 1
94 308 1
94 311 1
94 312 1
94 313 1
94 314 1
94 315 1
94 316 1
94 317 1
94 318 1
94 351 1
95 39 1
95 40 1
95 41 1
95 42 1
95 87 1
95 88 1
95 89 1
95 90 1
95 91 1
95 92 1
95 93 1
95 94 1
95 96 1
95 97 1
95 98 1
95 99 1
95 100 1
95 139 1
95 140 1
95 141 1
95 142 1
95 215 1
95 216 1
95 235 1
95 236 1
95 307 1
95 308 1
95 311 1
95 312 1
95 313 1
95 314 1
95 315 1
95 316 1
95 317 1
95 318 1
96 39 1
96 40 1
96 41 1
96 42 1
96 87 1
96 88 1
96 89 1
96 90 1
96 91 1
96 92 1
96 93 1
96 94 1
96 95 1
96 97 1
96 98 1
96 99 1
96 100 1
96 139 1
96 140 1
96 141 1
96 142 1
96 215 1
96 216 1
96 235 1
96 236 1
96 259 1
96 307 1
96 308 1
96 311 1
96 312 1
96 313 1
96 314 1
96 315 1
96 316 1
96 317 1
96 318 1
97 39 1
97 40 1
97 41 1
97 42 1
97 95 1
97 96 1
97 98 1
97 99 1
97 100 1
97 139 1
97 140 1
97 141 1
97 142 1
97 307 1
97 308 1
97 315 1
97 316 1
97 317 1
97 318 1
98 39 1
98 40 1
98 41 1
98 42 1
98 95 1
98 96 1
98 97 1
98 99 1
98 100 1
98 139 1
98 140 1
98 141 1
98 142 1
98 307 1
98 308 1
98 315 1
98 316 1
98 317 1
98 318 1
99 39 1
99 40 1
99 41 1
99 42 1
99 95 1
99 96 1
99 97 1
99 98 1
99 100 1
99 139 1
99 140 1
99 141 1
99 142 1
99 307 1
99 308 1
99 315 1
99 316 1
99 317 1
99 318 1
100 39 1
100 40 1
100 41 1
100 42 1
100 95 1
100 96 1
100 97 1
100 98 1
100 99 1
100 139 1
100 140 1
100 141 1
100 142 1
100 236 1
100 307 1
100 308 1
100 315 1
100 316 1
100 317 1
100 318 1
101 77 1
101 78 1
101 102 1
101 115 1
101 116 1
101 117 1
101 118 1
101 121 1
101 122 1
101 201 1
101 202 1
101 295 1
102 77 1
102 78 1
102 101 1
102 115 1
102 116 1
102 117 1
102 118 1
102 121 1
102 122 1
102 201 1
102 202 1
103 104 1
103 188 1
103 258 1
104 103 1
104 187 1
104 257 1
105 21 1
105 106 1
105 107 1
105 108 1
105 354 1
106 22 1
106 105 1
106 107 1
106 108 1
106 339 1
106 340 1
107 87 1
107 88 1
107 89 1
107 90 1
107 105 1
107 106 1
107 108 1
107 275 1
107 276 1
108 87 1
108 88 1
108 89 1
108 90 1
108 105 1
108 106 1
108 107 1
108 275 1
108 276 1
109 43 1
109 44 1
109 71 1
109 110 1
109 287 1
109 288 1
109 289 1
109 290 1
109 309 1
109 310 1
110 43 1
110 44 1
110 55 1
110 109 1
110 287 1
110 288 1
110 289 1
110 290 1
110 309 1
110 310 1
111 35 1
111 44 1
111 52 1
111 61 1
111 62 1
111 63 1
111 64 1
111 65 1
111 66 1
111 67 1
111 68 1
111 112 1
111 113 1
111 114 1
111 115 1
111 116 1
111 117 1
111 118 1
111 264 1
111 304 1
111 305 1
111 306 1
111 323 1
111 400 1
112 43 1
112 52 1
112 53 1
112 55 1
112 61 1
112 62 1
112 63 1
112 64 1
112 65 1
112 66 1
112 67 1
112 68 1
112 111 1
112 113 1
112 114 1
112 115 1
112 116 1
112 117 1
112 118 1
112 303 1
112 305 1
112 306 1
113 35 1
113 44 1
113 52 1
113 61 1
113 62 1
113 63 1
113 64 1
113 65 1
113 66 1
113 67 1
113 68 1
113 111 1
113 112 1
113 114 1
113 115 1
113 116 1
113 117 1
113 118 1
113 264 1
113 304 1
113 305 1
113 306 1
113 323 1
113 400 1
114 43 1
114 52 1
114 53 1
114 55 1
114 61 1
114 62 1
114 63 1
114 64 1
114 65 1
114 66 1
114 67 1
114 68 1
114 111 1
114 112 1
114 113 1
114 115 1
114 116 1
114 117 1
114 118 1
114 303 1
114 305 1
114 306 1
115 58 1
115 60 1
115 77 1
115 78 1
115 101 1
115 102 1
115 111 1
115 112 1
115 113 1
115 114 1
115 116 1
115 117 1
115 118 1
115 121 1
115 122 1
115 201 1
115 202 1
115 266 1
115 305 1
115 306 1
116 77 1
116 78 1
116 101 1
116 102 1
116 111 1
116 112 1
116 113 1
116 114 1
116 115 1
116 117 1
116 118 1
116 121 1
116 122 1
116 201 1
116 202 1
116 305 1
116 306 1
117 58 1
117 60 1
117 77 1
117 78 1
117 101 1
117 102 1
117 111 1
117 112 1
117 113 1
117 114 1
117 115 1
117 116 1
117 118 1
117 121 1
117 122 1
117 201 1
117 202 1
117 266 1
117 305 1
117 306 1
118 77 1
118 78 1
118 101 1
118 102 1
118 111 1
118 112 1
118 113 1
118 114 1
118 115 1
118 116 1
118 117 1
118 121 1
118 122 1
118 201 1
118 202 1
118 305 1
118 306 1
119 120 1
119 121 1
119 122 1
119 123 1
119 124 1
119 125 1
119 126 1
120 119 1
120 121 1
120 122 1
120 123 1
120 124 1
120 125 1
120 126 1
121 77 1
121 78 1
121 101 1
121 102 1
121 115 1
121 116 1
121 117 1
121 118 1
121 119 1
121 120 1
121 122 1
121 123 1
121 124 1
121 125 1
121 126 1
121 201 1
121 202 1
121 295 1
122 77 1
122 78 1
122 101 1
122 102 1
122 115 1
122 116 1
122 117 1
122 118 1
122 119 1
122 120 1
122 121 1
122 123 1
122 124 1
122 125 1
122 126 1
122 201 1
122 202 1
123 45 1
123 46 1
123 53 1
123 54 1
123 55 1
123 56 1
123 119 1
123 120 1
123 121 1
123 122 1
123 124 1
123 125 1
123 126 1
123 180 1
123 227 1
123 228 1
123 287 1
123 288 1
123 289 1
123 290 1
123 303 1
123 304 1
124 45 1
124 46 1
124 53 1
124 54 1
124 55 1
124 119 1
124 120 1
124 121 1
124 122 1
124 123 1
124 125 1
124 126 1
124 192 1
124 227 1
124 228 1
124 287 1
124 288 1
124 289 1
124 290 1
124 303 1
124 304 1
125 45 1
125 46 1
125 53 1
125 54 1
125 55 1
125 56 1
125 119 1
125 120 1
125 121 1
125 122 1
125 123 1
125 124 1
125 126 1
125 227 1
125 228 1
125 287 1
125 288 1
125 289 1
125 290 1
125 303 1
125 304 1
126 45 1
126 46 1
126 53 1
126 54 1
126 55 1
126 119 1
126 120 1
126 121 1
126 122 1
126 123 1
126 124 1
126 125 1
126 192 1
126 227 1
126 228 1
126 287 1
126 288 1
126 289 1
126 290 1
126 303 1
126 304 1
127 1 1
127 2 1
127 3 1
127 4 1
127 128 1
127 129 1
127 130 1
127 217 1
127 218 1
127 246 1
127 251 1
127 252 1
127 277 1
127 301 1
127 302 1
127 339 1
127 340 1
128 1 1
128 2 1
128 3 1
128 4 1
128 127 1
128 129 1
128 130 1
128 217 1
128 218 1
128 251 1
128 252 1
128 301 1
128 302 1
128 339 1
128 340 1
129 1 1
129 2 1
129 3 1
129 4 1
129 127 1
129 128 1
129 130 1
129 217 1
129 218 1
129 246 1
129 251 1
129 252 1
129 277 1
129 301 1
129 302 1
129 339 1
129 340 1
130 1 1
130 2 1
130 3 1
130 4 1
130 127 1
130 128 1
130 129 1
130 217 1
130 218 1
130 251 1
130 252 1
130 301 1
130 302 1
130 339 1
130 340 1
131 69 1
131 70 1
131 81 1
131 82 1
131 132 1
131 133 1
131 134 1
131 156 1
131 159 1
131 162 1
131 163 1
131 325 1
131 326 1
131 335 1
131 336 1
132 69 1
132 70 1
132 81 1
132 82 1
132 131 1
132 133 1
132 134 1
132 151 1
132 152 1
132 160 1
132 161 1
132 325 1
132 326 1
132 335 1
132 336 1
133 69 1
133 70 1
133 81 1
133 82 1
133 131 1
133 132 1
133 134 1
133 156 1
133 159 1
133 162 1
133 163 1
133 325 1
133 326 1
133 335 1
133 336 1
134 69 1
134 70 1
134 81 1
134 82 1
134 131 1
134 132 1
134 133 1
134 151 1
134 152 1
134 160 1
134 161 1
134 325 1
134 326 1
134 335 1
134 336 1
135 136 1
135 149 1
135 150 1
135 243 1
135 244 1
135 279 1
135 280 1
136 135 1
136 149 1
136 150 1
136 226 1
136 243 1
136 244 1
136 253 1
136 279 1
136 280 1
136 281 1
137 47 1
137 48 1
137 49 1
137 50 1
137 138 1
137 143 1
137 144 1
137 145 1
137 146 1
137 319 1
137 320 1
137 321 1
137 322 1
138 47 1
138 48 1
138 49 1
138 50 1
138 137 1
138 143 1
138 144 1
138 145 1
138 146 1
138 319 1
138 320 1
138 321 1
138 322 1
139 39 1
139 40 1
139 41 1
139 42 1
139 47 1
139 48 1
139 49 1
139 50 1
139 95 1
139 96 1
139 97 1
139 98 1
139 99 1
139 100 1
139 140 1
139 141 1
139 142 1
139 143 1
139 144 1
139 145 1
139 146 1
139 307 1
139 308 1
139 315 1
139 316 1
139 317 1
139 318 1
140 39 1
140 40 1
140 41 1
140 42 1
140 47 1
140 48 1
140 49 1
140 50 1
140 95 1
140 96 1
140 97 1
140 98 1
140 99 1
140 100 1
140 139 1
140 141 1
140 142 1
140 143 1
140 144 1
140 145 1
140 146 1
140 307 1
140 308 1
140 315 1
140 316 1
140 317 1
140 318 1
141 39 1
141 40 1
141 41 1
141 42 1
141 47 1
141 48 1
141 49 1
141 50 1
141 95 1
141 96 1
141 97 1
141 98 1
141 99 1
141 100 1
141 139 1
141 140 1
141 142 1
141 143 1
141 144 1
141 145 1
141 146 1
141 307 1
141 308 1
141 315 1
141 316 1
141 317 1
141 318 1
142 39 1
142 40 1
142 41 1
142 42 1
142 47 1
142 48 1
142 49 1
142 50 1
142 95 1
142 96 1
142 97 1
142 98 1
142 99 1
142 100 1
142 139 1
142 140 1
142 141 1
142 143 1
142 144 1
142 145 1
142 146 1
142 307 1
142 308 1
142 315 1
142 316 1
142 317 1
142 318 1
143 47 1
143 48 1
143 49 1
143 50 1
143 137 1
143 138 1
143 139 1
143 140 1
143 141 1
143 142 1
143 144 1
143 145 1
143 146 1
143 319 1
143 320 1
143 321 1
143 322 1
144 47 1
144 48 1
144 49 1
144 50 1
144 137 1
144 138 1
144 139 1
144 140 1
144 141 1
144 142 1
144 143 1
144 145 1
144 146 1
144 319 1
144 320 1
144 321 1
144 322 1
145 47 1
145 48 1
145 49 1
145 50 1
145 137 1
145 138 1
145 139 1
145 140 1
145 141 1
145 142 1
145 143 1
145 144 1
145 146 1
145 319 1
145 320 1
145 321 1
145 322 1
146 47 1
146 48 1
146 49 1
146 50 1
146 137 1
146 138 1
146 139 1
146 140 1
146 141 1
146 142 1
146 143 1
146 144 1
146 145 1
146 319 1
146 320 1
146 321 1
146 322 1
147 73 1
147 74 1
147 77 1
147 78 1
147 148 1
147 201 1
147 202 1
147 221 1
147 222 1
147 229 1
147 230 1
147 243 1
147 244 1
147 269 1
147 270 1
147 365 1
147 366 1
148 73 1
148 74 1
148 77 1
148 78 1
148 147 1
148 201 1
148 202 1
148 221 1
148 222 1
148 229 1
148 230 1
148 243 1
148 244 1
148 269 1
148 270 1
148 365 1
148 366 1
149 75 1
149 76 1
149 135 1
149 136 1
149 150 1
149 243 1
149 244 1
149 279 1
149 280 1
150 75 1
150 76 1
150 135 1
150 136 1
150 149 1
150 243 1
150 244 1
150 279 1
150 280 1
151 69 1
151 70 1
151 132 1
151 134 1
151 152 1
151 155 1
151 156 1
151 159 1
151 160 1
151 161 1
151 162 1
151 163 1
151 164 1
152 69 1
152 70 1
152 132 1
152 134 1
152 151 1
152 155 1
152 156 1
152 159 1
152 160 1
152 161 1
152 162 1
152 163 1
152 164 1
153 154 1
153 157 1
153 158 1
154 153 1
154 157 1
154 158 1
155 69 1
155 70 1
155 82 1
155 151 1
155 152 1
155 156 1
155 159 1
155 160 1
155 161 1
155 162 1
155 163 1
155 164 1
155 189 1
155 190 1
156 70 1
156 81 1
156 131 1
156 133 1
156 151 1
156 152 1
156 155 1
156 159 1
156 160 1
156 161 1
156 162 1
156 163 1
156 164 1
156 189 1
156 190 1
157 153 1
157 154 1
157 158 1
157 159 1
157 160 1
158 153 1
158 154 1
158 157 1
158 159 1
158 160 1
159 69 1
159 70 1
159 131 1
159 133 1
159 151 1
159 152 1
159 155 1
159 156 1
159 157 1
159 158 1
159 160 1
159 161 1
159 162 1
159 163 1
159 164 1
160 70 1
160 132 1
160 134 1
160 151 1
160 152 1
160 155 1
160 156 1
160 157 1
160 158 1
160 159 1
160 161 1
160 162 1
160 163 1
160 164 1
161 132 1
161 134 1
161 151 1
161 152 1
161 155 1
161 156 1
161 159 1
161 160 1
161 162 1
161 163 1
161 164 1
162 69 1
162 70 1
162 81 1
162 131 1
162 133 1
162 151 1
162 152 1
162 155 1
162 156 1
162 159 1
162 160 1
162 161 1
162 163 1
162 164 1
163 69 1
163 70 1
163 131 1
163 133 1
163 151 1
163 152 1
163 155 1
163 156 1
163 159 1
163 160 1
163 161 1
163 162 1
163 164 1
163 211 1
163 212 1
163 335 1
163 336 1
164 70 1
164 151 1
164 152 1
164 155 1
164 156 1
164 159 1
164 160 1
164 161 1
164 162 1
164 163 1
164 211 1
164 212 1
164 335 1
164 336 1
165 53 1
165 54 1
165 55 1
165 56 1
165 166 1
165 167 1
165 168 1
165 169 1
165 170 1
165 171 1
165 172 1
165 179 1
165 180 1
165 191 1
165 192 1
165 323 1
165 324 1
165 367 1
165 368 1
166 53 1
166 54 1
166 55 1
166 56 1
166 165 1
166 167 1
166 168 1
166 169 1
166 170 1
166 171 1
166 172 1
166 179 1
166 180 1
166 191 1
166 192 1
166 323 1
166 324 1
166 367 1
166 368 1
167 165 1
167 166 1
167 168 1
167 169 1
167 170 1
167 367 1
167 368 1
168 165 1
168 166 1
168 167 1
168 169 1
168 170 1
168 367 1
168 368 1
169 57 1
169 58 1
169 59 1
169 60 1
169 165 1
169 166 1
169 167 1
169 168 1
169 170 1
169 191 1
169 192 1
169 367 1
169 368 1
170 54 1
170 57 1
170 58 1
170 59 1
170 60 1
170 165 1
170 166 1
170 167 1
170 168 1
170 169 1
170 191 1
170 192 1
170 367 1
170 368 1
171 53 1
171 54 1
171 55 1
171 56 1
171 71 1
171 72 1
171 165 1
171 166 1
171 172 1
171 179 1
171 180 1
171 191 1
171 192 1
171 295 1
171 296 1
171 323 1
171 324 1
172 53 1
172 54 1
172 55 1
172 56 1
172 71 1
172 72 1
172 165 1
172 166 1
172 171 1
172 179 1
172 180 1
172 191 1
172 192 1
172 295 1
172 296 1
172 323 1
172 324 1
173 174 1
173 175 1
173 176 1
173 193 1
173 194 1
173 343 1
173 344 1
173 347 1
173 348 1
174 173 1
174 175 1
174 176 1
174 193 1
174 194 1
174 343 1
174 344 1
174 347 1
174 348 1
175 173 1
175 174 1
175 176 1
175 193 1
175 194 1
175 343 1
175 344 1
175 347 1
175 348 1
176 173 1
176 174 1
176 175 1
176 193 1
176 194 1
176 343 1
176 344 1
176 347 1
176 348 1
177 31 1
177 32 1
177 33 1
177 34 1
177 43 1
177 44 1
177 45 1
177 52 1
177 55 1
177 56 1
177 178 1
177 223 1
177 224 1
177 267 1
177 268 1
177 303 1
177 304 1
177 369 1
177 370 1
177 373 1
177 374 1
178 31 1
178 32 1
178 33 1
178 34 1
178 44 1
178 46 1
178 52 1
178 53 1
178 55 1
178 56 1
178 177 1
178 223 1
178 224 1
178 263 1
178 267 1
178 268 1
178 303 1
178 304 1
178 369 1
178 370 1
178 373 1
178 374 1
179 31 1
179 52 1
179 53 1
179 54 1
179 55 1
179 56 1
179 165 1
179 166 1
179 171 1
179 172 1
179 180 1
179 185 1
179 186 1
179 191 1
179 192 1
179 323 1
179 324 1
180 53 1
180 54 1
180 55 1
180 56 1
180 123 1
180 165 1
180 166 1
180 171 1
180 172 1
180 179 1
180 185 1
180 186 1
180 191 1
180 192 1
180 323 1
180 324 1
181 79 1
181 80 1
181 182 1
181 189 1
181 190 1
181 193 1
181 194 1
181 347 1
181 348 1
182 79 1
182 80 1
182 181 1
182 189 1
182 190 1
182 193 1
182 194 1
182 347 1
182 348 1
183 31 1
183 43 1
183 51 1
183 52 1
183 55 1
183 56 1
183 71 1
183 184 1
183 185 1
183 186 1
183 341 1
183 371 1
183 372 1
183 399 1
183 400 1
184 32 1
184 34 1
184 44 1
184 51 1
184 52 1
184 53 1
184 54 1
184 55 1
184 56 1
184 183 1
184 185 1
184 186 1
184 371 1
184 372 1
184 399 1
184 400 1
185 32 1
185 34 1
185 36 1
185 44 1
185 51 1
185 52 1
185 53 1
185 54 1
185 55 1
185 56 1
185 179 1
185 180 1
185 183 1
185 184 1
185 186 1
185 304 1
185 371 1
185 372 1
185 399 1
185 400 1
186 31 1
186 33 1
186 43 1
186 51 1
186 52 1
186 55 1
186 56 1
186 179 1
186 180 1
186 183 1
186 184 1
186 185 1
186 371 1
186 372 1
186 399 1
186 400 1
187 104 1
187 188 1
187 257 1
187 258 1
188 103 1
188 187 1
188 257 1
188 258 1
189 155 1
189 156 1
189 181 1
189 182 1
189 190 1
189 193 1
189 194 1
189 347 1
189 348 1
190 155 1
190 156 1
190 181 1
190 182 1
190 189 1
190 193 1
190 194 1
190 347 1
190 348 1
191 53 1
191 54 1
191 55 1
191 56 1
191 57 1
191 58 1
191 59 1
191 60 1
191 165 1
191 166 1
191 169 1
191 170 1
191 171 1
191 172 1
191 179 1
191 180 1
191 192 1
191 323 1
191 324 1
192 53 1
192 54 1
192 55 1
192 56 1
192 57 1
192 58 1
192 59 1
192 60 1
192 124 1
192 126 1
192 165 1
192 166 1
192 169 1
192 170 1
192 171 1
192 172 1
192 179 1
192 180 1
192 191 1
192 323 1
192 324 1
193 173 1
193 174 1
193 175 1
193 176 1
193 181 1
193 182 1
193 189 1
193 190 1
193 194 1
193 343 1
193 344 1
193 347 1
193 348 1
194 173 1
194 174 1
194 175 1
194 176 1
194 181 1
194 182 1
194 189 1
194 190 1
194 193 1
194 343 1
194 344 1
194 347 1
194 348 1
195 5 1
195 6 1
195 196 1
195 197 1
195 198 1
196 5 1
196 6 1
196 195 1
196 197 1
196 198 1
197 5 1
197 6 1
197 195 1
197 196 1
197 198 1
198 5 1
198 6 1
198 195 1
198 196 1
198 197 1
199 27 1
199 28 1
199 200 1
199 293 1
199 294 1
200 27 1
200 28 1
200 199 1
200 293 1
200 294 1
201 77 1
201 78 1
201 101 1
201 102 1
201 115 1
201 116 1
201 117 1
201 118 1
201 121 1
201 122 1
201 147 1
201 148 1
201 202 1
202 77 1
202 78 1
202 101 1
202 102 1
202 115 1
202 116 1
202 117 1
202 118 1
202 121 1
202 122 1
202 147 1
202 148 1
202 201 1
203 204 1
203 249 1
203 250 1
204 203 1
204 249 1
204 250 1
205 206 1
205 207 1
205 208 1
205 209 1
205 210 1
206 205 1
206 207 1
206 208 1
206 209 1
206 210 1
207 205 1
207 206 1
207 208 1
207 209 1
207 210 1
207 283 1
207 284 1
207 285 1
207 286 1
208 205 1
208 206 1
208 207 1
208 209 1
208 210 1
208 283 1
208 284 1
208 285 1
208 286 1
209 205 1
209 206 1
209 207 1
209 208 1
209 210 1
210 205 1
210 206 1
210 207 1
210 208 1
210 209 1
211 69 1
211 70 1
211 163 1
211 164 1
211 212 1
211 213 1
211 214 1
211 335 1
211 336 1
212 69 1
212 70 1
212 81 1
212 82 1
212 163 1
212 164 1
212 211 1
212 213 1
212 214 1
212 335 1
212 336 1
213 70 1
213 211 1
213 212 1
213 214 1
214 211 1
214 212 1
214 213 1
215 87 1
215 88 1
215 89 1
215 90 1
215 91 1
215 92 1
215 93 1
215 94 1
215 95 1
215 96 1
215 216 1
215 235 1
215 236 1
215 259 1
215 260 1
215 307 1
215 308 1
215 311 1
215 312 1
215 313 1
215 314 1
215 351 1
215 352 1
216 87 1
216 88 1
216 89 1
216 90 1
216 91 1
216 92 1
216 93 1
216 94 1
216 95 1
216 96 1
216 215 1
216 235 1
216 236 1
216 259 1
216 260 1
216 307 1
216 308 1
216 311 1
216 312 1
216 313 1
216 314 1
216 351 1
216 352 1
217 1 1
217 2 1
217 3 1
217 4 1
217 127 1
217 128 1
217 129 1
217 130 1
217 218 1
217 245 1
217 246 1
217 249 1
217 250 1
217 251 1
217 252 1
217 261 1
217 262 1
217 301 1
217 302 1
217 339 1
217 340 1
217 349 1
217 350 1
218 1 1
218 2 1
218 3 1
218 4 1
218 127 1
218 128 1
218 129 1
218 130 1
218 217 1
218 245 1
218 246 1
218 249 1
218 250 1
218 251 1
218 252 1
218 261 1
218 262 1
218 301 1
218 302 1
218 339 1
218 340 1
218 349 1
218 350 1
219 83 1
219 84 1
219 85 1
219 86 1
219 220 1
219 225 1
219 226 1
219 253 1
219 254 1
219 255 1
219 256 1
219 281 1
219 282 1
220 83 1
220 84 1
220 85 1
220 86 1
220 219 1
220 225 1
220 226 1
220 253 1
220 254 1
220 255 1
220 256 1
220 281 1
220 282 1
221 73 1
221 74 1
221 147 1
221 148 1
221 222 1
221 229 1
221 230 1
221 243 1
221 244 1
221 257 1
221 258 1
221 269 1
221 270 1
221 365 1
221 366 1
222 73 1
222 74 1
222 147 1
222 148 1
222 221 1
222 229 1
222 230 1
222 243 1
222 244 1
222 257 1
222 258 1
222 269 1
222 270 1
222 365 1
222 366 1
223 31 1
223 32 1
223 33 1
223 34 1
223 43 1
223 45 1
223 51 1
223 55 1
223 56 1
223 71 1
223 177 1
223 178 1
223 224 1
223 267 1
223 268 1
223 303 1
223 304 1
223 341 1
223 342 1
223 369 1
223 370 1
223 372 1
223 373 1
223 374 1
224 31 1
224 32 1
224 33 1
224 34 1
224 46 1
224 55 1
224 72 1
224 177 1
224 178 1
224 223 1
224 267 1
224 268 1
224 303 1
224 304 1
224 341 1
224 342 1
224 369 1
224 370 1
224 373 1
224 374 1
225 219 1
225 220 1
225 226 1
225 237 1
225 238 1
225 239 1
225 240 1
225 253 1
225 254 1
225 281 1
225 282 1
225 327 1
225 328 1
225 339 1
225 340 1
226 136 1
226 219 1
226 220 1
226 225 1
226 237 1
226 238 1
226 239 1
226 240 1
226 253 1
226 254 1
226 281 1
226 282 1
226 291 1
226 327 1
226 328 1
227 45 1
227 46 1
227 123 1
227 124 1
227 125 1
227 126 1
227 228 1
227 287 1
227 288 1
227 289 1
227 290 1
227 303 1
227 304 1
227 333 1
227 334 1
228 45 1
228 46 1
228 123 1
228 124 1
228 125 1
228 126 1
228 227 1
228 287 1
228 288 1
228 289 1
228 290 1
228 303 1
228 304 1
228 333 1
228 334 1
229 73 1
229 74 1
229 147 1
229 148 1
229 221 1
229 222 1
229 230 1
229 243 1
229 244 1
229 269 1
229 270 1
229 365 1
229 366 1
230 73 1
230 74 1
230 147 1
230 148 1
230 221 1
230 222 1
230 229 1
230 243 1
230 244 1
230 269 1
230 270 1
230 365 1
230 366 1
231 232 1
231 269 1
231 270 1
231 273 1
231 274 1
231 364 1
232 231 1
232 269 1
232 270 1
232 273 1
232 274 1
233 234 1
233 271 1
233 272 1
233 285 1
233 286 1
234 233 1
234 271 1
234 272 1
234 285 1
234 286 1
235 87 1
235 88 1
235 89 1
235 90 1
235 91 1
235 92 1
235 93 1
235 94 1
235 95 1
235 96 1
235 215 1
235 216 1
235 236 1
235 259 1
235 260 1
235 307 1
235 308 1
235 311 1
235 312 1
235 313 1
235 314 1
236 87 1
236 88 1
236 89 1
236 90 1
236 91 1
236 92 1
236 93 1
236 94 1
236 95 1
236 96 1
236 100 1
236 215 1
236 216 1
236 235 1
236 259 1
236 260 1
236 307 1
236 308 1
236 311 1
236 312 1
236 313 1
236 314 1
237 225 1
237 226 1
237 238 1
237 239 1
237 240 1
237 327 1
237 328 1
238 84 1
238 86 1
238 225 1
238 226 1
238 237 1
238 239 1
238 240 1
238 327 1
238 328 1
238 339 1
238 340 1
239 225 1
239 226 1
239 237 1
239 238 1
239 240 1
239 327 1
239 328 1
239 339 1
240 225 1
240 226 1
240 237 1
240 238 1
240 239 1
240 327 1
240 328 1
241 242 1
241 247 1
241 248 1
241 265 1
241 266 1
242 241 1
242 247 1
242 248 1
242 265 1
242 266 1
243 73 1
243 74 1
243 135 1
243 136 1
243 147 1
243 148 1
243 149 1
243 150 1
243 221 1
243 222 1
243 229 1
243 230 1
243 244 1
243 269 1
243 270 1
243 279 1
243 280 1
243 339 1
243 365 1
243 366 1
244 73 1
244 74 1
244 135 1
244 136 1
244 147 1
244 148 1
244 149 1
244 150 1
244 221 1
244 222 1
244 229 1
244 230 1
244 243 1
244 269 1
244 270 1
244 279 1
244 280 1
244 365 1
244 366 1
245 217 1
245 218 1
245 246 1
245 249 1
245 250 1
245 261 1
245 262 1
245 277 1
245 278 1
245 301 1
245 302 1
245 339 1
245 340 1
245 349 1
245 350 1
246 127 1
246 129 1
246 217 1
246 218 1
246 245 1
246 249 1
246 250 1
246 261 1
246 262 1
246 277 1
246 278 1
246 301 1
246 302 1
246 339 1
246 340 1
246 349 1
246 350 1
247 241 1
247 242 1
247 248 1
247 253 1
247 254 1
247 265 1
247 266 1
248 241 1
248 242 1
248 247 1
248 253 1
248 254 1
248 265 1
248 266 1
249 203 1
249 204 1
249 217 1
249 218 1
249 245 1
249 246 1
249 250 1
249 261 1
249 262 1
249 301 1
249 302 1
249 339 1
249 340 1
249 349 1
249 350 1
250 203 1
250 204 1
250 217 1
250 218 1
250 245 1
250 246 1
250 249 1
250 261 1
250 262 1
250 301 1
250 302 1
250 340 1
250 349 1
250 350 1
251 1 1
251 2 1
251 3 1
251 4 1
251 127 1
251 128 1
251 129 1
251 130 1
251 217 1
251 218 1
251 252 1
251 301 1
251 302 1
251 327 1
251 328 1
251 339 1
251 340 1
252 1 1
252 2 1
252 3 1
252 4 1
252 127 1
252 128 1
252 129 1
252 130 1
252 217 1
252 218 1
252 251 1
252 301 1
252 302 1
252 327 1
252 328 1
252 339 1
252 340 1
253 136 1
253 219 1
253 220 1
253 225 1
253 226 1
253 247 1
253 248 1
253 254 1
253 281 1
253 282 1
254 219 1
254 220 1
254 225 1
254 226 1
254 247 1
254 248 1
254 253 1
254 281 1
254 282 1
255 83 1
255 84 1
255 85 1
255 86 1
255 219 1
255 220 1
255 256 1
256 80 1
256 83 1
256 84 1
256 85 1
256 86 1
256 219 1
256 220 1
256 255 1
257 104 1
257 187 1
257 188 1
257 221 1
257 222 1
257 258 1
258 103 1
258 187 1
258 188 1
258 221 1
258 222 1
258 257 1
259 91 1
259 92 1
259 93 1
259 94 1
259 96 1
259 215 1
259 216 1
259 235 1
259 236 1
259 260 1
259 308 1
259 311 1
259 312 1
259 313 1
259 314 1
259 351 1
259 352 1
260 87 1
260 88 1
260 89 1
260 90 1
260 92 1
260 94 1
260 215 1
260 216 1
260 235 1
260 236 1
260 259 1
260 312 1
260 314 1
260 351 1
260 352 1
261 23 1
261 24 1
261 25 1
261 26 1
261 217 1
261 218 1
261 245 1
261 246 1
261 249 1
261 250 1
261 262 1
261 301 1
261 302 1
261 329 1
261 330 1
261 337 1
261 338 1
261 340 1
261 349 1
261 350 1
262 23 1
262 24 1
262 25 1
262 26 1
262 217 1
262 218 1
262 245 1
262 246 1
262 249 1
262 250 1
262 261 1
262 301 1
262 302 1
262 329 1
262 330 1
262 337 1
262 338 1
262 339 1
262 340 1
262 349 1
262 350 1
263 35 1
263 36 1
263 37 1
263 46 1
263 51 1
263 52 1
263 55 1
263 56 1
263 62 1
263 68 1
263 178 1
263 264 1
263 265 1
263 266 1
263 267 1
263 268 1
263 303 1
263 370 1
263 371 1
263 400 1
264 35 1
264 36 1
264 38 1
264 51 1
264 52 1
264 56 1
264 61 1
264 62 1
264 67 1
264 111 1
264 113 1
264 263 1
264 265 1
264 266 1
264 267 1
264 268 1
264 303 1
264 371 1
264 400 1
265 241 1
265 242 1
265 247 1
265 248 1
265 263 1
265 264 1
265 266 1
266 35 1
266 38 1
266 61 1
266 115 1
266 117 1
266 241 1
266 242 1
266 247 1
266 248 1
266 263 1
266 264 1
266 265 1
266 303 1
267 31 1
267 32 1
267 33 1
267 34 1
267 43 1
267 44 1
267 45 1
267 46 1
267 52 1
267 53 1
267 55 1
267 177 1
267 178 1
267 223 1
267 224 1
267 263 1
267 264 1
267 268 1
267 303 1
267 304 1
267 369 1
267 370 1
267 373 1
267 374 1
268 31 1
268 32 1
268 33 1
268 34 1
268 35 1
268 43 1
268 44 1
268 45 1
268 55 1
268 56 1
268 64 1
268 66 1
268 177 1
268 178 1
268 223 1
268 224 1
268 263 1
268 264 1
268 267 1
268 303 1
268 304 1
268 369 1
268 370 1
268 373 1
268 374 1
269 73 1
269 74 1
269 147 1
269 148 1
269 221 1
269 222 1
269 229 1
269 230 1
269 231 1
269 232 1
269 243 1
269 244 1
269 270 1
269 273 1
269 274 1
269 365 1
269 366 1
270 73 1
270 74 1
270 147 1
270 148 1
270 221 1
270 222 1
270 229 1
270 230 1
270 231 1
270 232 1
270 243 1
270 244 1
270 269 1
270 273 1
270 274 1
270 365 1
270 366 1
271 233 1
271 234 1
271 272 1
271 273 1
271 274 1
271 285 1
271 286 1
272 233 1
272 234 1
272 271 1
272 273 1
272 274 1
272 285 1
272 286 1
273 231 1
273 232 1
273 269 1
273 270 1
273 271 1
273 272 1
273 274 1
274 231 1
274 232 1
274 269 1
274 270 1
274 271 1
274 272 1
274 273 1
275 87 1
275 88 1
275 89 1
275 90 1
275 107 1
275 108 1
275 276 1
275 277 1
275 278 1
275 340 1
276 87 1
276 88 1
276 89 1
276 90 1
276 107 1
276 108 1
276 275 1
276 277 1
276 278 1
276 340 1
277 127 1
277 129 1
277 245 1
277 246 1
277 275 1
277 276 1
277 278 1
277 339 1
277 340 1
278 245 1
278 246 1
278 275 1
278 276 1
278 277 1
278 339 1
279 135 1
279 136 1
279 149 1
279 150 1
279 243 1
279 244 1
279 280 1
279 281 1
279 282 1
279 339 1
280 135 1
280 136 1
280 149 1
280 150 1
280 243 1
280 244 1
280 279 1
280 281 1
280 282 1
280 339 1
281 136 1
281 219 1
281 220 1
281 225 1
281 226 1
281 253 1
281 254 1
281 279 1
281 280 1
281 282 1
282 219 1
282 220 1
282 225 1
282 226 1
282 253 1
282 254 1
282 279 1
282 280 1
282 281 1
282 339 1
283 207 1
283 208 1
283 284 1
283 285 1
283 286 1
284 207 1
284 208 1
284 283 1
284 285 1
284 286 1
285 207 1
285 208 1
285 233 1
285 234 1
285 271 1
285 272 1
285 283 1
285 284 1
285 286 1
286 207 1
286 208 1
286 233 1
286 234 1
286 271 1
286 272 1
286 283 1
286 284 1
286 285 1
287 43 1
287 44 1
287 45 1
287 46 1
287 109 1
287 110 1
287 123 1
287 124 1
287 125 1
287 126 1
287 227 1
287 228 1
287 288 1
287 289 1
287 290 1
287 303 1
287 304 1
287 309 1
287 310 1
288 43 1
288 44 1
288 45 1
288 46 1
288 55 1
288 109 1
288 110 1
288 123 1
288 124 1
288 125 1
288 126 1
288 227 1
288 228 1
288 287 1
288 289 1
288 290 1
288 303 1
288 304 1
288 309 1
288 310 1
289 43 1
289 44 1
289 45 1
289 46 1
289 109 1
289 110 1
289 123 1
289 124 1
289 125 1
289 126 1
289 227 1
289 228 1
289 287 1
289 288 1
289 290 1
289 303 1
289 304 1
289 309 1
289 310 1
290 43 1
290 44 1
290 45 1
290 46 1
290 55 1
290 109 1
290 110 1
290 123 1
290 124 1
290 125 1
290 126 1
290 227 1
290 228 1
290 287 1
290 288 1
290 289 1
290 303 1
290 304 1
290 309 1
290 310 1
291 83 1
291 84 1
291 85 1
291 86 1
291 226 1
291 292 1
291 297 1
291 298 1
292 83 1
292 84 1
292 85 1
292 86 1
292 291 1
292 297 1
292 298 1
293 15 1
293 16 1
293 17 1
293 18 1
293 20 1
293 27 1
293 28 1
293 199 1
293 200 1
293 294 1
293 375 1
293 376 1
294 15 1
294 16 1
294 17 1
294 18 1
294 27 1
294 28 1
294 199 1
294 200 1
294 293 1
294 375 1
294 376 1
295 53 1
295 55 1
295 57 1
295 58 1
295 59 1
295 60 1
295 71 1
295 72 1
295 101 1
295 121 1
295 171 1
295 172 1
295 296 1
296 52 1
296 57 1
296 58 1
296 59 1
296 60 1
296 61 1
296 71 1
296 72 1
296 171 1
296 172 1
296 295 1
296 345 1
297 291 1
297 292 1
297 298 1
298 291 1
298 292 1
298 297 1
299 300 1
299 325 1
299 326 1
299 329 1
299 330 1
300 299 1
300 325 1
300 326 1
300 329 1
300 330 1
301 1 1
301 2 1
301 3 1
301 4 1
301 127 1
301 128 1
301 129 1
301 130 1
301 217 1
301 218 1
301 245 1
301 246 1
301 249 1
301 250 1
301 251 1
301 252 1
301 261 1
301 262 1
301 302 1
301 339 1
301 340 1
301 349 1
301 350 1
302 1 1
302 2 1
302 3 1
302 4 1
302 127 1
302 128 1
302 129 1
302 130 1
302 217 1
302 218 1
302 245 1
302 246 1
302 249 1
302 250 1
302 251 1
302 252 1
302 261 1
302 262 1
302 301 1
302 339 1
302 340 1
302 349 1
302 350 1
303 31 1
303 32 1
303 33 1
303 34 1
303 38 1
303 43 1
303 45 1
303 46 1
303 55 1
303 56 1
303 61 1
303 62 1
303 63 1
303 64 1
303 65 1
303 66 1
303 67 1
303 68 1
303 71 1
303 72 1
303 112 1
303 114 1
303 123 1
303 124 1
303 125 1
303 126 1
303 177 1
303 178 1
303 223 1
303 224 1
303 227 1
303 228 1
303 263 1
303 264 1
303 266 1
303 267 1
303 268 1
303 287 1
303 288 1
303 289 1
303 290 1
303 304 1
303 345 1
303 369 1
303 370 1
303 373 1
303 374 1
304 31 1
304 32 1
304 33 1
304 34 1
304 44 1
304 45 1
304 46 1
304 55 1
304 56 1
304 67 1
304 71 1
304 111 1
304 113 1
304 123 1
304 124 1
304 125 1
304 126 1
304 177 1
304 178 1
304 185 1
304 223 1
304 224 1
304 227 1
304 228 1
304 267 1
304 268 1
304 287 1
304 288 1
304 289 1
304 290 1
304 303 1
304 369 1
304 370 1
304 373 1
304 374 1
305 111 1
305 112 1
305 113 1
305 114 1
305 115 1
305 116 1
305 117 1
305 118 1
305 306 1
306 111 1
306 112 1
306 113 1
306 114 1
306 115 1
306 116 1
306 117 1
306 118 1
306 305 1
307 39 1
307 40 1
307 41 1
307 42 1
307 87 1
307 88 1
307 89 1
307 90 1
307 91 1
307 92 1
307 93 1
307 94 1
307 95 1
307 96 1
307 97 1
307 98 1
307 99 1
307 100 1
307 139 1
307 140 1
307 141 1
307 142 1
307 215 1
307 216 1
307 235 1
307 236 1
307 308 1
307 311 1
307 312 1
307 313 1
307 314 1
307 315 1
307 316 1
307 317 1
307 318 1
308 39 1
308 40 1
308 41 1
308 42 1
308 87 1
308 88 1
308 89 1
308 90 1
308 91 1
308 92 1
308 93 1
308 94 1
308 95 1
308 96 1
308 97 1
308 98 1
308 99 1
308 100 1
308 139 1
308 140 1
308 141 1
308 142 1
308 215 1
308 216 1
308 235 1
308 236 1
308 259 1
308 307 1
308 311 1
308 312 1
308 313 1
308 314 1
308 315 1
308 316 1
308 317 1
308 318 1
309 43 1
309 44 1
309 71 1
309 109 1
309 110 1
309 287 1
309 288 1
309 289 1
309 290 1
309 310 1
310 43 1
310 44 1
310 55 1
310 109 1
310 110 1
310 287 1
310 288 1
310 289 1
310 290 1
310 309 1
311 39 1
311 40 1
311 41 1
311 42 1
311 87 1
311 88 1
311 89 1
311 90 1
311 91 1
311 92 1
311 93 1
311 94 1
311 95 1
311 96 1
311 215 1
311 216 1
311 235 1
311 236 1
311 259 1
311 307 1
311 308 1
311 312 1
311 313 1
311 314 1
311 315 1
311 316 1
311 317 1
311 318 1
312 39 1
312 40 1
312 41 1
312 42 1
312 87 1
312 88 1
312 89 1
312 90 1
312 91 1
312 92 1
312 93 1
312 94 1
312 95 1
312 96 1
312 215 1
312 216 1
312 235 1
312 236 1
312 259 1
312 260 1
312 307 1
312 308 1
312 311 1
312 313 1
312 314 1
312 315 1
312 316 1
312 317 1
312 318 1
312 351 1
313 39 1
313 40 1
313 41 1
313 42 1
313 87 1
313 88 1
313 89 1
313 90 1
313 91 1
313 92 1
313 93 1
313 94 1
313 95 1
313 96 1
313 215 1
313 216 1
313 235 1
313 236 1
313 259 1
313 307 1
313 308 1
313 311 1
313 312 1
313 314 1
313 315 1
313 316 1
313 317 1
313 318 1
314 39 1
314 40 1
314 41 1
314 42 1
314 87 1
314 88 1
314 89 1
314 90 1
314 91 1
314 92 1
314 93 1
314 94 1
314 95 1
314 96 1
314 215 1
314 216 1
314 235 1
314 236 1
314 259 1
314 260 1
314 307 1
314 308 1
314 311 1
314 312 1
314 313 1
314 315 1
314 316 1
314 317 1
314 318 1
314 351 1
315 39 1
315 40 1
315 41 1
315 42 1
315 91 1
315 92 1
315 93 1
315 94 1
315 95 1
315 96 1
315 97 1
315 98 1
315 99 1
315 100 1
315 139 1
315 140 1
315 141 1
315 142 1
315 307 1
315 308 1
315 311 1
315 312 1
315 313 1
315 314 1
315 316 1
315 317 1
315 318 1
315 352 1
316 39 1
316 40 1
316 41 1
316 42 1
316 91 1
316 92 1
316 93 1
316 94 1
316 95 1
316 96 1
316 97 1
316 98 1
316 99 1
316 100 1
316 139 1
316 140 1
316 141 1
316 142 1
316 307 1
316 308 1
316 311 1
316 312 1
316 313 1
316 314 1
316 315 1
316 317 1
316 318 1
317 39 1
317 40 1
317 41 1
317 42 1
317 91 1
317 92 1
317 93 1
317 94 1
317 95 1
317 96 1
317 97 1
317 98 1
317 99 1
317 100 1
317 139 1
317 140 1
317 141 1
317 142 1
317 307 1
317 308 1
317 311 1
317 312 1
317 313 1
317 314 1
317 315 1
317 316 1
317 318 1
317 352 1
318 39 1
318 40 1
318 41 1
318 42 1
318 91 1
318 92 1
318 93 1
318 94 1
318 95 1
318 96 1
318 97 1
318 98 1
318 99 1
318 100 1
318 139 1
318 140 1
318 141 1
318 142 1
318 307 1
318 308 1
318 311 1
318 312 1
318 313 1
318 314 1
318 315 1
318 316 1
318 317 1
319 47 1
319 48 1
319 49 1
319 50 1
319 137 1
319 138 1
319 143 1
319 144 1
319 145 1
319 146 1
319 320 1
319 321 1
319 322 1
320 47 1
320 48 1
320 49 1
320 50 1
320 137 1
320 138 1
320 143 1
320 144 1
320 145 1
320 146 1
320 319 1
320 321 1
320 322 1
321 47 1
321 48 1
321 49 1
321 50 1
321 137 1
321 138 1
321 143 1
321 144 1
321 145 1
321 146 1
321 319 1
321 320 1
321 322 1
322 47 1
322 48 1
322 49 1
322 50 1
322 137 1
322 138 1
322 143 1
322 144 1
322 145 1
322 146 1
322 319 1
322 320 1
322 321 1
323 31 1
323 53 1
323 54 1
323 55 1
323 56 1
323 111 1
323 113 1
323 165 1
323 166 1
323 171 1
323 172 1
323 179 1
323 180 1
323 191 1
323 192 1
323 324 1
323 345 1
323 346 1
324 53 1
324 54 1
324 55 1
324 56 1
324 165 1
324 166 1
324 171 1
324 172 1
324 179 1
324 180 1
324 191 1
324 192 1
324 323 1
324 345 1
324 346 1
325 81 1
325 82 1
325 131 1
325 132 1
325 133 1
325 134 1
325 299 1
325 300 1
325 326 1
325 329 1
325 330 1
325 335 1
325 336 1
326 81 1
326 82 1
326 131 1
326 132 1
326 133 1
326 134 1
326 299 1
326 300 1
326 325 1
326 329 1
326 330 1
326 335 1
326 336 1
327 225 1
327 226 1
327 237 1
327 238 1
327 239 1
327 240 1
327 251 1
327 252 1
327 328 1
327 339 1
328 225 1
328 226 1
328 237 1
328 238 1
328 239 1
328 240 1
328 251 1
328 252 1
328 327 1
328 339 1
328 340 1
329 23 1
329 24 1
329 25 1
329 26 1
329 261 1
329 262 1
329 299 1
329 300 1
329 325 1
329 326 1
329 330 1
329 337 1
329 338 1
329 339 1
329 340 1
330 23 1
330 24 1
330 25 1
330 26 1
330 261 1
330 262 1
330 299 1
330 300 1
330 325 1
330 326 1
330 329 1
330 337 1
330 338 1
331 51 1
331 332 1
331 333 1
331 334 1
332 331 1
332 333 1
332 334 1
333 227 1
333 228 1
333 331 1
333 332 1
333 334 1
334 51 1
334 227 1
334 228 1
334 331 1
334 332 1
334 333 1
335 69 1
335 81 1
335 82 1
335 131 1
335 132 1
335 133 1
335 134 1
335 163 1
335 164 1
335 211 1
335 212 1
335 325 1
335 326 1
335 336 1
336 70 1
336 81 1
336 82 1
336 131 1
336 132 1
336 133 1
336 134 1
336 163 1
336 164 1
336 211 1
336 212 1
336 325 1
336 326 1
336 335 1
337 23 1
337 24 1
337 25 1
337 26 1
337 261 1
337 262 1
337 329 1
337 330 1
337 338 1
337 339 1
338 23 1
338 24 1
338 25 1
338 26 1
338 261 1
338 262 1
338 329 1
338 330 1
338 337 1
339 1 1
339 2 1
339 3 1
339 4 1
339 106 1
339 127 1
339 128 1
339 129 1
339 130 1
339 217 1
339 218 1
339 225 1
339 238 1
339 239 1
339 243 1
339 245 1
339 246 1
339 249 1
339 251 1
339 252 1
339 262 1
339 277 1
339 278 1
339 279 1
339 280 1
339 282 1
339 301 1
339 302 1
339 327 1
339 328 1
339 329 1
339 337 1
339 340 1
339 349 1
339 350 1
339 354 1
339 355 1
339 356 1
339 357 1
339 358 1
339 359 1
339 363 1
339 364 1
339 366 1
340 1 1
340 2 1
340 3 1
340 4 1
340 106 1
340 127 1
340 128 1
340 129 1
340 130 1
340 217 1
340 218 1
340 225 1
340 238 1
340 245 1
340 246 1
340 249 1
340 250 1
340 251 1
340 252 1
340 261 1
340 262 1
340 275 1
340 276 1
340 277 1
340 301 1
340 302 1
340 328 1
340 329 1
340 339 1
340 349 1
340 352 1
340 353 1
340 354 1
340 356 1
340 357 1
340 362 1
340 363 1
340 364 1
340 366 1
341 34 1
341 46 1
341 51 1
341 52 1
341 56 1
341 71 1
341 183 1
341 223 1
341 224 1
341 342 1
341 371 1
341 400 1
342 34 1
342 44 1
342 45 1
342 72 1
342 223 1
342 224 1
342 341 1
343 173 1
343 174 1
343 175 1
343 176 1
343 193 1
343 194 1
343 344 1
343 347 1
343 348 1
344 173 1
344 174 1
344 175 1
344 176 1
344 193 1
344 194 1
344 343 1
344 347 1
344 348 1
345 53 1
345 71 1
345 296 1
345 303 1
345 323 1
345 324 1
345 346 1
346 53 1
346 71 1
346 323 1
346 324 1
346 345 1
347 173 1
347 174 1
347 175 1
347 176 1
347 181 1
347 182 1
347 189 1
347 190 1
347 193 1
347 194 1
347 343 1
347 344 1
347 348 1
348 173 1
348 174 1
348 175 1
348 176 1
348 181 1
348 182 1
348 189 1
348 190 1
348 193 1
348 194 1
348 343 1
348 344 1
348 347 1
349 24 1
349 26 1
349 217 1
349 218 1
349 245 1
349 246 1
349 249 1
349 250 1
349 261 1
349 262 1
349 301 1
349 302 1
349 339 1
349 340 1
349 350 1
350 217 1
350 218 1
350 245 1
350 246 1
350 249 1
350 250 1
350 261 1
350 262 1
350 301 1
350 302 1
350 339 1
350 349 1
351 87 1
351 89 1
351 92 1
351 94 1
351 215 1
351 216 1
351 259 1
351 260 1
351 312 1
351 314 1
351 352 1
351 353 1
351 354 1
352 39 1
352 41 1
352 215 1
352 216 1
352 259 1
352 260 1
352 315 1
352 317 1
352 340 1
352 351 1
352 353 1
352 354 1
353 340 1
353 351 1
353 352 1
353 354 1
353 355 1
353 356 1
354 20 1
354 105 1
354 339 1
354 340 1
354 351 1
354 352 1
354 353 1
354 355 1
354 356 1
355 339 1
355 353 1
355 354 1
355 356 1
355 357 1
355 358 1
356 339 1
356 340 1
356 353 1
356 354 1
356 355 1
356 357 1
356 358 1
357 339 1
357 340 1
357 355 1
357 356 1
357 358 1
357 359 1
357 360 1
358 339 1
358 355 1
358 356 1
358 357 1
358 359 1
358 360 1
359 339 1
359 357 1
359 358 1
359 360 1
359 361 1
359 362 1
360 357 1
360 358 1
360 359 1
360 361 1
360 362 1
361 359 1
361 360 1
361 362 1
361 363 1
361 364 1
362 340 1
362 359 1
362 360 1
362 361 1
362 363 1
362 364 1
363 339 1
363 340 1
363 361 1
363 362 1
363 364 1
363 365 1
363 366 1
364 231 1
364 339 1
364 340 1
364 361 1
364 362 1
364 363 1
364 365 1
364 366 1
365 73 1
365 74 1
365 147 1
365 148 1
365 221 1
365 222 1
365 229 1
365 230 1
365 243 1
365 244 1
365 269 1
365 270 1
365 363 1
365 364 1
365 366 1
366 73 1
366 74 1
366 147 1
366 148 1
366 221 1
366 222 1
366 229 1
366 230 1
366 243 1
366 244 1
366 269 1
366 270 1
366 339 1
366 340 1
366 363 1
366 364 1
366 365 1
367 54 1
367 56 1
367 165 1
367 166 1
367 167 1
367 168 1
367 169 1
367 170 1
367 368 1
368 54 1
368 165 1
368 166 1
368 167 1
368 168 1
368 169 1
368 170 1
368 367 1
369 31 1
369 32 1
369 33 1
369 34 1
369 43 1
369 44 1
369 45 1
369 52 1
369 55 1
369 56 1
369 177 1
369 178 1
369 223 1
369 224 1
369 267 1
369 268 1
369 303 1
369 304 1
369 370 1
369 373 1
369 374 1
370 31 1
370 32 1
370 33 1
370 34 1
370 44 1
370 46 1
370 52 1
370 53 1
370 55 1
370 56 1
370 177 1
370 178 1
370 223 1
370 224 1
370 263 1
370 267 1
370 268 1
370 303 1
370 304 1
370 369 1
370 373 1
370 374 1
371 31 1
371 32 1
371 34 1
371 38 1
371 43 1
371 44 1
371 51 1
371 52 1
371 56 1
371 63 1
371 65 1
371 71 1
371 183 1
371 184 1
371 185 1
371 186 1
371 263 1
371 264 1
371 341 1
371 372 1
371 399 1
371 400 1
372 31 1
372 32 1
372 33 1
372 36 1
372 43 1
372 44 1
372 51 1
372 52 1
372 55 1
372 56 1
372 183 1
372 184 1
372 185 1
372 186 1
372 223 1
372 371 1
372 399 1
372 400 1
373 31 1
373 32 1
373 33 1
373 34 1
373 35 1
373 45 1
373 55 1
373 56 1
373 177 1
373 178 1
373 223 1
373 224 1
373 267 1
373 268 1
373 303 1
373 304 1
373 369 1
373 370 1
373 374 1
374 31 1
374 32 1
374 33 1
374 34 1
374 44 1
374 46 1
374 52 1
374 55 1
374 177 1
374 178 1
374 223 1
374 224 1
374 267 1
374 268 1
374 303 1
374 304 1
374 369 1
374 370 1
374 373 1
375 15 1
375 16 1
375 17 1
375 18 1
375 293 1
375 294 1
375 376 1
375 377 1
375 378 1
375 385 1
375 386 1
376 15 1
376 16 1
376 17 1
376 18 1
376 293 1
376 294 1
376 375 1
376 377 1
376 378 1
376 385 1
376 386 1
377 7 1
377 8 1
377 375 1
377 376 1
377 378 1
377 395 1
377 396 1
378 7 1
378 8 1
378 375 1
378 376 1
378 377 1
378 395 1
378 396 1
379 5 1
379 6 1
379 9 1
379 10 1
379 11 1
379 12 1
379 29 1
379 30 1
379 380 1
379 383 1
379 384 1
379 387 1
379 388 1
379 393 1
379 394 1
380 5 1
380 6 1
380 9 1
380 10 1
380 11 1
380 12 1
380 29 1
380 30 1
380 379 1
380 383 1
380 384 1
380 387 1
380 388 1
380 393 1
380 394 1
381 382 1
381 383 1
381 384 1
381 385 1
381 386 1
381 397 1
381 398 1
382 381 1
382 383 1
382 384 1
382 385 1
382 386 1
382 397 1
382 398 1
383 379 1
383 380 1
383 381 1
383 382 1
383 384 1
383 387 1
383 388 1
384 379 1
384 380 1
384 381 1
384 382 1
384 383 1
384 387 1
384 388 1
385 15 1
385 16 1
385 17 1
385 18 1
385 375 1
385 376 1
385 381 1
385 382 1
385 386 1
385 397 1
385 398 1
386 15 1
386 16 1
386 17 1
386 18 1
386 20 1
386 375 1
386 376 1
386 381 1
386 382 1
386 385 1
386 397 1
386 398 1
387 11 1
387 12 1
387 13 1
387 14 1
387 379 1
387 380 1
387 383 1
387 384 1
387 388 1
388 11 1
388 12 1
388 13 1
388 14 1
388 379 1
388 380 1
388 383 1
388 384 1
388 387 1
389 390 1
389 391 1
389 392 1
389 393 1
389 394 1
390 389 1
390 391 1
390 392 1
390 393 1
390 394 1
391 389 1
391 390 1
391 392 1
391 393 1
391 394 1
392 389 1
392 390 1
392 391 1
392 393 1
392 394 1
393 11 1
393 12 1
393 379 1
393 380 1
393 389 1
393 390 1
393 391 1
393 392 1
393 394 1
394 11 1
394 12 1
394 379 1
394 380 1
394 389 1
394 390 1
394 391 1
394 392 1
394 393 1
395 377 1
395 378 1
395 396 1
396 377 1
396 378 1
396 395 1
397 381 1
397 382 1
397 385 1
397 386 1
397 398 1
398 381 1
398 382 1
398 385 1
398 386 1
398 397 1
399 31 1
399 32 1
399 34 1
399 36 1
399 43 1
399 44 1
399 51 1
399 52 1
399 55 1
399 56 1
399 71 1
399 183 1
399 184 1
399 185 1
399 186 1
399 371 1
399 372 1
399 400 1
400 31 1
400 32 1
400 38 1
400 43 1
400 44 1
400 51 1
400 52 1
400 55 1
400 56 1
400 63 1
400 65 1
400 71 1
400 111 1
400 113 1
400 183 1
400 184 1
400 185 1
400 186 1
400 263 1
400 264 1
400 341 1
400 371 1
400 372 1
400 399 1
