%%MatrixMarket matrix coordinate integer general
%
200 200 2470
1 2 1
1 4 1
1 62 1
1 63 1
1 64 1
1 91 1
1 92 1
1 119 1
1 120 1
1 155 1
1 156 1
1 179 1
1 180 1
2 1 1
2 3 1
2 61 1
2 64 1
2 91 1
2 92 1
2 119 1
2 120 1
2 155 1
2 156 1
2 179 1
2 180 1
3 2 1
3 4 1
3 61 1
3 62 1
3 63 1
3 64 1
3 91 1
3 92 1
3 119 1
3 120 1
3 155 1
3 156 1
3 179 1
3 180 1
4 1 1
4 3 1
4 61 1
4 62 1
4 64 1
4 91 1
4 92 1
4 119 1
4 120 1
4 155 1
4 156 1
4 179 1
4 180 1
5 6 1
5 7 1
5 8 1
6 5 1
7 5 1
7 8 1
7 9 1
7 10 1
8 5 1
8 7 1
8 9 1
8 10 1
8 149 1
8 186 1
8 200 1
9 7 1
9 8 1
9 10 1
9 53 1
10 7 1
10 8 1
10 9 1
10 54 1
11 12 1
11 13 1
11 14 1
11 129 1
11 130 1
11 173 1
11 174 1
11 177 1
11 178 1
12 11 1
12 13 1
12 14 1
12 129 1
12 130 1
12 173 1
12 174 1
12 177 1
12 181 1
13 11 1
13 12 1
13 14 1
13 129 1
13 130 1
13 173 1
13 174 1
13 177 1
13 178 1
14 11 1
14 12 1
14 13 1
14 129 1
14 130 1
14 173 1
14 174 1
14 177 1
14 178 1
14 181 1
15 16 1
15 17 1
15 18 1
15 23 1
15 24 1
15 131 1
15 132 1
15 134 1
16 15 1
16 17 1
16 18 1
16 23 1
16 24 1
16 131 1
16 132 1
17 15 1
17 16 1
17 18 1
17 24 1
17 131 1
18 15 1
18 16 1
18 17 1
18 23 1
18 132 1
18 134 1
18 157 1
19 20 1
19 22 1
19 43 1
19 44 1
19 45 1
19 46 1
19 47 1
19 48 1
19 49 1
19 50 1
19 51 1
19 52 1
19 71 1
19 72 1
19 73 1
19 74 1
19 159 1
19 160 1
19 161 1
19 162 1
19 163 1
19 164 1
19 165 1
19 166 1
19 168 1
19 184 1
20 19 1
20 21 1
20 43 1
20 44 1
20 45 1
20 46 1
20 47 1
20 48 1
20 49 1
20 50 1
20 51 1
20 52 1
20 71 1
20 72 1
20 73 1
20 74 1
20 159 1
20 160 1
20 161 1
20 162 1
20 163 1
20 164 1
20 165 1
20 166 1
20 167 1
21 20 1
21 22 1
21 43 1
21 44 1
21 45 1
21 46 1
21 47 1
21 48 1
21 49 1
21 50 1
21 51 1
21 52 1
21 71 1
21 72 1
21 73 1
21 74 1
21 159 1
21 160 1
21 161 1
21 162 1
21 163 1
21 164 1
21 165 1
21 166 1
21 168 1
21 184 1
22 19 1
22 21 1
22 43 1
22 44 1
22 45 1
22 46 1
22 47 1
22 48 1
22 49 1
22 50 1
22 51 1
22 52 1
22 71 1
22 72 1
22 73 1
22 74 1
22 159 1
22 160 1
22 161 1
22 162 1
22 163 1
22 164 1
22 165 1
22 166 1
22 167 1
23 15 1
23 16 1
23 18 1
23 24 1
23 132 1
23 134 1
24 15 1
24 16 1
24 17 1
24 23 1
24 131 1
24 132 1
24 157 1
25 26 1
25 27 1
25 28 1
25 75 1
25 76 1
25 95 1
25 96 1
25 99 1
25 100 1
25 111 1
25 112 1
25 135 1
25 136 1
25 197 1
25 198 1
26 25 1
26 27 1
26 28 1
26 75 1
26 76 1
26 95 1
26 96 1
26 99 1
26 100 1
26 111 1
26 112 1
26 135 1
26 136 1
26 197 1
26 198 1
27 25 1
27 26 1
27 28 1
27 77 1
27 78 1
28 25 1
28 26 1
28 27 1
28 77 1
28 78 1
29 30 1
29 57 1
29 58 1
29 59 1
29 60 1
29 75 1
29 76 1
29 85 1
29 86 1
30 29 1
30 57 1
30 58 1
30 59 1
30 60 1
30 75 1
30 76 1
30 85 1
30 86 1
31 32 1
31 79 1
31 80 1
32 31 1
32 79 1
32 80 1
32 124 1
33 34 1
33 65 1
33 66 1
33 67 1
33 68 1
33 169 1
33 170 1
33 175 1
33 176 1
34 33 1
34 65 1
34 66 1
34 67 1
34 68 1
34 169 1
34 170 1
34 175 1
34 176 1
35 36 1
35 37 1
35 38 1
35 93 1
35 94 1
35 123 1
35 124 1
35 147 1
35 148 1
36 35 1
36 37 1
36 38 1
36 93 1
36 94 1
36 106 1
36 123 1
36 124 1
36 147 1
36 148 1
37 35 1
37 36 1
37 38 1
37 93 1
37 94 1
37 123 1
37 124 1
37 147 1
37 148 1
38 35 1
38 36 1
38 37 1
38 93 1
38 94 1
38 106 1
38 123 1
38 124 1
38 147 1
38 148 1
39 40 1
39 42 1
39 43 1
39 44 1
39 45 1
39 46 1
39 48 1
39 55 1
39 56 1
39 89 1
39 90 1
39 103 1
39 104 1
39 128 1
39 139 1
39 140 1
39 160 1
39 161 1
39 162 1
39 163 1
39 164 1
39 183 1
40 39 1
40 41 1
40 43 1
40 44 1
40 45 1
40 46 1
40 47 1
40 55 1
40 56 1
40 89 1
40 90 1
40 103 1
40 104 1
40 128 1
40 139 1
40 140 1
40 159 1
40 161 1
40 162 1
40 163 1
40 164 1
41 40 1
41 42 1
41 43 1
41 44 1
41 45 1
41 46 1
41 48 1
41 55 1
41 56 1
41 89 1
41 90 1
41 103 1
41 104 1
41 128 1
41 139 1
41 140 1
41 160 1
41 161 1
41 162 1
41 163 1
41 164 1
41 183 1
42 39 1
42 41 1
42 43 1
42 44 1
42 45 1
42 46 1
42 47 1
42 55 1
42 56 1
42 89 1
42 90 1
42 103 1
42 104 1
42 128 1
42 139 1
42 140 1
42 159 1
42 161 1
42 162 1
42 163 1
42 164 1
43 19 1
43 20 1
43 21 1
43 22 1
43 39 1
43 40 1
43 41 1
43 42 1
43 44 1
43 46 1
43 47 1
43 48 1
43 89 1
43 90 1
43 103 1
43 104 1
43 127 1
43 159 1
43 160 1
43 162 1
43 163 1
43 164 1
43 165 1
43 166 1
43 167 1
43 168 1
44 19 1
44 20 1
44 21 1
44 22 1
44 39 1
44 40 1
44 41 1
44 42 1
44 43 1
44 45 1
44 47 1
44 48 1
44 89 1
44 90 1
44 103 1
44 104 1
44 127 1
44 128 1
44 159 1
44 160 1
44 161 1
44 163 1
44 164 1
44 165 1
44 166 1
44 167 1
44 168 1
44 183 1
45 19 1
45 20 1
45 21 1
45 22 1
45 39 1
45 40 1
45 41 1
45 42 1
45 44 1
45 46 1
45 47 1
45 48 1
45 89 1
45 90 1
45 103 1
45 104 1
45 127 1
45 159 1
45 160 1
45 162 1
45 163 1
45 164 1
45 165 1
45 166 1
45 167 1
45 168 1
46 19 1
46 20 1
46 21 1
46 22 1
46 39 1
46 40 1
46 41 1
46 42 1
46 43 1
46 45 1
46 47 1
46 48 1
46 89 1
46 90 1
46 103 1
46 104 1
46 127 1
46 128 1
46 159 1
46 160 1
46 161 1
46 163 1
46 164 1
46 165 1
46 166 1
46 167 1
46 168 1
46 183 1
47 19 1
47 20 1
47 21 1
47 22 1
47 40 1
47 42 1
47 43 1
47 44 1
47 45 1
47 46 1
47 48 1
47 49 1
47 50 1
47 51 1
47 52 1
47 71 1
47 72 1
47 73 1
47 74 1
47 89 1
47 90 1
47 103 1
47 104 1
47 160 1
47 161 1
47 162 1
47 163 1
47 164 1
47 165 1
47 166 1
47 167 1
47 168 1
48 19 1
48 20 1
48 21 1
48 22 1
48 39 1
48 41 1
48 43 1
48 44 1
48 45 1
48 46 1
48 47 1
48 49 1
48 50 1
48 51 1
48 52 1
48 71 1
48 72 1
48 73 1
48 74 1
48 89 1
48 90 1
48 103 1
48 104 1
48 127 1
48 159 1
48 161 1
48 162 1
48 163 1
48 164 1
48 165 1
48 166 1
48 167 1
48 168 1
49 19 1
49 20 1
49 21 1
49 22 1
49 47 1
49 48 1
49 50 1
49 52 1
49 71 1
49 73 1
49 159 1
49 160 1
49 165 1
49 166 1
49 167 1
49 168 1
50 19 1
50 20 1
50 21 1
50 22 1
50 47 1
50 48 1
50 49 1
50 51 1
50 72 1
50 74 1
50 159 1
50 160 1
50 165 1
50 166 1
50 167 1
50 168 1
51 19 1
51 20 1
51 21 1
51 22 1
51 47 1
51 48 1
51 50 1
51 52 1
51 71 1
51 72 1
51 73 1
51 74 1
51 159 1
51 160 1
51 165 1
51 166 1
51 167 1
51 168 1
52 19 1
52 20 1
52 21 1
52 22 1
52 47 1
52 48 1
52 49 1
52 51 1
52 71 1
52 72 1
52 73 1
52 74 1
52 104 1
52 159 1
52 160 1
52 165 1
52 166 1
52 167 1
52 168 1
53 9 1
53 54 1
53 55 1
53 56 1
53 186 1
54 10 1
54 53 1
54 55 1
54 56 1
54 179 1
54 180 1
55 39 1
55 40 1
55 41 1
55 42 1
55 53 1
55 54 1
55 56 1
55 139 1
55 140 1
56 39 1
56 40 1
56 41 1
56 42 1
56 53 1
56 54 1
56 55 1
56 139 1
56 140 1
57 29 1
57 30 1
57 58 1
57 59 1
57 60 1
57 85 1
57 86 1
57 134 1
58 29 1
58 30 1
58 57 1
58 59 1
58 60 1
58 85 1
58 86 1
59 29 1
59 30 1
59 57 1
59 58 1
59 60 1
59 85 1
59 86 1
59 134 1
60 29 1
60 30 1
60 57 1
60 58 1
60 59 1
60 85 1
60 86 1
61 2 1
61 3 1
61 4 1
61 62 1
61 63 1
61 64 1
61 91 1
61 92 1
61 114 1
61 119 1
61 120 1
61 141 1
61 155 1
61 156 1
61 179 1
61 180 1
62 1 1
62 3 1
62 4 1
62 61 1
62 64 1
62 91 1
62 92 1
62 119 1
62 120 1
62 155 1
62 156 1
62 179 1
62 180 1
63 1 1
63 3 1
63 61 1
63 64 1
63 91 1
63 92 1
63 114 1
63 119 1
63 120 1
63 141 1
63 155 1
63 156 1
63 179 1
63 180 1
64 1 1
64 2 1
64 3 1
64 4 1
64 61 1
64 62 1
64 63 1
64 91 1
64 92 1
64 119 1
64 120 1
64 155 1
64 156 1
64 179 1
64 180 1
65 33 1
65 34 1
65 66 1
65 67 1
65 68 1
65 169 1
65 170 1
65 175 1
65 176 1
66 33 1
66 34 1
66 65 1
66 67 1
66 68 1
66 169 1
66 170 1
66 175 1
66 176 1
67 33 1
67 34 1
67 65 1
67 66 1
67 68 1
67 169 1
67 170 1
67 175 1
67 176 1
68 33 1
68 34 1
68 65 1
68 66 1
68 67 1
68 169 1
68 170 1
68 175 1
68 176 1
69 70 1
69 77 1
69 78 1
69 111 1
69 112 1
69 143 1
69 144 1
70 69 1
70 77 1
70 78 1
70 98 1
70 111 1
70 112 1
70 121 1
70 143 1
70 144 1
70 145 1
71 19 1
71 20 1
71 21 1
71 22 1
71 47 1
71 48 1
71 49 1
71 51 1
71 52 1
71 72 1
71 74 1
71 159 1
71 160 1
71 165 1
71 166 1
71 167 1
71 168 1
72 19 1
72 20 1
72 21 1
72 22 1
72 47 1
72 48 1
72 50 1
72 51 1
72 52 1
72 71 1
72 73 1
72 159 1
72 160 1
72 165 1
72 166 1
72 167 1
72 168 1
73 19 1
73 20 1
73 21 1
73 22 1
73 47 1
73 48 1
73 49 1
73 51 1
73 52 1
73 72 1
73 74 1
73 159 1
73 160 1
73 165 1
73 166 1
73 167 1
73 168 1
74 19 1
74 20 1
74 21 1
74 22 1
74 47 1
74 48 1
74 50 1
74 51 1
74 52 1
74 71 1
74 73 1
74 159 1
74 160 1
74 165 1
74 166 1
74 167 1
74 168 1
75 25 1
75 26 1
75 29 1
75 30 1
75 76 1
75 85 1
75 86 1
75 95 1
75 96 1
75 99 1
75 111 1
75 112 1
75 136 1
75 197 1
75 198 1
76 25 1
76 26 1
76 29 1
76 30 1
76 75 1
76 85 1
76 86 1
76 95 1
76 96 1
76 100 1
76 111 1
76 112 1
76 135 1
76 197 1
76 198 1
77 27 1
77 28 1
77 69 1
77 70 1
77 78 1
77 111 1
77 112 1
77 143 1
77 144 1
78 27 1
78 28 1
78 69 1
78 70 1
78 77 1
78 111 1
78 112 1
78 143 1
78 144 1
79 31 1
79 32 1
79 80 1
79 81 1
79 82 1
79 83 1
79 84 1
80 31 1
80 32 1
80 79 1
80 81 1
80 82 1
80 83 1
80 84 1
81 79 1
81 80 1
81 82 1
81 83 1
81 84 1
82 79 1
82 80 1
82 81 1
82 83 1
82 84 1
83 79 1
83 80 1
83 81 1
83 82 1
83 84 1
84 79 1
84 80 1
84 81 1
84 82 1
84 83 1
85 29 1
85 30 1
85 57 1
85 58 1
85 59 1
85 60 1
85 75 1
85 76 1
85 86 1
86 29 1
86 30 1
86 57 1
86 58 1
86 59 1
86 60 1
86 75 1
86 76 1
86 85 1
87 88 1
87 117 1
87 118 1
88 87 1
88 117 1
88 118 1
89 39 1
89 40 1
89 41 1
89 42 1
89 43 1
89 44 1
89 45 1
89 46 1
89 47 1
89 48 1
89 90 1
89 103 1
89 104 1
89 127 1
89 128 1
89 159 1
89 160 1
89 161 1
89 162 1
89 163 1
89 164 1
89 183 1
89 184 1
90 39 1
90 40 1
90 41 1
90 42 1
90 43 1
90 44 1
90 45 1
90 46 1
90 47 1
90 48 1
90 89 1
90 103 1
90 104 1
90 127 1
90 128 1
90 159 1
90 160 1
90 161 1
90 162 1
90 163 1
90 164 1
90 183 1
90 184 1
91 1 1
91 2 1
91 3 1
91 4 1
91 61 1
91 62 1
91 63 1
91 64 1
91 92 1
91 113 1
91 114 1
91 117 1
91 118 1
91 119 1
91 120 1
91 129 1
91 130 1
91 155 1
91 156 1
91 179 1
91 180 1
91 181 1
91 182 1
92 1 1
92 2 1
92 3 1
92 4 1
92 61 1
92 62 1
92 63 1
92 64 1
92 91 1
92 113 1
92 114 1
92 117 1
92 118 1
92 119 1
92 120 1
92 129 1
92 130 1
92 155 1
92 156 1
92 179 1
92 180 1
92 182 1
93 35 1
93 36 1
93 37 1
93 38 1
93 94 1
93 97 1
93 98 1
93 121 1
93 122 1
93 123 1
93 124 1
93 145 1
93 146 1
94 35 1
94 36 1
94 37 1
94 38 1
94 93 1
94 97 1
94 98 1
94 121 1
94 122 1
94 123 1
94 124 1
94 145 1
94 146 1
95 25 1
95 26 1
95 75 1
95 76 1
95 96 1
95 99 1
95 100 1
95 111 1
95 112 1
95 125 1
95 126 1
95 135 1
95 136 1
95 197 1
95 198 1
96 25 1
96 26 1
96 75 1
96 76 1
96 95 1
96 99 1
96 100 1
96 111 1
96 112 1
96 125 1
96 126 1
96 135 1
96 136 1
96 197 1
96 198 1
97 93 1
97 94 1
97 98 1
97 105 1
97 106 1
97 107 1
97 108 1
97 121 1
97 122 1
97 145 1
97 146 1
97 171 1
97 172 1
97 179 1
97 180 1
98 70 1
98 93 1
98 94 1
98 97 1
98 105 1
98 106 1
98 107 1
98 108 1
98 121 1
98 122 1
98 145 1
98 146 1
98 147 1
98 171 1
98 172 1
99 25 1
99 26 1
99 75 1
99 95 1
99 96 1
99 100 1
99 111 1
99 112 1
99 135 1
99 197 1
99 198 1
100 25 1
100 26 1
100 76 1
100 95 1
100 96 1
100 99 1
100 111 1
100 112 1
100 136 1
100 197 1
101 102 1
101 135 1
101 136 1
101 137 1
101 138 1
101 196 1
102 101 1
102 135 1
102 136 1
102 137 1
102 138 1
103 39 1
103 40 1
103 41 1
103 42 1
103 43 1
103 44 1
103 45 1
103 46 1
103 47 1
103 48 1
103 89 1
103 90 1
103 104 1
103 127 1
103 128 1
103 159 1
103 160 1
103 161 1
103 162 1
103 163 1
103 164 1
104 39 1
104 40 1
104 41 1
104 42 1
104 43 1
104 44 1
104 45 1
104 46 1
104 47 1
104 48 1
104 52 1
104 89 1
104 90 1
104 103 1
104 127 1
104 128 1
104 159 1
104 160 1
104 161 1
104 162 1
104 163 1
104 164 1
105 97 1
105 98 1
105 106 1
105 107 1
105 108 1
105 171 1
105 172 1
106 36 1
106 38 1
106 97 1
106 98 1
106 105 1
106 107 1
106 108 1
106 171 1
106 179 1
106 180 1
107 97 1
107 98 1
107 105 1
107 106 1
107 108 1
107 171 1
107 172 1
107 179 1
108 97 1
108 98 1
108 105 1
108 106 1
108 107 1
108 171 1
108 172 1
109 110 1
109 115 1
109 116 1
109 133 1
109 134 1
110 109 1
110 115 1
110 116 1
110 133 1
111 25 1
111 26 1
111 69 1
111 70 1
111 75 1
111 76 1
111 77 1
111 78 1
111 95 1
111 96 1
111 99 1
111 100 1
111 112 1
111 135 1
111 136 1
111 143 1
111 144 1
111 179 1
111 197 1
111 198 1
112 25 1
112 26 1
112 69 1
112 70 1
112 75 1
112 76 1
112 77 1
112 78 1
112 95 1
112 96 1
112 99 1
112 100 1
112 111 1
112 135 1
112 136 1
112 143 1
112 144 1
112 197 1
112 198 1
113 91 1
113 92 1
113 114 1
113 117 1
113 118 1
113 129 1
113 130 1
113 141 1
113 142 1
113 155 1
113 156 1
113 179 1
113 181 1
113 182 1
114 61 1
114 63 1
114 91 1
114 92 1
114 113 1
114 117 1
114 118 1
114 129 1
114 130 1
114 141 1
114 142 1
114 155 1
114 156 1
114 179 1
114 180 1
114 181 1
114 182 1
115 109 1
115 110 1
115 116 1
115 121 1
115 122 1
115 133 1
115 134 1
116 109 1
116 110 1
116 115 1
116 121 1
116 122 1
116 133 1
116 134 1
117 87 1
117 88 1
117 91 1
117 92 1
117 113 1
117 114 1
117 118 1
117 129 1
117 130 1
117 155 1
117 156 1
117 179 1
117 180 1
117 181 1
117 182 1
118 87 1
118 88 1
118 91 1
118 92 1
118 113 1
118 114 1
118 117 1
118 129 1
118 130 1
118 155 1
118 156 1
118 180 1
118 181 1
118 182 1
119 1 1
119 2 1
119 3 1
119 4 1
119 61 1
119 62 1
119 63 1
119 64 1
119 91 1
119 92 1
119 120 1
119 155 1
119 156 1
119 171 1
119 172 1
119 179 1
119 180 1
120 1 1
120 2 1
120 3 1
120 4 1
120 61 1
120 62 1
120 63 1
120 64 1
120 91 1
120 92 1
120 119 1
120 155 1
120 156 1
120 171 1
120 172 1
120 179 1
120 180 1
121 70 1
121 93 1
121 94 1
121 97 1
121 98 1
121 115 1
121 116 1
121 122 1
121 145 1
121 146 1
122 93 1
122 94 1
122 97 1
122 98 1
122 115 1
122 116 1
122 121 1
122 145 1
122 146 1
123 35 1
123 36 1
123 37 1
123 38 1
123 93 1
123 94 1
123 124 1
124 32 1
124 35 1
124 36 1
124 37 1
124 38 1
124 93 1
124 94 1
124 123 1
125 95 1
125 96 1
125 126 1
126 95 1
126 96 1
126 125 1
127 43 1
127 44 1
127 45 1
127 46 1
127 48 1
127 89 1
127 90 1
127 103 1
127 104 1
127 128 1
127 160 1
127 161 1
127 162 1
127 163 1
127 164 1
127 183 1
127 184 1
128 39 1
128 40 1
128 41 1
128 42 1
128 44 1
128 46 1
128 89 1
128 90 1
128 103 1
128 104 1
128 127 1
128 162 1
128 164 1
128 183 1
128 184 1
129 11 1
129 12 1
129 13 1
129 14 1
129 91 1
129 92 1
129 113 1
129 114 1
129 117 1
129 118 1
129 130 1
129 155 1
129 156 1
129 173 1
129 174 1
129 177 1
129 178 1
129 180 1
129 181 1
129 182 1
130 11 1
130 12 1
130 13 1
130 14 1
130 91 1
130 92 1
130 113 1
130 114 1
130 117 1
130 118 1
130 129 1
130 155 1
130 156 1
130 173 1
130 174 1
130 177 1
130 178 1
130 179 1
130 180 1
130 181 1
130 182 1
131 15 1
131 16 1
131 17 1
131 24 1
131 132 1
131 133 1
131 134 1
131 157 1
132 15 1
132 16 1
132 18 1
132 23 1
132 24 1
132 131 1
132 133 1
132 134 1
132 157 1
133 109 1
133 110 1
133 115 1
133 116 1
133 131 1
133 132 1
133 134 1
134 15 1
134 18 1
134 23 1
134 57 1
134 59 1
134 109 1
134 115 1
134 116 1
134 131 1
134 132 1
134 133 1
134 157 1
135 25 1
135 26 1
135 76 1
135 95 1
135 96 1
135 99 1
135 101 1
135 102 1
135 111 1
135 112 1
135 136 1
135 137 1
135 138 1
135 197 1
135 198 1
136 25 1
136 26 1
136 75 1
136 95 1
136 96 1
136 100 1
136 101 1
136 102 1
136 111 1
136 112 1
136 135 1
136 137 1
136 138 1
136 197 1
136 198 1
137 101 1
137 102 1
137 135 1
137 136 1
137 138 1
138 101 1
138 102 1
138 135 1
138 136 1
138 137 1
139 39 1
139 40 1
139 41 1
139 42 1
139 55 1
139 56 1
139 140 1
139 141 1
139 142 1
139 180 1
140 39 1
140 40 1
140 41 1
140 42 1
140 55 1
140 56 1
140 139 1
140 141 1
140 142 1
140 180 1
141 61 1
141 63 1
141 113 1
141 114 1
141 139 1
141 140 1
141 142 1
141 179 1
141 180 1
142 113 1
142 114 1
142 139 1
142 140 1
142 141 1
142 179 1
143 69 1
143 70 1
143 77 1
143 78 1
143 111 1
143 112 1
143 144 1
143 145 1
143 146 1
143 179 1
144 69 1
144 70 1
144 77 1
144 78 1
144 111 1
144 112 1
144 143 1
144 145 1
144 146 1
144 179 1
145 70 1
145 93 1
145 94 1
145 97 1
145 98 1
145 121 1
145 122 1
145 143 1
145 144 1
145 146 1
146 93 1
146 94 1
146 97 1
146 98 1
146 121 1
146 122 1
146 143 1
146 144 1
146 145 1
146 179 1
147 35 1
147 36 1
147 37 1
147 38 1
147 98 1
147 148 1
147 151 1
147 152 1
148 35 1
148 36 1
148 37 1
148 38 1
148 147 1
148 151 1
148 152 1
149 8 1
149 150 1
150 149 1
151 147 1
151 148 1
151 152 1
152 147 1
152 148 1
152 151 1
153 154 1
153 169 1
153 173 1
153 174 1
154 153 1
154 169 1
154 170 1
154 173 1
154 174 1
155 1 1
155 2 1
155 3 1
155 4 1
155 61 1
155 62 1
155 63 1
155 64 1
155 91 1
155 92 1
155 113 1
155 114 1
155 117 1
155 118 1
155 119 1
155 120 1
155 129 1
155 130 1
155 156 1
155 179 1
155 180 1
155 182 1
156 1 1
156 2 1
156 3 1
156 4 1
156 61 1
156 62 1
156 63 1
156 64 1
156 91 1
156 92 1
156 113 1
156 114 1
156 117 1
156 118 1
156 119 1
156 120 1
156 129 1
156 130 1
156 155 1
156 179 1
156 180 1
156 181 1
157 18 1
157 24 1
157 131 1
157 132 1
157 134 1
157 158 1
158 157 1
159 19 1
159 20 1
159 21 1
159 22 1
159 40 1
159 42 1
159 43 1
159 44 1
159 45 1
159 46 1
159 48 1
159 49 1
159 50 1
159 51 1
159 52 1
159 71 1
159 72 1
159 73 1
159 74 1
159 89 1
159 90 1
159 103 1
159 104 1
159 160 1
159 161 1
159 162 1
159 163 1
159 164 1
159 165 1
159 166 1
159 167 1
159 168 1
160 19 1
160 20 1
160 21 1
160 22 1
160 39 1
160 41 1
160 43 1
160 44 1
160 45 1
160 46 1
160 47 1
160 49 1
160 50 1
160 51 1
160 52 1
160 71 1
160 72 1
160 73 1
160 74 1
160 89 1
160 90 1
160 103 1
160 104 1
160 127 1
160 159 1
160 161 1
160 162 1
160 163 1
160 164 1
160 165 1
160 166 1
160 167 1
160 168 1
161 19 1
161 20 1
161 21 1
161 22 1
161 39 1
161 40 1
161 41 1
161 42 1
161 44 1
161 46 1
161 47 1
161 48 1
161 89 1
161 90 1
161 103 1
161 104 1
161 127 1
161 159 1
161 160 1
161 162 1
161 163 1
161 164 1
161 165 1
161 166 1
161 167 1
161 168 1
162 19 1
162 20 1
162 21 1
162 22 1
162 39 1
162 40 1
162 41 1
162 42 1
162 43 1
162 45 1
162 47 1
162 48 1
162 89 1
162 90 1
162 103 1
162 104 1
162 127 1
162 128 1
162 159 1
162 160 1
162 161 1
162 163 1
162 164 1
162 165 1
162 166 1
162 167 1
162 168 1
162 183 1
163 19 1
163 20 1
163 21 1
163 22 1
163 39 1
163 40 1
163 41 1
163 42 1
163 43 1
163 44 1
163 45 1
163 46 1
163 47 1
163 48 1
163 89 1
163 90 1
163 103 1
163 104 1
163 127 1
163 159 1
163 160 1
163 161 1
163 162 1
163 164 1
163 165 1
163 166 1
163 167 1
163 168 1
164 19 1
164 20 1
164 21 1
164 22 1
164 39 1
164 40 1
164 41 1
164 42 1
164 43 1
164 44 1
164 45 1
164 46 1
164 47 1
164 48 1
164 89 1
164 90 1
164 103 1
164 104 1
164 127 1
164 128 1
164 159 1
164 160 1
164 161 1
164 162 1
164 163 1
164 165 1
164 166 1
164 167 1
164 168 1
164 183 1
165 19 1
165 20 1
165 21 1
165 22 1
165 43 1
165 44 1
165 45 1
165 46 1
165 47 1
165 48 1
165 49 1
165 50 1
165 51 1
165 52 1
165 71 1
165 72 1
165 73 1
165 74 1
165 159 1
165 160 1
165 161 1
165 162 1
165 163 1
165 164 1
165 166 1
165 167 1
165 168 1
165 184 1
166 19 1
166 20 1
166 21 1
166 22 1
166 43 1
166 44 1
166 45 1
166 46 1
166 47 1
166 48 1
166 49 1
166 50 1
166 51 1
166 52 1
166 71 1
166 72 1
166 73 1
166 74 1
166 159 1
166 160 1
166 161 1
166 162 1
166 163 1
166 164 1
166 165 1
166 167 1
166 168 1
167 20 1
167 22 1
167 43 1
167 44 1
167 45 1
167 46 1
167 47 1
167 48 1
167 49 1
167 50 1
167 51 1
167 52 1
167 71 1
167 72 1
167 73 1
167 74 1
167 159 1
167 160 1
167 161 1
167 162 1
167 163 1
167 164 1
167 165 1
167 166 1
167 168 1
167 184 1
168 19 1
168 21 1
168 43 1
168 44 1
168 45 1
168 46 1
168 47 1
168 48 1
168 49 1
168 50 1
168 51 1
168 52 1
168 71 1
168 72 1
168 73 1
168 74 1
168 159 1
168 160 1
168 161 1
168 162 1
168 163 1
168 164 1
168 165 1
168 166 1
168 167 1
169 33 1
169 34 1
169 65 1
169 66 1
169 67 1
169 68 1
169 153 1
169 154 1
169 170 1
169 173 1
169 174 1
169 175 1
169 176 1
170 33 1
170 34 1
170 65 1
170 66 1
170 67 1
170 68 1
170 154 1
170 169 1
170 173 1
170 174 1
170 175 1
170 176 1
171 97 1
171 98 1
171 105 1
171 106 1
171 107 1
171 108 1
171 119 1
171 120 1
171 172 1
171 179 1
172 97 1
172 98 1
172 105 1
172 107 1
172 108 1
172 119 1
172 120 1
172 171 1
172 179 1
172 180 1
173 11 1
173 12 1
173 13 1
173 14 1
173 129 1
173 130 1
173 153 1
173 154 1
173 169 1
173 170 1
173 174 1
173 177 1
173 178 1
173 179 1
173 180 1
174 11 1
174 12 1
174 13 1
174 14 1
174 129 1
174 130 1
174 153 1
174 154 1
174 169 1
174 170 1
174 173 1
174 177 1
174 178 1
175 33 1
175 34 1
175 65 1
175 66 1
175 67 1
175 68 1
175 169 1
175 170 1
175 176 1
176 33 1
176 34 1
176 65 1
176 66 1
176 67 1
176 68 1
176 169 1
176 170 1
176 175 1
177 11 1
177 12 1
177 13 1
177 14 1
177 129 1
177 130 1
177 173 1
177 174 1
177 178 1
177 179 1
178 11 1
178 13 1
178 14 1
178 129 1
178 130 1
178 173 1
178 174 1
178 177 1
179 1 1
179 2 1
179 3 1
179 4 1
179 54 1
179 61 1
179 62 1
179 63 1
179 64 1
179 91 1
179 92 1
179 97 1
179 106 1
179 107 1
179 111 1
179 113 1
179 114 1
179 117 1
179 119 1
179 120 1
179 130 1
179 141 1
179 142 1
179 143 1
179 144 1
179 146 1
179 155 1
179 156 1
179 171 1
179 172 1
179 173 1
179 177 1
179 180 1
179 181 1
179 182 1
179 186 1
179 187 1
179 188 1
179 189 1
179 190 1
179 191 1
179 195 1
179 196 1
179 198 1
180 1 1
180 2 1
180 3 1
180 4 1
180 54 1
180 61 1
180 62 1
180 63 1
180 64 1
180 91 1
180 92 1
180 97 1
180 106 1
180 114 1
180 117 1
180 118 1
180 119 1
180 120 1
180 129 1
180 130 1
180 139 1
180 140 1
180 141 1
180 155 1
180 156 1
180 172 1
180 173 1
180 179 1
180 181 1
180 184 1
180 185 1
180 186 1
180 188 1
180 189 1
180 194 1
180 195 1
180 196 1
180 198 1
181 12 1
181 14 1
181 91 1
181 113 1
181 114 1
181 117 1
181 118 1
181 129 1
181 130 1
181 156 1
181 179 1
181 180 1
181 182 1
182 91 1
182 92 1
182 113 1
182 114 1
182 117 1
182 118 1
182 129 1
182 130 1
182 155 1
182 179 1
182 181 1
183 39 1
183 41 1
183 44 1
183 46 1
183 89 1
183 90 1
183 127 1
183 128 1
183 162 1
183 164 1
183 184 1
183 185 1
183 186 1
184 19 1
184 21 1
184 89 1
184 90 1
184 127 1
184 128 1
184 165 1
184 167 1
184 180 1
184 183 1
184 185 1
184 186 1
185 180 1
185 183 1
185 184 1
185 186 1
185 187 1
185 188 1
186 8 1
186 53 1
186 179 1
186 180 1
186 183 1
186 184 1
186 185 1
186 187 1
186 188 1
187 179 1
187 185 1
187 186 1
187 188 1
187 189 1
187 190 1
188 179 1
188 180 1
188 185 1
188 186 1
188 187 1
188 189 1
188 190 1
189 179 1
189 180 1
189 187 1
189 188 1
189 190 1
189 191 1
189 192 1
190 179 1
190 187 1
190 188 1
190 189 1
190 191 1
190 192 1
191 179 1
191 189 1
191 190 1
191 192 1
191 193 1
191 194 1
192 189 1
192 190 1
192 191 1
192 193 1
192 194 1
193 191 1
193 192 1
193 194 1
193 195 1
193 196 1
194 180 1
194 191 1
194 192 1
194 193 1
194 195 1
194 196 1
195 179 1
195 180 1
195 193 1
195 194 1
195 196 1
195 197 1
195 198 1
196 101 1
196 179 1
196 180 1
196 193 1
196 194 1
196 195 1
196 197 1
196 198 1
197 25 1
197 26 1
197 75 1
197 76 1
197 95 1
197 96 1
197 99 1
197 100 1
197 111 1
197 112 1
197 135 1
197 136 1
197 195 1
197 196 1
197 198 1
198 25 1
198 26 1
198 75 1
198 76 1
198 95 1
198 96 1
198 99 1
198 111 1
198 112 1
198 135 1
198 136 1
198 179 1
198 180 1
198 195 1
198 196 1
198 197 1
199 200 1
200 8 1
200 199 1
