%%MatrixMarket matrix coordinate integer general
%
916 916 11488
1 2 1
1 171 1
1 172 1
1 199 1
1 200 1
1 871 1
1 872 1
1 897 1
1 898 1
1 899 1
1 900 1
2 1 1
2 171 1
2 172 1
2 199 1
2 200 1
2 871 1
2 872 1
2 897 1
2 898 1
2 899 1
2 900 1
3 4 1
3 18 1
3 19 1
3 20 1
3 47 1
3 48 1
3 55 1
3 56 1
3 89 1
3 90 1
3 99 1
3 100 1
3 101 1
3 125 1
3 126 1
3 201 1
3 202 1
3 207 1
3 208 1
3 497 1
3 498 1
3 501 1
3 502 1
3 505 1
3 506 1
3 655 1
3 656 1
3 657 1
3 658 1
3 659 1
3 660 1
3 777 1
3 778 1
3 908 1
4 3 1
4 18 1
4 19 1
4 20 1
4 47 1
4 48 1
4 55 1
4 56 1
4 89 1
4 90 1
4 99 1
4 100 1
4 101 1
4 125 1
4 126 1
4 141 1
4 201 1
4 202 1
4 207 1
4 208 1
4 252 1
4 497 1
4 498 1
4 501 1
4 502 1
4 505 1
4 506 1
4 655 1
4 656 1
4 657 1
4 658 1
4 659 1
4 660 1
4 777 1
4 778 1
4 908 1
5 6 1
5 109 1
5 110 1
5 123 1
5 124 1
6 5 1
6 109 1
6 110 1
6 124 1
6 142 1
6 251 1
7 8 1
7 9 1
7 10 1
7 171 1
7 172 1
7 861 1
8 7 1
8 9 1
8 10 1
8 171 1
8 172 1
9 7 1
9 8 1
9 10 1
9 171 1
9 172 1
9 861 1
10 7 1
10 8 1
10 9 1
10 171 1
10 172 1
10 464 1
10 862 1
11 12 1
11 57 1
11 58 1
11 59 1
11 60 1
11 61 1
11 62 1
12 11 1
12 57 1
12 58 1
12 59 1
12 60 1
12 61 1
12 62 1
13 14 1
13 15 1
13 16 1
13 321 1
13 322 1
13 323 1
13 324 1
13 557 1
13 558 1
13 599 1
13 600 1
13 665 1
13 666 1
13 767 1
13 768 1
14 13 1
14 15 1
14 16 1
14 321 1
14 322 1
14 323 1
14 324 1
14 557 1
14 558 1
14 599 1
14 600 1
14 665 1
14 666 1
14 767 1
14 768 1
15 13 1
15 14 1
15 16 1
15 321 1
15 322 1
15 323 1
15 324 1
15 557 1
15 558 1
15 599 1
15 600 1
15 665 1
15 666 1
15 767 1
15 768 1
16 13 1
16 14 1
16 15 1
16 321 1
16 322 1
16 323 1
16 324 1
16 557 1
16 558 1
16 599 1
16 600 1
16 665 1
16 666 1
16 767 1
16 768 1
17 18 1
17 63 1
17 99 1
17 100 1
17 101 1
17 102 1
17 126 1
17 142 1
17 190 1
17 207 1
17 208 1
17 251 1
17 655 1
17 656 1
17 658 1
17 907 1
17 908 1
18 3 1
18 4 1
18 17 1
18 64 1
18 66 1
18 99 1
18 100 1
18 101 1
18 102 1
18 116 1
18 125 1
18 189 1
18 207 1
18 208 1
18 655 1
18 656 1
18 657 1
18 853 1
18 858 1
18 907 1
18 908 1
19 3 1
19 4 1
19 20 1
19 43 1
19 44 1
19 45 1
19 46 1
19 47 1
19 48 1
19 55 1
19 56 1
19 99 1
19 100 1
19 125 1
19 126 1
19 169 1
19 170 1
19 201 1
19 202 1
19 239 1
19 240 1
19 497 1
19 498 1
19 501 1
19 502 1
19 505 1
19 506 1
19 659 1
19 660 1
19 709 1
19 710 1
19 779 1
19 780 1
19 781 1
19 782 1
20 3 1
20 4 1
20 19 1
20 43 1
20 44 1
20 45 1
20 46 1
20 47 1
20 48 1
20 55 1
20 56 1
20 99 1
20 100 1
20 125 1
20 126 1
20 142 1
20 169 1
20 170 1
20 201 1
20 202 1
20 239 1
20 240 1
20 251 1
20 497 1
20 498 1
20 501 1
20 502 1
20 505 1
20 506 1
20 659 1
20 660 1
20 709 1
20 710 1
20 779 1
20 780 1
20 781 1
20 782 1
21 22 1
21 489 1
21 490 1
21 491 1
21 492 1
21 493 1
21 494 1
21 889 1
21 890 1
21 891 1
21 892 1
22 21 1
22 489 1
22 490 1
22 491 1
22 492 1
22 493 1
22 494 1
22 889 1
22 890 1
22 891 1
22 892 1
23 24 1
23 51 1
23 52 1
23 491 1
23 492 1
23 493 1
23 494 1
23 867 1
23 868 1
24 23 1
24 51 1
24 52 1
24 491 1
24 492 1
24 493 1
24 494 1
24 867 1
24 868 1
25 26 1
25 93 1
25 97 1
25 98 1
25 905 1
26 25 1
26 94 1
26 97 1
26 98 1
26 906 1
27 28 1
27 837 1
27 838 1
28 27 1
28 441 1
28 837 1
28 838 1
29 30 1
29 31 1
29 32 1
29 33 1
29 34 1
29 35 1
29 36 1
29 37 1
29 38 1
29 203 1
29 204 1
29 253 1
29 254 1
29 257 1
29 258 1
30 29 1
30 31 1
30 32 1
30 33 1
30 34 1
30 35 1
30 36 1
30 37 1
30 38 1
30 203 1
30 204 1
30 253 1
30 254 1
30 257 1
30 258 1
31 29 1
31 30 1
31 32 1
31 37 1
31 38 1
32 29 1
32 30 1
32 31 1
32 37 1
32 38 1
33 29 1
33 30 1
33 34 1
33 35 1
33 36 1
33 37 1
33 38 1
33 39 1
33 40 1
33 41 1
33 42 1
33 203 1
33 204 1
33 253 1
33 254 1
33 257 1
33 258 1
33 503 1
33 504 1
33 511 1
33 512 1
33 909 1
33 910 1
34 29 1
34 30 1
34 33 1
34 35 1
34 36 1
34 37 1
34 38 1
34 39 1
34 40 1
34 41 1
34 42 1
34 203 1
34 204 1
34 253 1
34 254 1
34 257 1
34 258 1
34 503 1
34 504 1
34 511 1
34 512 1
34 909 1
34 910 1
35 29 1
35 30 1
35 33 1
35 34 1
35 36 1
35 37 1
35 38 1
35 39 1
35 40 1
35 41 1
35 42 1
35 203 1
35 204 1
35 253 1
35 254 1
35 257 1
35 258 1
35 503 1
35 504 1
35 511 1
35 512 1
35 909 1
35 910 1
36 29 1
36 30 1
36 33 1
36 34 1
36 35 1
36 37 1
36 38 1
36 39 1
36 40 1
36 41 1
36 42 1
36 203 1
36 204 1
36 253 1
36 254 1
36 257 1
36 258 1
36 503 1
36 504 1
36 511 1
36 512 1
36 909 1
36 910 1
37 29 1
37 30 1
37 31 1
37 32 1
37 33 1
37 34 1
37 35 1
37 36 1
37 38 1
37 203 1
37 204 1
37 253 1
37 254 1
37 257 1
37 258 1
38 29 1
38 30 1
38 31 1
38 32 1
38 33 1
38 34 1
38 35 1
38 36 1
38 37 1
38 203 1
38 204 1
38 253 1
38 254 1
38 257 1
38 258 1
39 33 1
39 34 1
39 35 1
39 36 1
39 40 1
39 41 1
39 42 1
39 43 1
39 44 1
39 45 1
39 46 1
39 503 1
39 504 1
39 511 1
39 512 1
39 647 1
39 648 1
39 909 1
39 910 1
40 33 1
40 34 1
40 35 1
40 36 1
40 39 1
40 41 1
40 42 1
40 43 1
40 44 1
40 45 1
40 46 1
40 503 1
40 504 1
40 511 1
40 512 1
40 647 1
40 648 1
40 909 1
40 910 1
41 33 1
41 34 1
41 35 1
41 36 1
41 39 1
41 40 1
41 42 1
41 43 1
41 44 1
41 45 1
41 46 1
41 148 1
41 150 1
41 503 1
41 504 1
41 511 1
41 512 1
41 647 1
41 648 1
41 909 1
41 910 1
42 33 1
42 34 1
42 35 1
42 36 1
42 39 1
42 40 1
42 41 1
42 43 1
42 44 1
42 45 1
42 46 1
42 503 1
42 504 1
42 511 1
42 512 1
42 647 1
42 648 1
42 909 1
42 910 1
43 19 1
43 20 1
43 39 1
43 40 1
43 41 1
43 42 1
43 44 1
43 45 1
43 46 1
43 47 1
43 48 1
43 112 1
43 132 1
43 133 1
43 169 1
43 170 1
43 239 1
43 240 1
43 647 1
43 648 1
43 673 1
43 675 1
43 709 1
43 710 1
43 779 1
43 780 1
43 781 1
43 782 1
44 19 1
44 20 1
44 39 1
44 40 1
44 41 1
44 42 1
44 43 1
44 45 1
44 46 1
44 47 1
44 48 1
44 112 1
44 131 1
44 134 1
44 148 1
44 150 1
44 169 1
44 170 1
44 239 1
44 240 1
44 647 1
44 648 1
44 674 1
44 676 1
44 709 1
44 710 1
44 779 1
44 780 1
44 781 1
44 782 1
45 19 1
45 20 1
45 39 1
45 40 1
45 41 1
45 42 1
45 43 1
45 44 1
45 46 1
45 47 1
45 48 1
45 111 1
45 112 1
45 132 1
45 133 1
45 147 1
45 149 1
45 169 1
45 170 1
45 239 1
45 240 1
45 647 1
45 648 1
45 673 1
45 675 1
45 709 1
45 710 1
45 779 1
45 780 1
45 781 1
45 782 1
46 19 1
46 20 1
46 39 1
46 40 1
46 41 1
46 42 1
46 43 1
46 44 1
46 45 1
46 47 1
46 48 1
46 131 1
46 134 1
46 169 1
46 170 1
46 239 1
46 240 1
46 647 1
46 648 1
46 674 1
46 676 1
46 709 1
46 710 1
46 779 1
46 780 1
46 781 1
46 782 1
47 3 1
47 4 1
47 19 1
47 20 1
47 43 1
47 44 1
47 45 1
47 46 1
47 48 1
47 89 1
47 90 1
47 142 1
47 169 1
47 170 1
47 239 1
47 240 1
47 251 1
47 655 1
47 656 1
47 657 1
47 658 1
47 709 1
47 710 1
47 777 1
47 778 1
47 779 1
47 780 1
47 781 1
47 782 1
48 3 1
48 4 1
48 19 1
48 20 1
48 43 1
48 44 1
48 45 1
48 46 1
48 47 1
48 89 1
48 90 1
48 116 1
48 169 1
48 170 1
48 189 1
48 239 1
48 240 1
48 655 1
48 656 1
48 657 1
48 658 1
48 709 1
48 710 1
48 777 1
48 778 1
48 779 1
48 780 1
48 781 1
48 782 1
48 853 1
49 50 1
49 51 1
49 52 1
49 53 1
49 54 1
49 105 1
49 106 1
49 867 1
49 868 1
50 49 1
50 51 1
50 52 1
50 53 1
50 54 1
50 105 1
50 106 1
50 867 1
50 868 1
51 23 1
51 24 1
51 49 1
51 50 1
51 52 1
51 53 1
51 54 1
51 867 1
51 868 1
51 881 1
51 882 1
51 893 1
51 894 1
52 23 1
52 24 1
52 49 1
52 50 1
52 51 1
52 53 1
52 54 1
52 867 1
52 868 1
52 881 1
52 882 1
52 893 1
52 894 1
53 49 1
53 50 1
53 51 1
53 52 1
53 54 1
53 79 1
53 80 1
53 881 1
53 882 1
54 49 1
54 50 1
54 51 1
54 52 1
54 53 1
54 881 1
54 882 1
55 3 1
55 4 1
55 19 1
55 20 1
55 56 1
55 99 1
55 100 1
55 125 1
55 126 1
55 201 1
55 202 1
55 497 1
55 498 1
55 501 1
55 502 1
55 505 1
55 506 1
55 655 1
55 659 1
55 660 1
55 907 1
55 908 1
56 3 1
56 4 1
56 19 1
56 20 1
56 55 1
56 99 1
56 100 1
56 125 1
56 126 1
56 201 1
56 202 1
56 207 1
56 208 1
56 497 1
56 498 1
56 501 1
56 502 1
56 505 1
56 506 1
56 656 1
56 659 1
56 660 1
56 853 1
56 907 1
56 908 1
57 11 1
57 12 1
57 58 1
57 59 1
57 60 1
57 61 1
57 62 1
58 11 1
58 12 1
58 57 1
58 59 1
58 60 1
58 61 1
58 62 1
59 11 1
59 12 1
59 57 1
59 58 1
59 60 1
59 61 1
59 62 1
60 11 1
60 12 1
60 57 1
60 58 1
60 59 1
60 61 1
60 62 1
61 11 1
61 12 1
61 57 1
61 58 1
61 59 1
61 60 1
61 62 1
62 11 1
62 12 1
62 57 1
62 58 1
62 59 1
62 60 1
62 61 1
63 17 1
63 64 1
63 65 1
63 66 1
63 102 1
63 121 1
63 122 1
63 126 1
63 142 1
63 190 1
63 207 1
63 251 1
63 658 1
63 851 1
63 852 1
64 18 1
64 63 1
64 65 1
64 66 1
64 101 1
64 114 1
64 121 1
64 122 1
64 125 1
64 142 1
64 189 1
64 190 1
64 207 1
64 251 1
64 655 1
64 657 1
64 851 1
64 852 1
65 63 1
65 64 1
65 66 1
65 102 1
65 121 1
65 122 1
65 142 1
65 190 1
65 207 1
65 251 1
65 656 1
65 658 1
65 778 1
65 851 1
65 852 1
65 856 1
66 18 1
66 63 1
66 64 1
66 65 1
66 101 1
66 114 1
66 121 1
66 122 1
66 125 1
66 189 1
66 190 1
66 655 1
66 657 1
66 851 1
66 852 1
67 68 1
67 69 1
67 70 1
67 651 1
67 652 1
67 835 1
67 836 1
67 879 1
67 880 1
68 67 1
68 69 1
68 70 1
68 651 1
68 652 1
68 835 1
68 836 1
68 879 1
68 880 1
69 67 1
69 68 1
69 70 1
69 651 1
69 652 1
69 835 1
69 836 1
69 879 1
69 880 1
70 67 1
70 68 1
70 69 1
70 651 1
70 652 1
70 835 1
70 836 1
70 879 1
70 880 1
71 72 1
71 393 1
71 394 1
71 739 1
71 740 1
72 71 1
72 393 1
72 394 1
72 739 1
72 740 1
73 74 1
73 75 1
73 76 1
74 73 1
74 75 1
74 76 1
74 131 1
74 134 1
75 73 1
75 74 1
75 76 1
75 77 1
75 78 1
75 257 1
75 258 1
75 521 1
75 522 1
75 831 1
75 832 1
76 73 1
76 74 1
76 75 1
76 77 1
76 78 1
76 148 1
76 150 1
76 257 1
76 258 1
76 521 1
76 522 1
76 831 1
76 832 1
77 75 1
77 76 1
77 78 1
77 257 1
77 258 1
77 521 1
77 522 1
77 831 1
77 832 1
78 75 1
78 76 1
78 77 1
78 257 1
78 258 1
78 316 1
78 521 1
78 522 1
78 831 1
78 832 1
79 53 1
79 80 1
79 81 1
79 82 1
80 53 1
80 79 1
80 81 1
80 82 1
80 651 1
80 790 1
80 880 1
81 79 1
81 80 1
81 82 1
81 289 1
82 79 1
82 80 1
82 81 1
82 290 1
83 84 1
83 85 1
83 86 1
83 613 1
83 614 1
83 747 1
83 748 1
83 765 1
83 766 1
84 83 1
84 85 1
84 86 1
84 613 1
84 614 1
84 747 1
84 748 1
84 765 1
84 766 1
84 785 1
85 83 1
85 84 1
85 86 1
85 613 1
85 614 1
85 747 1
85 748 1
85 765 1
85 766 1
86 83 1
86 84 1
86 85 1
86 613 1
86 614 1
86 747 1
86 748 1
86 765 1
86 766 1
86 785 1
87 88 1
87 467 1
87 468 1
87 469 1
87 470 1
87 485 1
87 486 1
87 677 1
87 678 1
87 865 1
87 866 1
88 87 1
88 467 1
88 468 1
88 469 1
88 470 1
88 485 1
88 486 1
88 677 1
88 678 1
88 865 1
88 866 1
89 3 1
89 4 1
89 47 1
89 48 1
89 90 1
89 141 1
89 142 1
89 251 1
89 252 1
89 655 1
89 656 1
89 657 1
89 658 1
89 777 1
89 778 1
90 3 1
90 4 1
90 47 1
90 48 1
90 89 1
90 532 1
90 655 1
90 656 1
90 657 1
90 658 1
90 777 1
90 778 1
91 92 1
91 93 1
91 94 1
91 95 1
91 96 1
91 97 1
91 98 1
91 107 1
91 108 1
91 465 1
91 905 1
91 906 1
92 91 1
92 93 1
92 94 1
92 95 1
92 96 1
92 97 1
92 98 1
92 107 1
92 108 1
92 905 1
92 906 1
93 25 1
93 91 1
93 92 1
93 94 1
93 95 1
93 96 1
93 97 1
93 98 1
93 107 1
93 108 1
93 859 1
94 26 1
94 91 1
94 92 1
94 93 1
94 95 1
94 96 1
94 97 1
94 98 1
94 107 1
94 108 1
95 91 1
95 92 1
95 93 1
95 94 1
95 96 1
95 97 1
95 98 1
95 107 1
95 108 1
95 905 1
95 906 1
96 91 1
96 92 1
96 93 1
96 94 1
96 95 1
96 97 1
96 98 1
96 107 1
96 108 1
96 905 1
96 906 1
97 25 1
97 26 1
97 91 1
97 92 1
97 93 1
97 94 1
97 95 1
97 96 1
97 98 1
97 107 1
97 108 1
97 466 1
97 905 1
97 906 1
98 25 1
98 26 1
98 91 1
98 92 1
98 93 1
98 94 1
98 95 1
98 96 1
98 97 1
98 107 1
98 108 1
98 465 1
98 905 1
98 906 1
99 3 1
99 4 1
99 17 1
99 18 1
99 19 1
99 20 1
99 55 1
99 56 1
99 100 1
99 101 1
99 102 1
99 125 1
99 126 1
99 201 1
99 202 1
99 207 1
99 208 1
99 497 1
99 498 1
99 501 1
99 502 1
99 505 1
99 506 1
99 655 1
99 656 1
99 659 1
99 660 1
99 778 1
99 907 1
99 908 1
100 3 1
100 4 1
100 17 1
100 18 1
100 19 1
100 20 1
100 55 1
100 56 1
100 99 1
100 101 1
100 102 1
100 125 1
100 126 1
100 141 1
100 190 1
100 201 1
100 202 1
100 207 1
100 208 1
100 252 1
100 497 1
100 498 1
100 501 1
100 502 1
100 505 1
100 506 1
100 655 1
100 656 1
100 659 1
100 660 1
100 907 1
100 908 1
101 3 1
101 4 1
101 17 1
101 18 1
101 64 1
101 66 1
101 99 1
101 100 1
101 102 1
101 116 1
101 125 1
101 189 1
101 207 1
101 208 1
101 655 1
101 656 1
101 657 1
101 853 1
101 858 1
101 907 1
101 908 1
102 17 1
102 18 1
102 63 1
102 65 1
102 99 1
102 100 1
102 101 1
102 126 1
102 142 1
102 190 1
102 207 1
102 208 1
102 251 1
102 655 1
102 656 1
102 658 1
102 907 1
102 908 1
103 104 1
103 105 1
103 106 1
103 495 1
103 496 1
103 651 1
103 652 1
104 103 1
104 105 1
104 106 1
104 495 1
104 496 1
104 651 1
104 652 1
105 49 1
105 50 1
105 103 1
105 104 1
105 106 1
105 867 1
105 868 1
106 49 1
106 50 1
106 103 1
106 104 1
106 105 1
106 867 1
106 868 1
107 91 1
107 92 1
107 93 1
107 94 1
107 95 1
107 96 1
107 97 1
107 98 1
107 108 1
107 905 1
107 906 1
108 91 1
108 92 1
108 93 1
108 94 1
108 95 1
108 96 1
108 97 1
108 98 1
108 107 1
108 467 1
108 859 1
108 905 1
108 906 1
109 5 1
109 6 1
109 110 1
109 121 1
109 122 1
109 123 1
109 124 1
109 142 1
109 251 1
110 5 1
110 6 1
110 109 1
110 121 1
110 122 1
110 123 1
110 124 1
110 142 1
110 251 1
111 45 1
111 112 1
111 169 1
111 170 1
111 239 1
111 240 1
111 484 1
111 508 1
111 509 1
111 510 1
111 709 1
111 710 1
111 779 1
111 780 1
111 781 1
111 782 1
112 43 1
112 44 1
112 45 1
112 111 1
112 169 1
112 170 1
112 240 1
112 509 1
112 510 1
112 532 1
112 710 1
112 779 1
112 780 1
112 781 1
112 782 1
113 114 1
113 189 1
113 190 1
113 208 1
113 655 1
113 657 1
113 658 1
113 778 1
114 64 1
114 66 1
114 113 1
114 142 1
114 189 1
114 190 1
114 207 1
114 251 1
114 656 1
114 657 1
114 778 1
115 116 1
115 189 1
115 190 1
115 207 1
115 852 1
116 18 1
116 48 1
116 101 1
116 115 1
116 189 1
116 190 1
116 208 1
116 498 1
116 501 1
116 506 1
116 657 1
116 778 1
117 118 1
117 119 1
117 120 1
117 151 1
117 179 1
117 180 1
117 183 1
117 184 1
117 217 1
117 218 1
117 401 1
117 402 1
117 405 1
117 439 1
117 450 1
117 563 1
117 564 1
117 619 1
117 620 1
117 667 1
117 668 1
117 741 1
117 825 1
117 826 1
117 827 1
117 828 1
117 829 1
117 830 1
117 911 1
117 912 1
118 117 1
118 119 1
118 120 1
118 128 1
118 152 1
118 179 1
118 180 1
118 181 1
118 182 1
118 183 1
118 184 1
118 218 1
118 401 1
118 402 1
118 440 1
118 449 1
118 563 1
118 564 1
118 619 1
118 620 1
118 667 1
118 668 1
118 825 1
118 826 1
118 827 1
118 828 1
118 829 1
118 830 1
118 911 1
118 912 1
119 117 1
119 118 1
119 120 1
119 151 1
119 152 1
119 153 1
119 154 1
119 179 1
119 180 1
119 183 1
119 184 1
119 209 1
119 211 1
119 217 1
119 218 1
119 401 1
119 402 1
119 450 1
119 563 1
119 564 1
119 619 1
119 620 1
119 667 1
119 668 1
119 825 1
119 826 1
119 828 1
119 829 1
119 830 1
120 117 1
120 118 1
120 119 1
120 151 1
120 152 1
120 153 1
120 154 1
120 183 1
120 184 1
120 217 1
120 218 1
120 401 1
120 402 1
120 440 1
120 449 1
120 563 1
120 564 1
120 619 1
120 620 1
120 667 1
120 668 1
120 769 1
120 770 1
120 825 1
120 826 1
120 827 1
120 829 1
120 830 1
120 911 1
121 63 1
121 64 1
121 65 1
121 66 1
121 109 1
121 110 1
121 122 1
121 123 1
121 124 1
121 142 1
121 251 1
121 851 1
121 852 1
122 63 1
122 64 1
122 65 1
122 66 1
122 109 1
122 110 1
122 121 1
122 123 1
122 124 1
122 141 1
122 142 1
122 251 1
122 252 1
122 851 1
122 852 1
123 5 1
123 109 1
123 110 1
123 121 1
123 122 1
123 124 1
123 141 1
123 142 1
123 251 1
123 252 1
124 5 1
124 6 1
124 109 1
124 110 1
124 121 1
124 122 1
124 123 1
124 137 1
124 139 1
124 141 1
124 142 1
124 251 1
124 252 1
125 3 1
125 4 1
125 18 1
125 19 1
125 20 1
125 55 1
125 56 1
125 64 1
125 66 1
125 99 1
125 100 1
125 101 1
125 126 1
125 201 1
125 202 1
125 207 1
125 208 1
125 497 1
125 498 1
125 501 1
125 502 1
125 505 1
125 506 1
125 656 1
125 657 1
125 659 1
125 660 1
125 778 1
125 853 1
125 855 1
126 3 1
126 4 1
126 17 1
126 19 1
126 20 1
126 55 1
126 56 1
126 63 1
126 99 1
126 100 1
126 102 1
126 125 1
126 190 1
126 201 1
126 202 1
126 207 1
126 497 1
126 498 1
126 501 1
126 502 1
126 505 1
126 506 1
126 655 1
126 658 1
126 659 1
126 660 1
126 778 1
126 854 1
126 908 1
127 128 1
127 129 1
127 130 1
127 153 1
127 180 1
127 184 1
127 205 1
127 206 1
127 213 1
127 299 1
127 301 1
127 615 1
127 616 1
127 618 1
127 620 1
127 829 1
128 118 1
128 127 1
128 129 1
128 130 1
128 153 1
128 183 1
128 205 1
128 206 1
128 213 1
128 214 1
128 449 1
128 615 1
128 616 1
128 828 1
128 911 1
129 127 1
129 128 1
129 130 1
129 153 1
129 206 1
129 214 1
129 615 1
130 127 1
130 128 1
130 129 1
130 154 1
130 179 1
130 180 1
130 184 1
130 205 1
130 213 1
130 616 1
130 618 1
130 667 1
130 827 1
130 912 1
131 44 1
131 46 1
131 74 1
131 132 1
131 133 1
131 134 1
131 239 1
131 245 1
131 246 1
131 513 1
131 673 1
131 674 1
131 675 1
131 676 1
131 709 1
132 43 1
132 45 1
132 131 1
132 133 1
132 134 1
132 169 1
132 240 1
132 245 1
132 246 1
132 673 1
132 674 1
132 675 1
132 676 1
132 710 1
132 780 1
132 782 1
133 43 1
133 45 1
133 131 1
133 132 1
133 134 1
133 169 1
133 240 1
133 245 1
133 246 1
133 673 1
133 674 1
133 675 1
133 676 1
133 710 1
133 780 1
133 782 1
134 44 1
134 46 1
134 74 1
134 131 1
134 132 1
134 133 1
134 239 1
134 245 1
134 246 1
134 513 1
134 673 1
134 674 1
134 675 1
134 676 1
134 709 1
135 136 1
135 137 1
135 138 1
135 139 1
135 140 1
135 167 1
135 168 1
135 437 1
135 438 1
135 446 1
135 447 1
135 448 1
136 135 1
136 137 1
136 138 1
136 139 1
136 140 1
136 167 1
136 168 1
136 437 1
136 438 1
136 446 1
136 447 1
137 124 1
137 135 1
137 136 1
137 138 1
137 139 1
137 140 1
137 141 1
137 142 1
137 167 1
137 168 1
137 251 1
137 252 1
137 437 1
137 438 1
138 135 1
138 136 1
138 137 1
138 139 1
138 140 1
138 141 1
138 142 1
138 167 1
138 168 1
138 251 1
138 252 1
138 437 1
138 438 1
139 124 1
139 135 1
139 136 1
139 137 1
139 138 1
139 140 1
139 141 1
139 142 1
139 167 1
139 168 1
139 251 1
139 252 1
139 437 1
139 438 1
140 135 1
140 136 1
140 137 1
140 138 1
140 139 1
140 141 1
140 142 1
140 167 1
140 168 1
140 251 1
140 252 1
140 437 1
140 438 1
141 4 1
141 89 1
141 100 1
141 122 1
141 123 1
141 124 1
141 137 1
141 138 1
141 139 1
141 140 1
141 142 1
141 202 1
141 251 1
141 252 1
141 445 1
141 531 1
141 532 1
141 656 1
141 777 1
141 778 1
142 6 1
142 17 1
142 20 1
142 47 1
142 63 1
142 64 1
142 65 1
142 89 1
142 102 1
142 109 1
142 110 1
142 114 1
142 121 1
142 122 1
142 123 1
142 124 1
142 137 1
142 138 1
142 139 1
142 140 1
142 141 1
142 201 1
142 207 1
142 208 1
142 251 1
142 252 1
142 445 1
142 498 1
142 532 1
142 657 1
142 658 1
142 710 1
142 778 1
142 780 1
142 782 1
142 852 1
142 853 1
142 855 1
142 856 1
143 144 1
143 145 1
143 146 1
143 273 1
143 274 1
143 275 1
143 276 1
143 277 1
143 278 1
143 281 1
143 282 1
143 283 1
143 284 1
143 341 1
143 342 1
143 343 1
143 344 1
143 713 1
143 714 1
143 717 1
143 718 1
143 719 1
143 720 1
143 721 1
143 722 1
143 723 1
143 724 1
143 788 1
144 143 1
144 145 1
144 146 1
144 273 1
144 274 1
144 275 1
144 276 1
144 277 1
144 278 1
144 281 1
144 282 1
144 283 1
144 284 1
144 341 1
144 342 1
144 343 1
144 344 1
144 713 1
144 714 1
144 717 1
144 718 1
144 719 1
144 720 1
144 721 1
144 722 1
144 723 1
144 724 1
145 143 1
145 144 1
145 146 1
145 273 1
145 274 1
145 275 1
145 276 1
145 277 1
145 278 1
145 281 1
145 282 1
145 283 1
145 284 1
145 341 1
145 342 1
145 343 1
145 344 1
145 713 1
145 714 1
145 717 1
145 718 1
145 719 1
145 720 1
145 721 1
145 722 1
145 723 1
145 724 1
145 788 1
146 143 1
146 144 1
146 145 1
146 273 1
146 274 1
146 275 1
146 276 1
146 277 1
146 278 1
146 281 1
146 282 1
146 283 1
146 284 1
146 341 1
146 342 1
146 343 1
146 344 1
146 713 1
146 714 1
146 717 1
146 718 1
146 719 1
146 720 1
146 721 1
146 722 1
146 723 1
146 724 1
147 45 1
147 148 1
147 149 1
147 150 1
147 241 1
147 242 1
147 243 1
147 244 1
147 245 1
147 246 1
147 247 1
147 248 1
147 249 1
147 250 1
147 710 1
147 779 1
147 781 1
148 41 1
148 44 1
148 76 1
148 147 1
148 149 1
148 150 1
148 241 1
148 242 1
148 243 1
148 244 1
148 245 1
148 246 1
148 247 1
148 248 1
148 249 1
148 250 1
148 513 1
148 780 1
148 782 1
149 45 1
149 147 1
149 148 1
149 150 1
149 241 1
149 242 1
149 243 1
149 244 1
149 245 1
149 246 1
149 247 1
149 248 1
149 249 1
149 250 1
149 710 1
149 779 1
149 781 1
150 41 1
150 44 1
150 76 1
150 147 1
150 148 1
150 149 1
150 241 1
150 242 1
150 243 1
150 244 1
150 245 1
150 246 1
150 247 1
150 248 1
150 249 1
150 250 1
150 513 1
150 780 1
150 782 1
151 117 1
151 119 1
151 120 1
151 152 1
151 153 1
151 154 1
151 179 1
151 180 1
151 181 1
151 183 1
151 184 1
151 209 1
151 210 1
151 211 1
151 212 1
151 217 1
151 218 1
151 295 1
151 296 1
151 300 1
151 302 1
151 401 1
151 439 1
151 450 1
151 563 1
151 619 1
151 620 1
151 641 1
151 642 1
151 643 1
151 644 1
151 667 1
151 715 1
151 716 1
151 825 1
151 827 1
151 828 1
151 911 1
151 912 1
152 118 1
152 119 1
152 120 1
152 151 1
152 153 1
152 154 1
152 179 1
152 180 1
152 181 1
152 183 1
152 184 1
152 209 1
152 210 1
152 211 1
152 212 1
152 217 1
152 218 1
152 295 1
152 296 1
152 299 1
152 301 1
152 401 1
152 402 1
152 440 1
152 449 1
152 619 1
152 620 1
152 641 1
152 642 1
152 643 1
152 644 1
152 668 1
152 715 1
152 716 1
152 770 1
152 825 1
152 826 1
152 827 1
152 828 1
152 830 1
152 911 1
152 912 1
153 119 1
153 120 1
153 127 1
153 128 1
153 129 1
153 151 1
153 152 1
153 154 1
153 179 1
153 180 1
153 183 1
153 184 1
153 206 1
153 209 1
153 210 1
153 211 1
153 212 1
153 217 1
153 218 1
153 311 1
153 312 1
153 313 1
153 314 1
153 401 1
153 563 1
153 575 1
153 576 1
153 619 1
153 620 1
153 641 1
153 642 1
153 643 1
153 644 1
153 667 1
153 668 1
153 770 1
153 825 1
153 829 1
154 119 1
154 120 1
154 130 1
154 151 1
154 152 1
154 153 1
154 180 1
154 181 1
154 183 1
154 184 1
154 205 1
154 209 1
154 210 1
154 211 1
154 212 1
154 213 1
154 214 1
154 217 1
154 218 1
154 311 1
154 312 1
154 313 1
154 314 1
154 402 1
154 564 1
154 575 1
154 576 1
154 615 1
154 619 1
154 641 1
154 642 1
154 643 1
154 644 1
154 667 1
154 668 1
154 769 1
154 826 1
154 830 1
155 156 1
155 157 1
155 158 1
155 339 1
155 340 1
155 341 1
155 342 1
155 343 1
155 344 1
155 345 1
155 346 1
155 347 1
155 348 1
155 725 1
155 726 1
155 727 1
155 728 1
156 155 1
156 157 1
156 158 1
156 339 1
156 340 1
156 341 1
156 342 1
156 343 1
156 344 1
156 345 1
156 346 1
156 347 1
156 348 1
156 725 1
156 726 1
156 727 1
156 728 1
157 155 1
157 156 1
157 158 1
157 339 1
157 340 1
157 341 1
157 342 1
157 343 1
157 344 1
157 345 1
157 346 1
157 347 1
157 348 1
157 725 1
157 726 1
157 727 1
157 728 1
158 155 1
158 156 1
158 157 1
158 339 1
158 340 1
158 341 1
158 342 1
158 343 1
158 344 1
158 345 1
158 346 1
158 347 1
158 348 1
158 725 1
158 726 1
158 727 1
158 728 1
159 160 1
159 161 1
159 162 1
159 779 1
159 780 1
159 781 1
159 782 1
160 159 1
160 161 1
160 162 1
160 779 1
160 780 1
160 781 1
160 782 1
161 159 1
161 160 1
161 162 1
161 779 1
161 780 1
161 781 1
161 782 1
162 159 1
162 160 1
162 161 1
162 779 1
162 780 1
162 781 1
162 782 1
163 164 1
163 165 1
163 166 1
163 331 1
163 332 1
163 333 1
163 334 1
163 353 1
163 354 1
163 479 1
163 553 1
163 554 1
164 163 1
164 165 1
164 166 1
164 331 1
164 332 1
164 333 1
164 334 1
164 353 1
164 354 1
164 553 1
164 554 1
164 752 1
165 163 1
165 164 1
165 166 1
165 331 1
165 332 1
165 333 1
165 334 1
165 353 1
165 354 1
165 479 1
165 553 1
165 554 1
166 163 1
166 164 1
166 165 1
166 331 1
166 332 1
166 333 1
166 334 1
166 353 1
166 354 1
166 553 1
166 554 1
166 752 1
167 135 1
167 136 1
167 137 1
167 138 1
167 139 1
167 140 1
167 168 1
167 437 1
167 438 1
167 446 1
167 447 1
168 135 1
168 136 1
168 137 1
168 138 1
168 139 1
168 140 1
168 167 1
168 437 1
168 438 1
168 446 1
168 448 1
169 19 1
169 20 1
169 43 1
169 44 1
169 45 1
169 46 1
169 47 1
169 48 1
169 111 1
169 112 1
169 132 1
169 133 1
169 170 1
169 239 1
169 240 1
169 709 1
169 710 1
169 779 1
169 780 1
169 781 1
169 782 1
170 19 1
170 20 1
170 43 1
170 44 1
170 45 1
170 46 1
170 47 1
170 48 1
170 111 1
170 112 1
170 169 1
170 239 1
170 240 1
170 709 1
170 710 1
170 779 1
170 780 1
170 781 1
170 782 1
171 1 1
171 2 1
171 7 1
171 8 1
171 9 1
171 10 1
171 172 1
171 199 1
171 200 1
171 871 1
171 872 1
172 1 1
172 2 1
172 7 1
172 8 1
172 9 1
172 10 1
172 171 1
172 199 1
172 200 1
172 871 1
172 872 1
173 174 1
173 429 1
173 430 1
173 670 1
174 173 1
174 429 1
174 430 1
175 176 1
175 177 1
175 178 1
175 231 1
175 427 1
175 428 1
175 432 1
175 433 1
175 434 1
176 175 1
176 177 1
176 178 1
176 232 1
176 427 1
176 428 1
176 431 1
176 433 1
176 434 1
177 175 1
177 176 1
177 178 1
177 421 1
177 422 1
177 427 1
177 428 1
177 433 1
177 434 1
178 175 1
178 176 1
178 177 1
178 421 1
178 422 1
178 427 1
178 428 1
178 433 1
178 434 1
179 117 1
179 118 1
179 119 1
179 130 1
179 151 1
179 152 1
179 153 1
179 180 1
179 183 1
179 184 1
179 209 1
179 211 1
179 217 1
179 439 1
179 440 1
179 449 1
179 450 1
179 563 1
179 615 1
179 616 1
179 757 1
179 760 1
179 769 1
179 827 1
179 828 1
179 911 1
179 912 1
180 117 1
180 118 1
180 119 1
180 127 1
180 130 1
180 151 1
180 152 1
180 153 1
180 154 1
180 179 1
180 183 1
180 184 1
180 206 1
180 209 1
180 210 1
180 211 1
180 212 1
180 214 1
180 217 1
180 218 1
180 299 1
180 300 1
180 301 1
180 302 1
180 401 1
180 402 1
180 405 1
180 439 1
180 440 1
180 449 1
180 450 1
180 615 1
180 616 1
180 619 1
180 654 1
180 769 1
180 825 1
180 826 1
180 827 1
180 828 1
180 830 1
180 911 1
180 912 1
181 118 1
181 151 1
181 152 1
181 154 1
181 182 1
181 183 1
181 184 1
181 206 1
181 209 1
181 211 1
181 214 1
181 217 1
181 300 1
181 302 1
181 311 1
181 312 1
181 313 1
181 314 1
181 369 1
181 370 1
181 377 1
181 378 1
181 402 1
181 405 1
181 406 1
181 440 1
181 449 1
181 477 1
181 478 1
181 619 1
181 653 1
181 741 1
181 742 1
181 773 1
181 774 1
181 826 1
182 118 1
182 181 1
182 183 1
182 184 1
182 311 1
182 312 1
182 313 1
182 314 1
182 369 1
182 370 1
182 376 1
182 377 1
182 378 1
182 405 1
182 406 1
182 440 1
182 449 1
182 477 1
182 478 1
182 741 1
182 742 1
182 817 1
182 818 1
183 117 1
183 118 1
183 119 1
183 120 1
183 128 1
183 151 1
183 152 1
183 153 1
183 154 1
183 179 1
183 180 1
183 181 1
183 182 1
183 184 1
183 209 1
183 210 1
183 211 1
183 212 1
183 214 1
183 217 1
183 218 1
183 296 1
183 300 1
183 302 1
183 311 1
183 312 1
183 313 1
183 314 1
183 369 1
183 370 1
183 377 1
183 378 1
183 401 1
183 402 1
183 405 1
183 406 1
183 439 1
183 440 1
183 449 1
183 450 1
183 477 1
183 478 1
183 563 1
183 564 1
183 615 1
183 619 1
183 620 1
183 642 1
183 644 1
183 653 1
183 667 1
183 668 1
183 716 1
183 741 1
183 742 1
183 825 1
183 826 1
183 828 1
183 829 1
183 830 1
183 911 1
183 912 1
184 117 1
184 118 1
184 119 1
184 120 1
184 127 1
184 130 1
184 151 1
184 152 1
184 153 1
184 154 1
184 179 1
184 180 1
184 181 1
184 182 1
184 183 1
184 209 1
184 210 1
184 211 1
184 212 1
184 214 1
184 217 1
184 218 1
184 311 1
184 313 1
184 369 1
184 370 1
184 377 1
184 378 1
184 401 1
184 402 1
184 405 1
184 406 1
184 439 1
184 440 1
184 449 1
184 450 1
184 477 1
184 478 1
184 563 1
184 615 1
184 616 1
184 620 1
184 667 1
184 668 1
184 741 1
184 742 1
184 769 1
184 817 1
184 825 1
184 826 1
184 827 1
184 828 1
184 829 1
184 911 1
184 912 1
185 186 1
185 187 1
185 188 1
186 185 1
186 187 1
186 188 1
186 229 1
186 694 1
187 185 1
187 186 1
187 188 1
188 185 1
188 186 1
188 187 1
188 229 1
188 694 1
189 18 1
189 48 1
189 64 1
189 66 1
189 101 1
189 113 1
189 114 1
189 115 1
189 116 1
189 190 1
189 208 1
189 498 1
189 501 1
189 506 1
189 655 1
189 657 1
189 778 1
189 851 1
189 853 1
189 855 1
190 17 1
190 63 1
190 64 1
190 65 1
190 66 1
190 100 1
190 102 1
190 113 1
190 114 1
190 115 1
190 116 1
190 126 1
190 189 1
190 207 1
190 656 1
190 657 1
190 658 1
190 777 1
190 778 1
190 854 1
191 192 1
191 193 1
191 194 1
191 375 1
191 376 1
191 477 1
191 478 1
191 653 1
191 654 1
192 191 1
192 193 1
192 194 1
192 303 1
192 305 1
192 375 1
192 376 1
192 477 1
192 478 1
192 653 1
192 654 1
193 191 1
193 192 1
193 194 1
193 375 1
193 376 1
193 477 1
193 478 1
193 653 1
193 654 1
194 191 1
194 192 1
194 193 1
194 303 1
194 305 1
194 375 1
194 376 1
194 477 1
194 478 1
194 653 1
194 654 1
195 196 1
195 197 1
195 198 1
195 489 1
195 490 1
195 863 1
195 864 1
196 195 1
196 197 1
196 198 1
196 489 1
196 490 1
196 863 1
196 864 1
197 195 1
197 196 1
197 198 1
197 199 1
197 200 1
197 861 1
197 862 1
198 195 1
198 196 1
198 197 1
198 199 1
198 200 1
198 861 1
198 862 1
199 1 1
199 2 1
199 171 1
199 172 1
199 197 1
199 198 1
199 200 1
199 861 1
199 862 1
199 871 1
199 872 1
200 1 1
200 2 1
200 171 1
200 172 1
200 197 1
200 198 1
200 199 1
200 861 1
200 862 1
200 871 1
200 872 1
200 899 1
201 3 1
201 4 1
201 19 1
201 20 1
201 55 1
201 56 1
201 99 1
201 100 1
201 125 1
201 126 1
201 142 1
201 202 1
201 251 1
201 497 1
201 498 1
201 501 1
201 502 1
201 505 1
201 506 1
201 655 1
201 659 1
201 660 1
201 778 1
201 908 1
202 3 1
202 4 1
202 19 1
202 20 1
202 55 1
202 56 1
202 99 1
202 100 1
202 125 1
202 126 1
202 141 1
202 201 1
202 207 1
202 208 1
202 252 1
202 497 1
202 498 1
202 501 1
202 502 1
202 505 1
202 506 1
202 659 1
202 660 1
202 853 1
202 855 1
202 908 1
203 29 1
203 30 1
203 33 1
203 34 1
203 35 1
203 36 1
203 37 1
203 38 1
203 204 1
203 253 1
203 254 1
203 257 1
203 258 1
203 499 1
204 29 1
204 30 1
204 33 1
204 34 1
204 35 1
204 36 1
204 37 1
204 38 1
204 203 1
204 253 1
204 254 1
204 257 1
204 258 1
204 500 1
204 504 1
205 127 1
205 128 1
205 130 1
205 154 1
205 206 1
205 209 1
205 210 1
205 211 1
205 212 1
205 213 1
205 214 1
205 299 1
205 300 1
205 301 1
205 302 1
205 616 1
205 618 1
205 654 1
205 667 1
206 127 1
206 128 1
206 129 1
206 153 1
206 180 1
206 181 1
206 205 1
206 209 1
206 210 1
206 211 1
206 212 1
206 213 1
206 214 1
206 299 1
206 300 1
206 301 1
206 302 1
206 615 1
206 616 1
206 667 1
207 3 1
207 4 1
207 17 1
207 18 1
207 56 1
207 63 1
207 64 1
207 65 1
207 99 1
207 100 1
207 101 1
207 102 1
207 114 1
207 115 1
207 125 1
207 126 1
207 142 1
207 190 1
207 202 1
207 208 1
207 251 1
207 655 1
207 656 1
207 658 1
207 777 1
207 778 1
207 856 1
207 907 1
207 908 1
208 3 1
208 4 1
208 17 1
208 18 1
208 56 1
208 99 1
208 100 1
208 101 1
208 102 1
208 113 1
208 116 1
208 125 1
208 142 1
208 189 1
208 202 1
208 207 1
208 251 1
208 498 1
208 501 1
208 506 1
208 655 1
208 656 1
208 778 1
208 907 1
208 908 1
209 119 1
209 151 1
209 152 1
209 153 1
209 154 1
209 179 1
209 180 1
209 181 1
209 183 1
209 184 1
209 205 1
209 206 1
209 210 1
209 211 1
209 212 1
209 213 1
209 214 1
209 217 1
209 299 1
209 300 1
209 301 1
209 302 1
209 667 1
209 827 1
209 912 1
210 151 1
210 152 1
210 153 1
210 154 1
210 180 1
210 183 1
210 184 1
210 205 1
210 206 1
210 209 1
210 211 1
210 212 1
210 213 1
210 214 1
210 218 1
210 299 1
210 300 1
210 301 1
210 302 1
210 620 1
210 667 1
211 119 1
211 151 1
211 152 1
211 153 1
211 154 1
211 179 1
211 180 1
211 181 1
211 183 1
211 184 1
211 205 1
211 206 1
211 209 1
211 210 1
211 212 1
211 213 1
211 214 1
211 217 1
211 299 1
211 300 1
211 301 1
211 302 1
211 667 1
211 827 1
211 912 1
212 151 1
212 152 1
212 153 1
212 154 1
212 180 1
212 183 1
212 184 1
212 205 1
212 206 1
212 209 1
212 210 1
212 211 1
212 213 1
212 214 1
212 218 1
212 299 1
212 300 1
212 301 1
212 302 1
212 620 1
212 667 1
213 127 1
213 128 1
213 130 1
213 154 1
213 205 1
213 206 1
213 209 1
213 210 1
213 211 1
213 212 1
213 214 1
213 299 1
213 300 1
213 301 1
213 302 1
213 616 1
213 667 1
213 668 1
214 128 1
214 129 1
214 154 1
214 180 1
214 181 1
214 183 1
214 184 1
214 205 1
214 206 1
214 209 1
214 210 1
214 211 1
214 212 1
214 213 1
214 299 1
214 300 1
214 301 1
214 302 1
214 615 1
214 667 1
215 216 1
215 263 1
215 264 1
215 325 1
215 326 1
215 327 1
215 328 1
215 355 1
215 356 1
215 359 1
215 363 1
215 366 1
215 367 1
215 533 1
215 534 1
215 763 1
216 215 1
216 263 1
216 264 1
216 325 1
216 326 1
216 327 1
216 328 1
216 355 1
216 356 1
216 359 1
216 360 1
216 363 1
216 364 1
216 366 1
216 367 1
216 368 1
216 533 1
216 534 1
216 535 1
216 764 1
217 117 1
217 119 1
217 120 1
217 151 1
217 152 1
217 153 1
217 154 1
217 179 1
217 180 1
217 181 1
217 183 1
217 184 1
217 209 1
217 211 1
217 218 1
217 295 1
217 377 1
217 378 1
217 439 1
217 563 1
217 653 1
217 654 1
217 667 1
217 668 1
217 715 1
217 769 1
217 773 1
217 774 1
217 827 1
217 911 1
217 912 1
218 117 1
218 118 1
218 119 1
218 120 1
218 151 1
218 152 1
218 153 1
218 154 1
218 180 1
218 183 1
218 184 1
218 210 1
218 212 1
218 217 1
218 377 1
218 378 1
218 564 1
218 653 1
218 654 1
218 667 1
218 770 1
219 220 1
219 811 1
219 812 1
219 813 1
219 814 1
220 219 1
220 811 1
220 812 1
220 813 1
220 814 1
221 222 1
221 223 1
221 224 1
221 487 1
221 488 1
222 221 1
222 223 1
222 224 1
222 487 1
222 488 1
223 221 1
223 222 1
223 224 1
223 227 1
223 228 1
223 873 1
223 874 1
224 221 1
224 222 1
224 223 1
224 227 1
224 228 1
224 873 1
224 874 1
225 226 1
225 227 1
225 228 1
226 225 1
226 227 1
226 228 1
227 223 1
227 224 1
227 225 1
227 226 1
227 228 1
227 873 1
227 874 1
228 223 1
228 224 1
228 225 1
228 226 1
228 227 1
228 873 1
228 874 1
229 186 1
229 188 1
229 230 1
229 693 1
229 694 1
230 229 1
230 693 1
230 694 1
231 175 1
231 232 1
231 425 1
231 426 1
231 427 1
231 431 1
231 432 1
232 176 1
232 231 1
232 425 1
232 426 1
232 428 1
232 431 1
232 432 1
233 234 1
233 235 1
233 236 1
233 349 1
233 350 1
233 561 1
233 562 1
233 577 1
233 578 1
233 591 1
233 592 1
233 621 1
233 622 1
233 801 1
233 802 1
234 233 1
234 235 1
234 236 1
234 349 1
234 350 1
234 561 1
234 562 1
234 577 1
234 578 1
234 591 1
234 592 1
234 621 1
234 622 1
234 801 1
234 802 1
235 233 1
235 234 1
235 236 1
235 351 1
235 352 1
236 233 1
236 234 1
236 235 1
236 351 1
236 352 1
237 238 1
237 285 1
237 286 1
237 303 1
237 304 1
237 305 1
237 306 1
237 309 1
237 310 1
237 349 1
237 350 1
237 517 1
237 518 1
238 237 1
238 285 1
238 286 1
238 303 1
238 304 1
238 305 1
238 306 1
238 309 1
238 310 1
238 349 1
238 350 1
238 517 1
238 518 1
239 19 1
239 20 1
239 43 1
239 44 1
239 45 1
239 46 1
239 47 1
239 48 1
239 111 1
239 131 1
239 134 1
239 169 1
239 170 1
239 240 1
239 513 1
239 674 1
239 676 1
239 709 1
239 710 1
239 779 1
239 780 1
239 781 1
239 782 1
240 19 1
240 20 1
240 43 1
240 44 1
240 45 1
240 46 1
240 47 1
240 48 1
240 111 1
240 112 1
240 132 1
240 133 1
240 169 1
240 170 1
240 239 1
240 709 1
240 710 1
240 779 1
240 780 1
240 781 1
240 782 1
241 147 1
241 148 1
241 149 1
241 150 1
241 242 1
241 243 1
241 244 1
241 245 1
241 246 1
241 247 1
241 248 1
241 249 1
241 250 1
241 780 1
241 782 1
242 147 1
242 148 1
242 149 1
242 150 1
242 241 1
242 243 1
242 244 1
242 245 1
242 246 1
242 247 1
242 248 1
242 249 1
242 250 1
242 779 1
242 781 1
243 147 1
243 148 1
243 149 1
243 150 1
243 241 1
243 242 1
243 244 1
243 245 1
243 246 1
243 247 1
243 248 1
243 249 1
243 250 1
243 780 1
243 782 1
244 147 1
244 148 1
244 149 1
244 150 1
244 241 1
244 242 1
244 243 1
244 245 1
244 246 1
244 247 1
244 248 1
244 249 1
244 250 1
244 779 1
244 781 1
245 131 1
245 132 1
245 133 1
245 134 1
245 147 1
245 148 1
245 149 1
245 150 1
245 241 1
245 242 1
245 243 1
245 244 1
245 246 1
245 247 1
245 248 1
245 249 1
245 250 1
245 673 1
245 674 1
245 675 1
245 676 1
245 780 1
245 782 1
246 131 1
246 132 1
246 133 1
246 134 1
246 147 1
246 148 1
246 149 1
246 150 1
246 241 1
246 242 1
246 243 1
246 244 1
246 245 1
246 247 1
246 248 1
246 249 1
246 250 1
246 673 1
246 674 1
246 675 1
246 676 1
246 779 1
246 781 1
247 147 1
247 148 1
247 149 1
247 150 1
247 241 1
247 242 1
247 243 1
247 244 1
247 245 1
247 246 1
247 248 1
247 249 1
247 250 1
248 147 1
248 148 1
248 149 1
248 150 1
248 241 1
248 242 1
248 243 1
248 244 1
248 245 1
248 246 1
248 247 1
248 249 1
248 250 1
248 780 1
248 782 1
249 147 1
249 148 1
249 149 1
249 150 1
249 241 1
249 242 1
249 243 1
249 244 1
249 245 1
249 246 1
249 247 1
249 248 1
249 250 1
250 147 1
250 148 1
250 149 1
250 150 1
250 241 1
250 242 1
250 243 1
250 244 1
250 245 1
250 246 1
250 247 1
250 248 1
250 249 1
250 780 1
250 782 1
251 6 1
251 17 1
251 20 1
251 47 1
251 63 1
251 64 1
251 65 1
251 89 1
251 102 1
251 109 1
251 110 1
251 114 1
251 121 1
251 122 1
251 123 1
251 124 1
251 137 1
251 138 1
251 139 1
251 140 1
251 141 1
251 142 1
251 201 1
251 207 1
251 208 1
251 252 1
251 445 1
251 498 1
251 532 1
251 657 1
251 658 1
251 710 1
251 778 1
251 780 1
251 782 1
251 852 1
251 853 1
251 855 1
251 856 1
252 4 1
252 89 1
252 100 1
252 122 1
252 123 1
252 124 1
252 137 1
252 138 1
252 139 1
252 140 1
252 141 1
252 142 1
252 202 1
252 251 1
252 445 1
252 531 1
252 532 1
252 656 1
252 777 1
252 778 1
253 29 1
253 30 1
253 33 1
253 34 1
253 35 1
253 36 1
253 37 1
253 38 1
253 203 1
253 204 1
253 254 1
253 257 1
253 258 1
253 499 1
254 29 1
254 30 1
254 33 1
254 34 1
254 35 1
254 36 1
254 37 1
254 38 1
254 203 1
254 204 1
254 253 1
254 257 1
254 258 1
254 910 1
255 256 1
255 337 1
255 338 1
256 255 1
256 337 1
256 338 1
256 391 1
256 392 1
257 29 1
257 30 1
257 33 1
257 34 1
257 35 1
257 36 1
257 37 1
257 38 1
257 75 1
257 76 1
257 77 1
257 78 1
257 203 1
257 204 1
257 253 1
257 254 1
257 258 1
257 500 1
257 503 1
257 504 1
257 521 1
257 522 1
257 831 1
257 832 1
257 910 1
258 29 1
258 30 1
258 33 1
258 34 1
258 35 1
258 36 1
258 37 1
258 38 1
258 75 1
258 76 1
258 77 1
258 78 1
258 203 1
258 204 1
258 253 1
258 254 1
258 257 1
258 500 1
258 504 1
258 512 1
258 521 1
258 522 1
258 831 1
258 832 1
258 910 1
259 260 1
259 335 1
259 336 1
259 740 1
260 259 1
260 335 1
260 336 1
260 739 1
260 740 1
261 262 1
261 435 1
261 436 1
262 261 1
262 435 1
262 436 1
262 604 1
263 215 1
263 216 1
263 264 1
263 325 1
263 326 1
263 327 1
263 328 1
263 360 1
263 366 1
263 534 1
263 743 1
263 744 1
263 763 1
263 764 1
264 215 1
264 216 1
264 263 1
264 325 1
264 326 1
264 327 1
264 328 1
264 359 1
264 534 1
264 743 1
264 744 1
264 763 1
264 764 1
265 266 1
265 267 1
265 268 1
265 559 1
265 560 1
265 603 1
265 604 1
265 645 1
265 646 1
266 265 1
266 267 1
266 268 1
266 559 1
266 560 1
266 586 1
266 603 1
266 604 1
266 645 1
266 646 1
267 265 1
267 266 1
267 268 1
267 559 1
267 560 1
267 603 1
267 604 1
267 645 1
267 646 1
268 265 1
268 266 1
268 267 1
268 559 1
268 560 1
268 586 1
268 603 1
268 604 1
268 645 1
268 646 1
269 270 1
269 271 1
269 272 1
269 273 1
269 274 1
269 275 1
269 276 1
269 277 1
269 278 1
269 291 1
269 292 1
269 555 1
269 556 1
269 583 1
269 584 1
269 608 1
269 629 1
269 630 1
269 713 1
269 714 1
269 717 1
269 718 1
269 719 1
269 720 1
269 787 1
270 269 1
270 271 1
270 272 1
270 273 1
270 274 1
270 275 1
270 276 1
270 277 1
270 278 1
270 291 1
270 292 1
270 555 1
270 556 1
270 583 1
270 584 1
270 608 1
270 629 1
270 630 1
270 713 1
270 714 1
270 717 1
270 718 1
270 719 1
270 720 1
271 269 1
271 270 1
271 272 1
271 273 1
271 274 1
271 275 1
271 276 1
271 277 1
271 278 1
271 291 1
271 292 1
271 555 1
271 556 1
271 583 1
271 584 1
271 608 1
271 629 1
271 630 1
271 713 1
271 714 1
271 717 1
271 718 1
271 719 1
271 720 1
271 787 1
272 269 1
272 270 1
272 271 1
272 273 1
272 274 1
272 275 1
272 276 1
272 277 1
272 278 1
272 291 1
272 292 1
272 555 1
272 556 1
272 583 1
272 584 1
272 608 1
272 629 1
272 630 1
272 713 1
272 714 1
272 717 1
272 718 1
272 719 1
272 720 1
273 143 1
273 144 1
273 145 1
273 146 1
273 269 1
273 270 1
273 271 1
273 272 1
273 274 1
273 275 1
273 276 1
273 277 1
273 278 1
273 555 1
273 556 1
273 583 1
273 584 1
273 607 1
273 713 1
273 714 1
273 717 1
273 718 1
273 719 1
273 720 1
273 721 1
273 722 1
273 723 1
273 724 1
274 143 1
274 144 1
274 145 1
274 146 1
274 269 1
274 270 1
274 271 1
274 272 1
274 273 1
274 275 1
274 276 1
274 277 1
274 278 1
274 555 1
274 556 1
274 583 1
274 584 1
274 607 1
274 608 1
274 713 1
274 714 1
274 717 1
274 718 1
274 719 1
274 720 1
274 721 1
274 722 1
274 723 1
274 724 1
274 787 1
275 143 1
275 144 1
275 145 1
275 146 1
275 269 1
275 270 1
275 271 1
275 272 1
275 273 1
275 274 1
275 276 1
275 277 1
275 278 1
275 555 1
275 556 1
275 583 1
275 584 1
275 607 1
275 713 1
275 714 1
275 717 1
275 718 1
275 719 1
275 720 1
275 721 1
275 722 1
275 723 1
275 724 1
276 143 1
276 144 1
276 145 1
276 146 1
276 269 1
276 270 1
276 271 1
276 272 1
276 273 1
276 274 1
276 275 1
276 277 1
276 278 1
276 555 1
276 556 1
276 583 1
276 584 1
276 607 1
276 608 1
276 713 1
276 714 1
276 717 1
276 718 1
276 719 1
276 720 1
276 721 1
276 722 1
276 723 1
276 724 1
276 787 1
277 143 1
277 144 1
277 145 1
277 146 1
277 269 1
277 270 1
277 271 1
277 272 1
277 273 1
277 274 1
277 275 1
277 276 1
277 278 1
277 281 1
277 282 1
277 283 1
277 284 1
277 341 1
277 342 1
277 343 1
277 344 1
277 555 1
277 556 1
277 583 1
277 584 1
277 713 1
277 714 1
277 717 1
277 718 1
277 719 1
277 720 1
277 721 1
277 722 1
277 723 1
277 724 1
278 143 1
278 144 1
278 145 1
278 146 1
278 269 1
278 270 1
278 271 1
278 272 1
278 273 1
278 274 1
278 275 1
278 276 1
278 277 1
278 281 1
278 282 1
278 283 1
278 284 1
278 341 1
278 342 1
278 343 1
278 344 1
278 555 1
278 556 1
278 583 1
278 584 1
278 607 1
278 713 1
278 714 1
278 717 1
278 718 1
278 719 1
278 720 1
278 721 1
278 722 1
278 723 1
278 724 1
279 280 1
279 317 1
279 318 1
279 319 1
279 320 1
279 775 1
280 279 1
280 317 1
280 318 1
280 319 1
280 320 1
281 143 1
281 144 1
281 145 1
281 146 1
281 277 1
281 278 1
281 282 1
281 283 1
281 284 1
281 341 1
281 342 1
281 343 1
281 344 1
281 713 1
281 714 1
281 721 1
281 722 1
281 723 1
281 724 1
282 143 1
282 144 1
282 145 1
282 146 1
282 277 1
282 278 1
282 281 1
282 283 1
282 284 1
282 341 1
282 342 1
282 343 1
282 344 1
282 713 1
282 714 1
282 721 1
282 722 1
282 723 1
282 724 1
283 143 1
283 144 1
283 145 1
283 146 1
283 277 1
283 278 1
283 281 1
283 282 1
283 284 1
283 341 1
283 342 1
283 343 1
283 344 1
283 713 1
283 714 1
283 721 1
283 722 1
283 723 1
283 724 1
284 143 1
284 144 1
284 145 1
284 146 1
284 277 1
284 278 1
284 281 1
284 282 1
284 283 1
284 341 1
284 342 1
284 343 1
284 344 1
284 584 1
284 713 1
284 714 1
284 721 1
284 722 1
284 723 1
284 724 1
285 237 1
285 238 1
285 286 1
285 303 1
285 304 1
285 305 1
285 306 1
285 309 1
285 310 1
285 517 1
285 518 1
285 653 1
286 237 1
286 238 1
286 285 1
286 303 1
286 304 1
286 305 1
286 306 1
286 309 1
286 310 1
286 517 1
286 518 1
287 288 1
287 472 1
287 606 1
288 287 1
288 471 1
288 605 1
289 81 1
289 290 1
289 291 1
289 292 1
289 790 1
290 82 1
290 289 1
290 291 1
290 292 1
290 767 1
290 768 1
291 269 1
291 270 1
291 271 1
291 272 1
291 289 1
291 290 1
291 292 1
291 629 1
291 630 1
292 269 1
292 270 1
292 271 1
292 272 1
292 289 1
292 290 1
292 291 1
292 629 1
292 630 1
293 294 1
293 297 1
293 332 1
293 334 1
293 383 1
293 384 1
293 389 1
293 547 1
293 548 1
293 734 1
293 736 1
293 738 1
294 293 1
294 297 1
294 379 1
294 384 1
294 388 1
294 389 1
294 400 1
294 479 1
294 516 1
294 547 1
294 548 1
294 550 1
294 735 1
294 736 1
294 737 1
294 738 1
294 752 1
294 754 1
295 151 1
295 152 1
295 217 1
295 296 1
295 641 1
295 642 1
295 643 1
295 644 1
295 715 1
295 716 1
296 151 1
296 152 1
296 183 1
296 295 1
296 641 1
296 642 1
296 643 1
296 644 1
296 715 1
296 716 1
297 293 1
297 294 1
297 298 1
298 297 1
299 127 1
299 152 1
299 180 1
299 205 1
299 206 1
299 209 1
299 210 1
299 211 1
299 212 1
299 213 1
299 214 1
299 300 1
299 301 1
299 302 1
299 303 1
299 304 1
299 305 1
299 306 1
299 616 1
299 668 1
299 671 1
299 672 1
299 741 1
299 912 1
300 151 1
300 180 1
300 181 1
300 183 1
300 205 1
300 206 1
300 209 1
300 210 1
300 211 1
300 212 1
300 213 1
300 214 1
300 299 1
300 301 1
300 302 1
300 303 1
300 304 1
300 305 1
300 306 1
300 667 1
300 671 1
300 672 1
301 127 1
301 152 1
301 180 1
301 205 1
301 206 1
301 209 1
301 210 1
301 211 1
301 212 1
301 213 1
301 214 1
301 299 1
301 300 1
301 302 1
301 303 1
301 304 1
301 305 1
301 306 1
301 616 1
301 668 1
301 671 1
301 672 1
301 741 1
301 912 1
302 151 1
302 180 1
302 181 1
302 183 1
302 205 1
302 206 1
302 209 1
302 210 1
302 211 1
302 212 1
302 213 1
302 214 1
302 299 1
302 300 1
302 301 1
302 303 1
302 304 1
302 305 1
302 306 1
302 667 1
302 671 1
302 672 1
303 192 1
303 194 1
303 237 1
303 238 1
303 285 1
303 286 1
303 299 1
303 300 1
303 301 1
303 302 1
303 304 1
303 305 1
303 306 1
303 309 1
303 310 1
303 517 1
303 518 1
303 618 1
303 671 1
303 672 1
304 237 1
304 238 1
304 285 1
304 286 1
304 299 1
304 300 1
304 301 1
304 302 1
304 303 1
304 305 1
304 306 1
304 309 1
304 310 1
304 517 1
304 518 1
304 671 1
304 672 1
305 192 1
305 194 1
305 237 1
305 238 1
305 285 1
305 286 1
305 299 1
305 300 1
305 301 1
305 302 1
305 303 1
305 304 1
305 306 1
305 309 1
305 310 1
305 517 1
305 518 1
305 618 1
305 671 1
305 672 1
306 237 1
306 238 1
306 285 1
306 286 1
306 299 1
306 300 1
306 301 1
306 302 1
306 303 1
306 304 1
306 305 1
306 309 1
306 310 1
306 517 1
306 518 1
306 671 1
306 672 1
307 308 1
307 309 1
307 310 1
307 311 1
307 312 1
307 313 1
307 314 1
308 307 1
308 309 1
308 310 1
308 311 1
308 312 1
308 313 1
308 314 1
309 237 1
309 238 1
309 285 1
309 286 1
309 303 1
309 304 1
309 305 1
309 306 1
309 307 1
309 308 1
309 310 1
309 311 1
309 312 1
309 313 1
309 314 1
309 517 1
309 518 1
309 653 1
310 237 1
310 238 1
310 285 1
310 286 1
310 303 1
310 304 1
310 305 1
310 306 1
310 307 1
310 308 1
310 309 1
310 311 1
310 312 1
310 313 1
310 314 1
310 517 1
310 518 1
311 153 1
311 154 1
311 181 1
311 182 1
311 183 1
311 184 1
311 307 1
311 308 1
311 309 1
311 310 1
311 312 1
311 313 1
311 314 1
311 406 1
311 575 1
311 576 1
311 641 1
311 642 1
311 643 1
311 644 1
311 667 1
311 668 1
312 153 1
312 154 1
312 181 1
312 182 1
312 183 1
312 307 1
312 308 1
312 309 1
312 310 1
312 311 1
312 313 1
312 314 1
312 478 1
312 575 1
312 576 1
312 641 1
312 642 1
312 643 1
312 644 1
312 667 1
312 668 1
313 153 1
313 154 1
313 181 1
313 182 1
313 183 1
313 184 1
313 307 1
313 308 1
313 309 1
313 310 1
313 311 1
313 312 1
313 314 1
313 575 1
313 576 1
313 641 1
313 642 1
313 643 1
313 644 1
313 667 1
313 668 1
314 153 1
314 154 1
314 181 1
314 182 1
314 183 1
314 307 1
314 308 1
314 309 1
314 310 1
314 311 1
314 312 1
314 313 1
314 478 1
314 575 1
314 576 1
314 641 1
314 642 1
314 643 1
314 644 1
314 667 1
314 668 1
315 316 1
316 78 1
316 315 1
317 279 1
317 280 1
317 318 1
317 319 1
317 320 1
318 279 1
318 280 1
318 317 1
318 319 1
318 320 1
319 279 1
319 280 1
319 317 1
319 318 1
319 320 1
320 279 1
320 280 1
320 317 1
320 318 1
320 319 1
321 13 1
321 14 1
321 15 1
321 16 1
321 322 1
321 323 1
321 324 1
321 557 1
321 558 1
321 594 1
321 599 1
321 600 1
321 631 1
321 665 1
321 666 1
321 767 1
321 768 1
322 13 1
322 14 1
322 15 1
322 16 1
322 321 1
322 323 1
322 324 1
322 557 1
322 558 1
322 599 1
322 600 1
322 665 1
322 666 1
322 767 1
322 768 1
323 13 1
323 14 1
323 15 1
323 16 1
323 321 1
323 322 1
323 324 1
323 557 1
323 558 1
323 594 1
323 599 1
323 600 1
323 631 1
323 665 1
323 666 1
323 767 1
323 768 1
324 13 1
324 14 1
324 15 1
324 16 1
324 321 1
324 322 1
324 323 1
324 557 1
324 558 1
324 599 1
324 600 1
324 665 1
324 666 1
324 767 1
324 768 1
325 215 1
325 216 1
325 263 1
325 264 1
325 326 1
325 327 1
325 328 1
325 360 1
325 363 1
325 366 1
325 367 1
325 743 1
325 744 1
325 763 1
325 764 1
326 215 1
326 216 1
326 263 1
326 264 1
326 325 1
326 327 1
326 328 1
326 355 1
326 356 1
326 364 1
326 365 1
326 743 1
326 744 1
326 763 1
326 764 1
327 215 1
327 216 1
327 263 1
327 264 1
327 325 1
327 326 1
327 328 1
327 360 1
327 363 1
327 366 1
327 367 1
327 743 1
327 744 1
327 763 1
327 764 1
328 215 1
328 216 1
328 263 1
328 264 1
328 325 1
328 326 1
328 327 1
328 355 1
328 356 1
328 364 1
328 365 1
328 743 1
328 744 1
328 763 1
328 764 1
329 330 1
329 351 1
329 352 1
329 591 1
329 592 1
329 633 1
329 634 1
330 329 1
330 351 1
330 352 1
330 566 1
330 591 1
330 592 1
330 601 1
330 633 1
330 634 1
330 635 1
331 163 1
331 164 1
331 165 1
331 166 1
331 332 1
331 333 1
331 334 1
331 353 1
331 354 1
331 380 1
331 553 1
331 554 1
331 729 1
331 731 1
332 163 1
332 164 1
332 165 1
332 166 1
332 293 1
332 331 1
332 333 1
332 334 1
332 353 1
332 354 1
332 553 1
332 554 1
333 163 1
333 164 1
333 165 1
333 166 1
333 331 1
333 332 1
333 334 1
333 353 1
333 354 1
333 380 1
333 553 1
333 554 1
333 729 1
333 731 1
334 163 1
334 164 1
334 165 1
334 166 1
334 293 1
334 331 1
334 332 1
334 333 1
334 353 1
334 354 1
334 553 1
334 554 1
335 259 1
335 260 1
335 336 1
335 711 1
335 712 1
335 739 1
335 740 1
335 915 1
335 916 1
336 259 1
336 260 1
336 335 1
336 711 1
336 712 1
336 915 1
336 916 1
337 255 1
337 256 1
337 338 1
337 391 1
337 392 1
337 404 1
338 255 1
338 256 1
338 337 1
338 392 1
338 403 1
338 404 1
339 155 1
339 156 1
339 157 1
339 158 1
339 340 1
339 345 1
339 346 1
339 347 1
339 348 1
339 725 1
339 726 1
339 727 1
339 728 1
340 155 1
340 156 1
340 157 1
340 158 1
340 339 1
340 345 1
340 346 1
340 347 1
340 348 1
340 725 1
340 726 1
340 727 1
340 728 1
341 143 1
341 144 1
341 145 1
341 146 1
341 155 1
341 156 1
341 157 1
341 158 1
341 277 1
341 278 1
341 281 1
341 282 1
341 283 1
341 284 1
341 342 1
341 343 1
341 344 1
341 345 1
341 346 1
341 347 1
341 348 1
341 713 1
341 714 1
341 721 1
341 722 1
341 723 1
341 724 1
342 143 1
342 144 1
342 145 1
342 146 1
342 155 1
342 156 1
342 157 1
342 158 1
342 277 1
342 278 1
342 281 1
342 282 1
342 283 1
342 284 1
342 341 1
342 343 1
342 344 1
342 345 1
342 346 1
342 347 1
342 348 1
342 713 1
342 714 1
342 721 1
342 722 1
342 723 1
342 724 1
343 143 1
343 144 1
343 145 1
343 146 1
343 155 1
343 156 1
343 157 1
343 158 1
343 277 1
343 278 1
343 281 1
343 282 1
343 283 1
343 284 1
343 341 1
343 342 1
343 344 1
343 345 1
343 346 1
343 347 1
343 348 1
343 713 1
343 714 1
343 721 1
343 722 1
343 723 1
343 724 1
344 143 1
344 144 1
344 145 1
344 146 1
344 155 1
344 156 1
344 157 1
344 158 1
344 277 1
344 278 1
344 281 1
344 282 1
344 283 1
344 284 1
344 341 1
344 342 1
344 343 1
344 345 1
344 346 1
344 347 1
344 348 1
344 713 1
344 714 1
344 721 1
344 722 1
344 723 1
344 724 1
345 155 1
345 156 1
345 157 1
345 158 1
345 339 1
345 340 1
345 341 1
345 342 1
345 343 1
345 344 1
345 346 1
345 347 1
345 348 1
345 725 1
345 726 1
345 727 1
345 728 1
346 155 1
346 156 1
346 157 1
346 158 1
346 339 1
346 340 1
346 341 1
346 342 1
346 343 1
346 344 1
346 345 1
346 347 1
346 348 1
346 725 1
346 726 1
346 727 1
346 728 1
347 155 1
347 156 1
347 157 1
347 158 1
347 339 1
347 340 1
347 341 1
347 342 1
347 343 1
347 344 1
347 345 1
347 346 1
347 348 1
347 725 1
347 726 1
347 727 1
347 728 1
348 155 1
348 156 1
348 157 1
348 158 1
348 339 1
348 340 1
348 341 1
348 342 1
348 343 1
348 344 1
348 345 1
348 346 1
348 347 1
348 725 1
348 726 1
348 727 1
348 728 1
349 233 1
349 234 1
349 237 1
349 238 1
349 350 1
349 517 1
349 518 1
349 561 1
349 562 1
349 577 1
349 578 1
349 591 1
349 592 1
349 621 1
349 622 1
349 801 1
349 802 1
350 233 1
350 234 1
350 237 1
350 238 1
350 349 1
350 517 1
350 518 1
350 561 1
350 562 1
350 577 1
350 578 1
350 591 1
350 592 1
350 621 1
350 622 1
350 801 1
350 802 1
351 235 1
351 236 1
351 329 1
351 330 1
351 352 1
351 591 1
351 592 1
351 633 1
351 634 1
352 235 1
352 236 1
352 329 1
352 330 1
352 351 1
352 591 1
352 592 1
352 633 1
352 634 1
353 163 1
353 164 1
353 165 1
353 166 1
353 331 1
353 332 1
353 333 1
353 334 1
353 354 1
353 379 1
353 380 1
353 385 1
353 386 1
353 395 1
353 396 1
353 455 1
353 456 1
353 479 1
353 480 1
353 553 1
353 554 1
353 729 1
353 730 1
353 731 1
353 732 1
354 163 1
354 164 1
354 165 1
354 166 1
354 331 1
354 332 1
354 333 1
354 334 1
354 353 1
354 379 1
354 380 1
354 385 1
354 386 1
354 395 1
354 396 1
354 455 1
354 456 1
354 479 1
354 480 1
354 553 1
354 554 1
354 729 1
354 730 1
354 731 1
354 732 1
355 215 1
355 216 1
355 326 1
355 328 1
355 356 1
355 359 1
355 360 1
355 363 1
355 364 1
355 365 1
355 366 1
355 367 1
355 368 1
356 215 1
356 216 1
356 326 1
356 328 1
356 355 1
356 359 1
356 360 1
356 363 1
356 364 1
356 365 1
356 366 1
356 367 1
356 368 1
357 358 1
357 361 1
357 362 1
358 357 1
358 361 1
358 362 1
359 215 1
359 216 1
359 264 1
359 355 1
359 356 1
359 360 1
359 363 1
359 364 1
359 365 1
359 366 1
359 367 1
359 368 1
359 475 1
359 476 1
360 216 1
360 263 1
360 325 1
360 327 1
360 355 1
360 356 1
360 359 1
360 363 1
360 364 1
360 365 1
360 366 1
360 367 1
360 368 1
360 475 1
360 476 1
361 357 1
361 358 1
361 362 1
361 363 1
361 364 1
362 357 1
362 358 1
362 361 1
362 363 1
362 364 1
363 215 1
363 216 1
363 325 1
363 327 1
363 355 1
363 356 1
363 359 1
363 360 1
363 361 1
363 362 1
363 364 1
363 365 1
363 366 1
363 367 1
363 368 1
364 216 1
364 326 1
364 328 1
364 355 1
364 356 1
364 359 1
364 360 1
364 361 1
364 362 1
364 363 1
364 365 1
364 366 1
364 367 1
364 368 1
365 326 1
365 328 1
365 355 1
365 356 1
365 359 1
365 360 1
365 363 1
365 364 1
365 366 1
365 367 1
365 368 1
366 215 1
366 216 1
366 263 1
366 325 1
366 327 1
366 355 1
366 356 1
366 359 1
366 360 1
366 363 1
366 364 1
366 365 1
366 367 1
366 368 1
367 215 1
367 216 1
367 325 1
367 327 1
367 355 1
367 356 1
367 359 1
367 360 1
367 363 1
367 364 1
367 365 1
367 366 1
367 368 1
367 533 1
367 534 1
367 763 1
367 764 1
368 216 1
368 355 1
368 356 1
368 359 1
368 360 1
368 363 1
368 364 1
368 365 1
368 366 1
368 367 1
368 533 1
368 534 1
368 763 1
368 764 1
369 181 1
369 182 1
369 183 1
369 184 1
369 370 1
369 371 1
369 372 1
369 375 1
369 376 1
369 377 1
369 378 1
369 405 1
369 406 1
369 477 1
369 478 1
369 741 1
369 742 1
369 817 1
369 818 1
370 181 1
370 182 1
370 183 1
370 184 1
370 369 1
370 371 1
370 372 1
370 375 1
370 376 1
370 377 1
370 378 1
370 405 1
370 406 1
370 477 1
370 478 1
370 741 1
370 742 1
370 817 1
370 818 1
371 369 1
371 370 1
371 372 1
371 375 1
371 376 1
371 443 1
371 444 1
371 817 1
371 818 1
372 369 1
372 370 1
372 371 1
372 375 1
372 376 1
372 443 1
372 444 1
372 817 1
372 818 1
373 374 1
373 381 1
373 382 1
373 385 1
373 386 1
373 479 1
373 553 1
373 554 1
373 751 1
373 752 1
373 755 1
373 756 1
374 373 1
374 381 1
374 382 1
374 385 1
374 386 1
374 553 1
374 554 1
374 751 1
374 752 1
374 755 1
374 756 1
375 191 1
375 192 1
375 193 1
375 194 1
375 369 1
375 370 1
375 371 1
375 372 1
375 376 1
375 477 1
375 478 1
375 817 1
375 818 1
376 182 1
376 191 1
376 192 1
376 193 1
376 194 1
376 369 1
376 370 1
376 371 1
376 372 1
376 375 1
376 477 1
376 478 1
376 817 1
376 818 1
377 181 1
377 182 1
377 183 1
377 184 1
377 217 1
377 218 1
377 369 1
377 370 1
377 378 1
377 405 1
377 406 1
377 477 1
377 478 1
377 653 1
377 654 1
377 741 1
377 742 1
378 181 1
378 182 1
378 183 1
378 184 1
378 217 1
378 218 1
378 369 1
378 370 1
378 377 1
378 405 1
378 406 1
378 477 1
378 478 1
378 653 1
378 654 1
378 741 1
378 742 1
379 294 1
379 353 1
379 354 1
379 380 1
379 385 1
379 386 1
379 395 1
379 396 1
379 399 1
379 400 1
379 455 1
379 456 1
379 479 1
379 480 1
379 515 1
379 516 1
379 543 1
379 544 1
379 549 1
379 550 1
379 729 1
379 730 1
379 731 1
379 732 1
380 331 1
380 333 1
380 353 1
380 354 1
380 379 1
380 385 1
380 386 1
380 395 1
380 396 1
380 399 1
380 400 1
380 455 1
380 456 1
380 479 1
380 480 1
380 515 1
380 516 1
380 543 1
380 544 1
380 549 1
380 550 1
380 729 1
380 730 1
380 731 1
380 732 1
381 373 1
381 374 1
381 382 1
381 391 1
381 392 1
381 545 1
381 546 1
381 751 1
381 752 1
381 755 1
381 756 1
382 373 1
382 374 1
382 381 1
382 391 1
382 392 1
382 545 1
382 546 1
382 751 1
382 752 1
382 755 1
382 756 1
383 293 1
383 384 1
383 387 1
383 388 1
383 389 1
383 390 1
383 395 1
383 396 1
383 547 1
383 548 1
383 733 1
383 734 1
384 293 1
384 294 1
384 383 1
384 387 1
384 388 1
384 389 1
384 390 1
384 395 1
384 396 1
384 547 1
384 548 1
384 733 1
384 734 1
385 353 1
385 354 1
385 373 1
385 374 1
385 379 1
385 380 1
385 386 1
385 395 1
385 396 1
385 455 1
385 456 1
385 479 1
385 480 1
385 553 1
385 554 1
385 729 1
385 730 1
385 731 1
385 732 1
386 353 1
386 354 1
386 373 1
386 374 1
386 379 1
386 380 1
386 385 1
386 395 1
386 396 1
386 455 1
386 456 1
386 479 1
386 480 1
386 553 1
386 554 1
386 729 1
386 730 1
386 731 1
386 732 1
387 383 1
387 384 1
387 388 1
387 397 1
387 398 1
387 481 1
387 482 1
387 547 1
387 548 1
387 733 1
387 734 1
387 771 1
387 772 1
387 783 1
387 784 1
388 294 1
388 383 1
388 384 1
388 387 1
388 397 1
388 398 1
388 481 1
388 482 1
388 547 1
388 548 1
388 733 1
388 734 1
388 771 1
388 772 1
388 783 1
388 784 1
389 293 1
389 294 1
389 383 1
389 384 1
389 390 1
389 395 1
389 396 1
390 383 1
390 384 1
390 389 1
390 395 1
390 396 1
391 256 1
391 337 1
391 381 1
391 382 1
391 392 1
391 403 1
391 404 1
391 473 1
391 474 1
391 541 1
391 542 1
391 545 1
391 546 1
391 551 1
391 552 1
392 256 1
392 337 1
392 338 1
392 381 1
392 382 1
392 391 1
392 403 1
392 404 1
392 473 1
392 474 1
392 541 1
392 542 1
392 545 1
392 546 1
392 551 1
392 552 1
393 71 1
393 72 1
393 394 1
393 473 1
393 474 1
393 571 1
393 572 1
393 739 1
393 740 1
394 71 1
394 72 1
394 393 1
394 473 1
394 474 1
394 571 1
394 572 1
394 739 1
394 740 1
395 353 1
395 354 1
395 379 1
395 380 1
395 383 1
395 384 1
395 385 1
395 386 1
395 389 1
395 390 1
395 396 1
395 455 1
395 456 1
395 479 1
395 480 1
395 729 1
395 730 1
395 731 1
395 732 1
396 353 1
396 354 1
396 379 1
396 380 1
396 383 1
396 384 1
396 385 1
396 386 1
396 389 1
396 390 1
396 395 1
396 455 1
396 456 1
396 479 1
396 480 1
396 729 1
396 730 1
396 731 1
396 732 1
397 387 1
397 388 1
397 398 1
397 481 1
397 482 1
397 771 1
397 772 1
397 783 1
397 784 1
398 387 1
398 388 1
398 397 1
398 481 1
398 482 1
398 771 1
398 772 1
398 783 1
398 784 1
399 379 1
399 380 1
399 400 1
399 515 1
399 516 1
399 543 1
399 544 1
399 549 1
399 550 1
400 294 1
400 379 1
400 380 1
400 399 1
400 515 1
400 516 1
400 543 1
400 544 1
400 549 1
400 550 1
401 117 1
401 118 1
401 119 1
401 120 1
401 151 1
401 152 1
401 153 1
401 180 1
401 183 1
401 184 1
401 402 1
401 563 1
401 564 1
401 619 1
401 620 1
401 667 1
401 668 1
401 825 1
401 826 1
401 829 1
401 830 1
402 117 1
402 118 1
402 119 1
402 120 1
402 152 1
402 154 1
402 180 1
402 181 1
402 183 1
402 184 1
402 401 1
402 563 1
402 564 1
402 615 1
402 619 1
402 620 1
402 667 1
402 668 1
402 825 1
402 826 1
402 829 1
402 830 1
403 338 1
403 391 1
403 392 1
403 404 1
403 413 1
403 414 1
403 473 1
403 474 1
403 537 1
403 538 1
403 539 1
403 540 1
403 541 1
403 542 1
403 551 1
403 552 1
404 337 1
404 338 1
404 391 1
404 392 1
404 403 1
404 413 1
404 414 1
404 473 1
404 474 1
404 537 1
404 538 1
404 539 1
404 540 1
404 541 1
404 542 1
404 551 1
404 552 1
405 117 1
405 180 1
405 181 1
405 182 1
405 183 1
405 184 1
405 369 1
405 370 1
405 377 1
405 378 1
405 406 1
405 449 1
405 450 1
405 477 1
405 478 1
405 741 1
405 742 1
406 181 1
406 182 1
406 183 1
406 184 1
406 311 1
406 369 1
406 370 1
406 377 1
406 378 1
406 405 1
406 449 1
406 450 1
406 477 1
406 478 1
406 741 1
406 742 1
407 408 1
408 407 1
409 410 1
409 411 1
409 412 1
409 415 1
409 416 1
410 409 1
410 411 1
410 412 1
410 415 1
410 416 1
411 409 1
411 410 1
411 412 1
411 529 1
411 530 1
412 409 1
412 410 1
412 411 1
412 529 1
412 530 1
413 403 1
413 404 1
413 414 1
413 537 1
413 538 1
413 539 1
413 540 1
413 913 1
413 914 1
414 403 1
414 404 1
414 413 1
414 537 1
414 538 1
414 539 1
414 540 1
414 913 1
414 914 1
415 409 1
415 410 1
415 416 1
415 419 1
415 420 1
415 761 1
415 762 1
416 409 1
416 410 1
416 415 1
416 419 1
416 420 1
416 761 1
416 762 1
417 418 1
417 419 1
417 420 1
417 775 1
417 776 1
418 417 1
418 419 1
418 420 1
418 775 1
418 776 1
419 415 1
419 416 1
419 417 1
419 418 1
419 420 1
419 761 1
419 762 1
419 775 1
419 776 1
420 415 1
420 416 1
420 417 1
420 418 1
420 419 1
420 761 1
420 762 1
420 775 1
420 776 1
421 177 1
421 178 1
421 422 1
421 423 1
421 424 1
421 433 1
421 434 1
421 707 1
422 177 1
422 178 1
422 421 1
422 423 1
422 424 1
422 433 1
422 434 1
422 708 1
423 421 1
423 422 1
423 424 1
423 707 1
424 421 1
424 422 1
424 423 1
424 708 1
425 231 1
425 232 1
425 426 1
425 431 1
425 432 1
426 231 1
426 232 1
426 425 1
426 431 1
426 432 1
427 175 1
427 176 1
427 177 1
427 178 1
427 231 1
427 428 1
427 432 1
427 433 1
427 434 1
428 175 1
428 176 1
428 177 1
428 178 1
428 232 1
428 427 1
428 431 1
428 433 1
428 434 1
429 173 1
429 174 1
429 430 1
429 670 1
430 173 1
430 174 1
430 429 1
431 176 1
431 231 1
431 232 1
431 425 1
431 426 1
431 428 1
431 432 1
432 175 1
432 231 1
432 232 1
432 425 1
432 426 1
432 427 1
432 431 1
433 175 1
433 176 1
433 177 1
433 178 1
433 421 1
433 422 1
433 427 1
433 428 1
433 434 1
434 175 1
434 176 1
434 177 1
434 178 1
434 421 1
434 422 1
434 427 1
434 428 1
434 433 1
435 261 1
435 262 1
435 436 1
435 475 1
435 476 1
435 481 1
435 482 1
435 783 1
435 784 1
436 261 1
436 262 1
436 435 1
436 475 1
436 476 1
436 481 1
436 482 1
436 783 1
436 784 1
437 135 1
437 136 1
437 137 1
437 138 1
437 139 1
437 140 1
437 167 1
437 168 1
437 438 1
438 135 1
438 136 1
438 137 1
438 138 1
438 139 1
438 140 1
438 167 1
438 168 1
438 437 1
439 117 1
439 151 1
439 179 1
439 180 1
439 183 1
439 184 1
439 217 1
439 440 1
439 449 1
439 450 1
439 769 1
439 827 1
439 828 1
439 911 1
439 912 1
440 118 1
440 120 1
440 152 1
440 179 1
440 180 1
440 181 1
440 182 1
440 183 1
440 184 1
440 439 1
440 449 1
440 450 1
440 827 1
440 828 1
440 911 1
440 912 1
441 28 1
441 442 1
441 451 1
441 452 1
441 749 1
441 750 1
441 839 1
441 840 1
441 846 1
441 895 1
442 441 1
442 451 1
442 452 1
442 749 1
442 750 1
443 371 1
443 372 1
443 444 1
444 371 1
444 372 1
444 443 1
445 141 1
445 142 1
445 251 1
445 252 1
445 446 1
445 447 1
445 448 1
445 531 1
445 532 1
446 135 1
446 136 1
446 167 1
446 168 1
446 445 1
446 447 1
446 448 1
446 531 1
446 532 1
447 135 1
447 136 1
447 167 1
447 445 1
447 446 1
447 448 1
448 135 1
448 168 1
448 445 1
448 446 1
448 447 1
449 118 1
449 120 1
449 128 1
449 152 1
449 179 1
449 180 1
449 181 1
449 182 1
449 183 1
449 184 1
449 405 1
449 406 1
449 439 1
449 440 1
449 450 1
449 668 1
449 827 1
449 828 1
449 911 1
449 912 1
450 117 1
450 119 1
450 151 1
450 179 1
450 180 1
450 183 1
450 184 1
450 405 1
450 406 1
450 439 1
450 440 1
450 449 1
450 827 1
450 828 1
450 911 1
450 912 1
451 441 1
451 442 1
451 452 1
451 749 1
451 750 1
452 441 1
452 442 1
452 451 1
452 749 1
452 750 1
453 454 1
454 453 1
455 353 1
455 354 1
455 379 1
455 380 1
455 385 1
455 386 1
455 395 1
455 396 1
455 456 1
455 479 1
455 480 1
455 729 1
455 730 1
455 731 1
455 732 1
456 353 1
456 354 1
456 379 1
456 380 1
456 385 1
456 386 1
456 395 1
456 396 1
456 455 1
456 479 1
456 480 1
456 729 1
456 730 1
456 731 1
456 732 1
457 458 1
457 459 1
457 460 1
457 461 1
457 462 1
457 465 1
457 466 1
458 457 1
458 459 1
458 460 1
458 461 1
458 462 1
458 465 1
458 466 1
459 457 1
459 458 1
459 460 1
459 461 1
459 462 1
459 463 1
459 464 1
460 457 1
460 458 1
460 459 1
460 461 1
460 462 1
460 463 1
460 464 1
461 457 1
461 458 1
461 459 1
461 460 1
461 462 1
461 463 1
461 464 1
462 457 1
462 458 1
462 459 1
462 460 1
462 461 1
462 463 1
462 464 1
463 459 1
463 460 1
463 461 1
463 462 1
463 464 1
463 885 1
463 886 1
463 887 1
463 888 1
463 897 1
463 898 1
464 10 1
464 459 1
464 460 1
464 461 1
464 462 1
464 463 1
464 885 1
464 886 1
464 887 1
464 888 1
464 897 1
464 898 1
465 91 1
465 98 1
465 457 1
465 458 1
465 466 1
465 467 1
465 468 1
466 97 1
466 457 1
466 458 1
466 465 1
466 467 1
466 468 1
467 87 1
467 88 1
467 108 1
467 465 1
467 466 1
467 468 1
467 469 1
467 470 1
467 860 1
468 87 1
468 88 1
468 465 1
468 466 1
468 467 1
468 469 1
468 470 1
468 859 1
469 87 1
469 88 1
469 467 1
469 468 1
469 470 1
469 823 1
469 824 1
469 859 1
469 860 1
469 865 1
469 866 1
470 87 1
470 88 1
470 467 1
470 468 1
470 469 1
470 823 1
470 824 1
470 859 1
470 860 1
470 865 1
470 866 1
471 288 1
471 472 1
471 605 1
471 606 1
472 287 1
472 471 1
472 605 1
472 606 1
473 391 1
473 392 1
473 393 1
473 394 1
473 403 1
473 404 1
473 474 1
473 541 1
473 542 1
473 551 1
473 552 1
473 571 1
473 572 1
474 391 1
474 392 1
474 393 1
474 394 1
474 403 1
474 404 1
474 473 1
474 541 1
474 542 1
474 551 1
474 552 1
474 571 1
474 572 1
475 359 1
475 360 1
475 435 1
475 436 1
475 476 1
475 481 1
475 482 1
475 783 1
475 784 1
476 359 1
476 360 1
476 435 1
476 436 1
476 475 1
476 481 1
476 482 1
476 783 1
476 784 1
477 181 1
477 182 1
477 183 1
477 184 1
477 191 1
477 192 1
477 193 1
477 194 1
477 369 1
477 370 1
477 375 1
477 376 1
477 377 1
477 378 1
477 405 1
477 406 1
477 478 1
477 741 1
477 742 1
478 181 1
478 182 1
478 183 1
478 184 1
478 191 1
478 192 1
478 193 1
478 194 1
478 312 1
478 314 1
478 369 1
478 370 1
478 375 1
478 376 1
478 377 1
478 378 1
478 405 1
478 406 1
478 477 1
478 741 1
478 742 1
479 163 1
479 165 1
479 294 1
479 353 1
479 354 1
479 373 1
479 379 1
479 380 1
479 385 1
479 386 1
479 395 1
479 396 1
479 455 1
479 456 1
479 480 1
479 729 1
479 730 1
479 731 1
479 732 1
480 353 1
480 354 1
480 379 1
480 380 1
480 385 1
480 386 1
480 395 1
480 396 1
480 455 1
480 456 1
480 479 1
480 729 1
480 730 1
480 731 1
480 732 1
481 387 1
481 388 1
481 397 1
481 398 1
481 435 1
481 436 1
481 475 1
481 476 1
481 482 1
481 771 1
481 772 1
481 783 1
481 784 1
482 387 1
482 388 1
482 397 1
482 398 1
482 435 1
482 436 1
482 475 1
482 476 1
482 481 1
482 771 1
482 772 1
482 783 1
482 784 1
483 484 1
483 505 1
483 506 1
483 507 1
483 508 1
483 509 1
483 510 1
483 513 1
483 514 1
484 111 1
484 483 1
484 505 1
484 506 1
484 507 1
484 508 1
484 509 1
484 510 1
484 513 1
484 514 1
485 87 1
485 88 1
485 486 1
485 677 1
485 678 1
485 865 1
485 866 1
486 87 1
486 88 1
486 485 1
486 677 1
486 678 1
486 865 1
486 866 1
487 221 1
487 222 1
487 488 1
488 221 1
488 222 1
488 487 1
489 21 1
489 22 1
489 195 1
489 196 1
489 490 1
489 863 1
489 864 1
489 883 1
489 884 1
490 21 1
490 22 1
490 195 1
490 196 1
490 489 1
490 863 1
490 864 1
490 883 1
490 884 1
491 21 1
491 22 1
491 23 1
491 24 1
491 492 1
491 493 1
491 494 1
492 21 1
492 22 1
492 23 1
492 24 1
492 491 1
492 493 1
492 494 1
493 21 1
493 22 1
493 23 1
493 24 1
493 491 1
493 492 1
493 494 1
494 21 1
494 22 1
494 23 1
494 24 1
494 491 1
494 492 1
494 493 1
495 103 1
495 104 1
495 496 1
495 651 1
495 652 1
496 103 1
496 104 1
496 495 1
496 651 1
496 652 1
497 3 1
497 4 1
497 19 1
497 20 1
497 55 1
497 56 1
497 99 1
497 100 1
497 125 1
497 126 1
497 201 1
497 202 1
497 498 1
497 501 1
497 502 1
497 505 1
497 506 1
497 659 1
497 660 1
497 856 1
498 3 1
498 4 1
498 19 1
498 20 1
498 55 1
498 56 1
498 99 1
498 100 1
498 116 1
498 125 1
498 126 1
498 142 1
498 189 1
498 201 1
498 202 1
498 208 1
498 251 1
498 497 1
498 501 1
498 502 1
498 505 1
498 506 1
498 659 1
498 660 1
498 853 1
498 855 1
498 856 1
499 203 1
499 253 1
499 500 1
499 503 1
499 504 1
499 909 1
499 910 1
500 204 1
500 257 1
500 258 1
500 499 1
500 503 1
500 504 1
500 909 1
500 910 1
501 3 1
501 4 1
501 19 1
501 20 1
501 55 1
501 56 1
501 99 1
501 100 1
501 116 1
501 125 1
501 126 1
501 189 1
501 201 1
501 202 1
501 208 1
501 497 1
501 498 1
501 502 1
501 505 1
501 506 1
501 659 1
501 660 1
501 853 1
501 855 1
502 3 1
502 4 1
502 19 1
502 20 1
502 55 1
502 56 1
502 99 1
502 100 1
502 125 1
502 126 1
502 201 1
502 202 1
502 497 1
502 498 1
502 501 1
502 505 1
502 506 1
502 659 1
502 660 1
502 854 1
503 33 1
503 34 1
503 35 1
503 36 1
503 39 1
503 40 1
503 41 1
503 42 1
503 257 1
503 499 1
503 500 1
503 504 1
503 511 1
503 512 1
503 909 1
503 910 1
504 33 1
504 34 1
504 35 1
504 36 1
504 39 1
504 40 1
504 41 1
504 42 1
504 204 1
504 257 1
504 258 1
504 499 1
504 500 1
504 503 1
504 511 1
504 512 1
504 909 1
504 910 1
505 3 1
505 4 1
505 19 1
505 20 1
505 55 1
505 56 1
505 99 1
505 100 1
505 125 1
505 126 1
505 201 1
505 202 1
505 483 1
505 484 1
505 497 1
505 498 1
505 501 1
505 502 1
505 506 1
505 507 1
505 508 1
505 509 1
505 510 1
505 513 1
505 514 1
505 659 1
505 660 1
506 3 1
506 4 1
506 19 1
506 20 1
506 55 1
506 56 1
506 99 1
506 100 1
506 116 1
506 125 1
506 126 1
506 189 1
506 201 1
506 202 1
506 208 1
506 483 1
506 484 1
506 497 1
506 498 1
506 501 1
506 502 1
506 505 1
506 507 1
506 508 1
506 509 1
506 510 1
506 513 1
506 514 1
506 659 1
506 660 1
506 853 1
506 855 1
507 483 1
507 484 1
507 505 1
507 506 1
507 508 1
507 509 1
507 510 1
507 513 1
507 514 1
508 111 1
508 483 1
508 484 1
508 505 1
508 506 1
508 507 1
508 509 1
508 510 1
508 513 1
508 514 1
509 111 1
509 112 1
509 483 1
509 484 1
509 505 1
509 506 1
509 507 1
509 508 1
509 510 1
509 513 1
509 514 1
510 111 1
510 112 1
510 483 1
510 484 1
510 505 1
510 506 1
510 507 1
510 508 1
510 509 1
510 513 1
510 514 1
510 853 1
511 33 1
511 34 1
511 35 1
511 36 1
511 39 1
511 40 1
511 41 1
511 42 1
511 503 1
511 504 1
511 512 1
511 513 1
511 514 1
511 909 1
511 910 1
512 33 1
512 34 1
512 35 1
512 36 1
512 39 1
512 40 1
512 41 1
512 42 1
512 258 1
512 503 1
512 504 1
512 511 1
512 513 1
512 514 1
512 909 1
512 910 1
513 131 1
513 134 1
513 148 1
513 150 1
513 239 1
513 483 1
513 484 1
513 505 1
513 506 1
513 507 1
513 508 1
513 509 1
513 510 1
513 511 1
513 512 1
513 514 1
513 709 1
514 483 1
514 484 1
514 505 1
514 506 1
514 507 1
514 508 1
514 509 1
514 510 1
514 511 1
514 512 1
514 513 1
514 853 1
515 379 1
515 380 1
515 399 1
515 400 1
515 516 1
515 543 1
515 544 1
515 549 1
515 550 1
516 294 1
516 379 1
516 380 1
516 399 1
516 400 1
516 515 1
516 543 1
516 544 1
516 549 1
516 550 1
517 237 1
517 238 1
517 285 1
517 286 1
517 303 1
517 304 1
517 305 1
517 306 1
517 309 1
517 310 1
517 349 1
517 350 1
517 518 1
518 237 1
518 238 1
518 285 1
518 286 1
518 303 1
518 304 1
518 305 1
518 306 1
518 309 1
518 310 1
518 349 1
518 350 1
518 517 1
519 520 1
519 597 1
519 598 1
520 519 1
520 597 1
520 598 1
521 75 1
521 76 1
521 77 1
521 78 1
521 257 1
521 258 1
521 522 1
521 831 1
521 832 1
522 75 1
522 76 1
522 77 1
522 78 1
522 257 1
522 258 1
522 521 1
522 831 1
522 832 1
523 524 1
523 525 1
523 526 1
523 527 1
523 528 1
523 627 1
523 628 1
523 803 1
523 804 1
524 523 1
524 525 1
524 526 1
524 527 1
524 528 1
524 627 1
524 628 1
524 803 1
524 804 1
525 523 1
525 524 1
525 526 1
525 527 1
525 528 1
525 637 1
525 638 1
525 639 1
525 640 1
526 523 1
526 524 1
526 525 1
526 527 1
526 528 1
526 637 1
526 638 1
526 639 1
526 640 1
527 523 1
527 524 1
527 525 1
527 526 1
527 528 1
527 609 1
527 610 1
527 611 1
527 612 1
528 523 1
528 524 1
528 525 1
528 526 1
528 527 1
528 609 1
528 610 1
528 611 1
528 612 1
529 411 1
529 412 1
529 530 1
530 411 1
530 412 1
530 529 1
531 141 1
531 252 1
531 445 1
531 446 1
531 532 1
532 90 1
532 112 1
532 141 1
532 142 1
532 251 1
532 252 1
532 445 1
532 446 1
532 531 1
532 709 1
533 215 1
533 216 1
533 367 1
533 368 1
533 534 1
533 535 1
533 536 1
533 763 1
533 764 1
534 215 1
534 216 1
534 263 1
534 264 1
534 367 1
534 368 1
534 533 1
534 535 1
534 536 1
534 763 1
534 764 1
535 216 1
535 533 1
535 534 1
535 536 1
536 533 1
536 534 1
536 535 1
537 403 1
537 404 1
537 413 1
537 414 1
537 538 1
537 539 1
537 540 1
538 403 1
538 404 1
538 413 1
538 414 1
538 537 1
538 539 1
538 540 1
539 403 1
539 404 1
539 413 1
539 414 1
539 537 1
539 538 1
539 540 1
540 403 1
540 404 1
540 413 1
540 414 1
540 537 1
540 538 1
540 539 1
541 391 1
541 392 1
541 403 1
541 404 1
541 473 1
541 474 1
541 542 1
541 551 1
541 552 1
541 574 1
542 391 1
542 392 1
542 403 1
542 404 1
542 473 1
542 474 1
542 541 1
542 551 1
542 552 1
543 379 1
543 380 1
543 399 1
543 400 1
543 515 1
543 516 1
543 544 1
543 549 1
543 550 1
544 379 1
544 380 1
544 399 1
544 400 1
544 515 1
544 516 1
544 543 1
544 549 1
544 550 1
545 381 1
545 382 1
545 391 1
545 392 1
545 546 1
546 381 1
546 382 1
546 391 1
546 392 1
546 545 1
546 755 1
547 293 1
547 294 1
547 383 1
547 384 1
547 387 1
547 388 1
547 548 1
547 733 1
547 734 1
548 293 1
548 294 1
548 383 1
548 384 1
548 387 1
548 388 1
548 547 1
548 733 1
548 734 1
549 379 1
549 380 1
549 399 1
549 400 1
549 515 1
549 516 1
549 543 1
549 544 1
549 550 1
550 294 1
550 379 1
550 380 1
550 399 1
550 400 1
550 515 1
550 516 1
550 543 1
550 544 1
550 549 1
551 391 1
551 392 1
551 403 1
551 404 1
551 473 1
551 474 1
551 541 1
551 542 1
551 552 1
552 391 1
552 392 1
552 403 1
552 404 1
552 473 1
552 474 1
552 541 1
552 542 1
552 551 1
553 163 1
553 164 1
553 165 1
553 166 1
553 331 1
553 332 1
553 333 1
553 334 1
553 353 1
553 354 1
553 373 1
553 374 1
553 385 1
553 386 1
553 554 1
554 163 1
554 164 1
554 165 1
554 166 1
554 331 1
554 332 1
554 333 1
554 334 1
554 353 1
554 354 1
554 373 1
554 374 1
554 385 1
554 386 1
554 553 1
555 269 1
555 270 1
555 271 1
555 272 1
555 273 1
555 274 1
555 275 1
555 276 1
555 277 1
555 278 1
555 556 1
555 583 1
555 584 1
555 607 1
555 608 1
555 713 1
555 714 1
555 717 1
555 718 1
555 719 1
555 720 1
555 787 1
555 788 1
556 269 1
556 270 1
556 271 1
556 272 1
556 273 1
556 274 1
556 275 1
556 276 1
556 277 1
556 278 1
556 555 1
556 583 1
556 584 1
556 607 1
556 608 1
556 713 1
556 714 1
556 717 1
556 718 1
556 719 1
556 720 1
556 787 1
556 788 1
557 13 1
557 14 1
557 15 1
557 16 1
557 321 1
557 322 1
557 323 1
557 324 1
557 558 1
557 593 1
557 594 1
557 597 1
557 598 1
557 599 1
557 600 1
557 613 1
557 614 1
557 665 1
557 666 1
557 767 1
557 768 1
557 785 1
557 786 1
558 13 1
558 14 1
558 15 1
558 16 1
558 321 1
558 322 1
558 323 1
558 324 1
558 557 1
558 593 1
558 594 1
558 597 1
558 598 1
558 599 1
558 600 1
558 613 1
558 614 1
558 665 1
558 666 1
558 767 1
558 768 1
558 785 1
558 786 1
559 265 1
559 266 1
559 267 1
559 268 1
559 560 1
559 565 1
559 566 1
559 601 1
559 602 1
559 603 1
559 604 1
559 635 1
559 636 1
560 265 1
560 266 1
560 267 1
560 268 1
560 559 1
560 565 1
560 566 1
560 601 1
560 602 1
560 603 1
560 604 1
560 635 1
560 636 1
561 233 1
561 234 1
561 349 1
561 350 1
561 562 1
561 577 1
561 578 1
561 591 1
561 592 1
561 605 1
561 606 1
561 621 1
561 622 1
561 801 1
561 802 1
562 233 1
562 234 1
562 349 1
562 350 1
562 561 1
562 577 1
562 578 1
562 591 1
562 592 1
562 605 1
562 606 1
562 621 1
562 622 1
562 801 1
562 802 1
563 117 1
563 118 1
563 119 1
563 120 1
563 151 1
563 153 1
563 179 1
563 183 1
563 184 1
563 217 1
563 401 1
563 402 1
563 564 1
563 619 1
563 620 1
563 667 1
563 668 1
563 769 1
563 770 1
563 825 1
563 826 1
563 828 1
563 829 1
563 830 1
564 117 1
564 118 1
564 119 1
564 120 1
564 154 1
564 183 1
564 218 1
564 401 1
564 402 1
564 563 1
564 619 1
564 620 1
564 667 1
564 668 1
564 769 1
564 770 1
564 825 1
564 826 1
564 829 1
564 830 1
565 559 1
565 560 1
565 566 1
565 585 1
565 586 1
565 587 1
565 588 1
565 601 1
565 602 1
565 635 1
565 636 1
565 745 1
565 746 1
565 767 1
565 768 1
566 330 1
566 559 1
566 560 1
566 565 1
566 585 1
566 586 1
566 587 1
566 588 1
566 601 1
566 602 1
566 635 1
566 636 1
566 645 1
566 745 1
566 746 1
567 568 1
567 569 1
567 570 1
567 755 1
567 756 1
568 567 1
568 569 1
568 570 1
568 755 1
568 756 1
569 567 1
569 568 1
569 570 1
569 571 1
569 572 1
569 573 1
569 574 1
570 567 1
570 568 1
570 569 1
570 571 1
570 572 1
570 573 1
570 574 1
571 393 1
571 394 1
571 473 1
571 474 1
571 569 1
571 570 1
571 572 1
571 573 1
571 574 1
572 393 1
572 394 1
572 473 1
572 474 1
572 569 1
572 570 1
572 571 1
572 573 1
572 574 1
573 569 1
573 570 1
573 571 1
573 572 1
573 574 1
573 757 1
573 758 1
574 541 1
574 569 1
574 570 1
574 571 1
574 572 1
574 573 1
574 757 1
574 758 1
575 153 1
575 154 1
575 311 1
575 312 1
575 313 1
575 314 1
575 576 1
575 641 1
575 642 1
575 643 1
575 644 1
575 667 1
575 668 1
575 759 1
575 760 1
576 153 1
576 154 1
576 311 1
576 312 1
576 313 1
576 314 1
576 575 1
576 641 1
576 642 1
576 643 1
576 644 1
576 667 1
576 668 1
576 759 1
576 760 1
577 233 1
577 234 1
577 349 1
577 350 1
577 561 1
577 562 1
577 578 1
577 591 1
577 592 1
577 621 1
577 622 1
577 801 1
577 802 1
578 233 1
578 234 1
578 349 1
578 350 1
578 561 1
578 562 1
578 577 1
578 591 1
578 592 1
578 621 1
578 622 1
578 801 1
578 802 1
579 580 1
579 621 1
579 622 1
579 625 1
579 626 1
579 800 1
580 579 1
580 621 1
580 622 1
580 625 1
580 626 1
581 582 1
581 623 1
581 624 1
581 639 1
581 640 1
582 581 1
582 623 1
582 624 1
582 639 1
582 640 1
583 269 1
583 270 1
583 271 1
583 272 1
583 273 1
583 274 1
583 275 1
583 276 1
583 277 1
583 278 1
583 555 1
583 556 1
583 584 1
583 607 1
583 608 1
583 713 1
583 714 1
583 717 1
583 718 1
583 719 1
583 720 1
584 269 1
584 270 1
584 271 1
584 272 1
584 273 1
584 274 1
584 275 1
584 276 1
584 277 1
584 278 1
584 284 1
584 555 1
584 556 1
584 583 1
584 607 1
584 608 1
584 713 1
584 714 1
584 717 1
584 718 1
584 719 1
584 720 1
585 565 1
585 566 1
585 586 1
585 587 1
585 588 1
585 745 1
585 746 1
586 266 1
586 268 1
586 565 1
586 566 1
586 585 1
586 587 1
586 588 1
586 745 1
586 746 1
586 767 1
586 768 1
587 565 1
587 566 1
587 585 1
587 586 1
587 588 1
587 745 1
587 746 1
587 767 1
588 565 1
588 566 1
588 585 1
588 586 1
588 587 1
588 745 1
588 746 1
589 590 1
589 595 1
589 596 1
589 617 1
589 618 1
590 589 1
590 595 1
590 596 1
590 617 1
590 618 1
591 233 1
591 234 1
591 329 1
591 330 1
591 349 1
591 350 1
591 351 1
591 352 1
591 561 1
591 562 1
591 577 1
591 578 1
591 592 1
591 621 1
591 622 1
591 633 1
591 634 1
591 767 1
591 801 1
591 802 1
592 233 1
592 234 1
592 329 1
592 330 1
592 349 1
592 350 1
592 351 1
592 352 1
592 561 1
592 562 1
592 577 1
592 578 1
592 591 1
592 621 1
592 622 1
592 633 1
592 634 1
592 801 1
592 802 1
593 557 1
593 558 1
593 594 1
593 597 1
593 598 1
593 613 1
593 614 1
593 631 1
593 632 1
593 665 1
593 666 1
593 767 1
593 768 1
593 785 1
593 786 1
594 321 1
594 323 1
594 557 1
594 558 1
594 593 1
594 597 1
594 598 1
594 613 1
594 614 1
594 631 1
594 632 1
594 665 1
594 666 1
594 767 1
594 768 1
594 785 1
594 786 1
595 589 1
595 590 1
595 596 1
595 601 1
595 602 1
595 617 1
595 618 1
596 589 1
596 590 1
596 595 1
596 601 1
596 602 1
596 617 1
596 618 1
597 519 1
597 520 1
597 557 1
597 558 1
597 593 1
597 594 1
597 598 1
597 613 1
597 614 1
597 665 1
597 666 1
597 767 1
597 768 1
597 785 1
597 786 1
598 519 1
598 520 1
598 557 1
598 558 1
598 593 1
598 594 1
598 597 1
598 613 1
598 614 1
598 665 1
598 666 1
598 768 1
598 785 1
598 786 1
599 13 1
599 14 1
599 15 1
599 16 1
599 321 1
599 322 1
599 323 1
599 324 1
599 557 1
599 558 1
599 600 1
599 665 1
599 666 1
599 745 1
599 746 1
599 767 1
599 768 1
600 13 1
600 14 1
600 15 1
600 16 1
600 321 1
600 322 1
600 323 1
600 324 1
600 557 1
600 558 1
600 599 1
600 665 1
600 666 1
600 745 1
600 746 1
600 767 1
600 768 1
601 330 1
601 559 1
601 560 1
601 565 1
601 566 1
601 595 1
601 596 1
601 602 1
601 635 1
601 636 1
602 559 1
602 560 1
602 565 1
602 566 1
602 595 1
602 596 1
602 601 1
602 635 1
602 636 1
603 265 1
603 266 1
603 267 1
603 268 1
603 559 1
603 560 1
603 604 1
604 262 1
604 265 1
604 266 1
604 267 1
604 268 1
604 559 1
604 560 1
604 603 1
605 288 1
605 471 1
605 472 1
605 561 1
605 562 1
605 606 1
606 287 1
606 471 1
606 472 1
606 561 1
606 562 1
606 605 1
607 273 1
607 274 1
607 275 1
607 276 1
607 278 1
607 555 1
607 556 1
607 583 1
607 584 1
607 608 1
607 714 1
607 717 1
607 718 1
607 719 1
607 720 1
607 787 1
607 788 1
608 269 1
608 270 1
608 271 1
608 272 1
608 274 1
608 276 1
608 555 1
608 556 1
608 583 1
608 584 1
608 607 1
608 718 1
608 720 1
608 787 1
608 788 1
609 527 1
609 528 1
609 610 1
609 611 1
609 612 1
609 628 1
609 804 1
610 527 1
610 528 1
610 609 1
610 611 1
610 612 1
610 627 1
611 527 1
611 528 1
611 609 1
611 610 1
611 612 1
611 627 1
611 628 1
611 703 1
611 704 1
611 819 1
611 820 1
612 527 1
612 528 1
612 609 1
612 610 1
612 611 1
612 627 1
612 628 1
612 703 1
612 704 1
612 819 1
612 820 1
613 83 1
613 84 1
613 85 1
613 86 1
613 557 1
613 558 1
613 593 1
613 594 1
613 597 1
613 598 1
613 614 1
613 665 1
613 666 1
613 747 1
613 748 1
613 765 1
613 766 1
613 768 1
613 785 1
613 786 1
614 83 1
614 84 1
614 85 1
614 86 1
614 557 1
614 558 1
614 593 1
614 594 1
614 597 1
614 598 1
614 613 1
614 665 1
614 666 1
614 747 1
614 748 1
614 765 1
614 766 1
614 767 1
614 768 1
614 785 1
614 786 1
615 127 1
615 128 1
615 129 1
615 154 1
615 179 1
615 180 1
615 183 1
615 184 1
615 206 1
615 214 1
615 402 1
615 616 1
615 617 1
615 618 1
615 619 1
615 620 1
615 667 1
615 826 1
615 827 1
615 912 1
616 127 1
616 128 1
616 130 1
616 179 1
616 180 1
616 184 1
616 205 1
616 206 1
616 213 1
616 299 1
616 301 1
616 615 1
616 617 1
616 618 1
616 619 1
616 620 1
616 667 1
616 827 1
616 912 1
617 589 1
617 590 1
617 595 1
617 596 1
617 615 1
617 616 1
617 618 1
618 127 1
618 130 1
618 205 1
618 303 1
618 305 1
618 589 1
618 590 1
618 595 1
618 596 1
618 615 1
618 616 1
618 617 1
618 667 1
619 117 1
619 118 1
619 119 1
619 120 1
619 151 1
619 152 1
619 153 1
619 154 1
619 180 1
619 181 1
619 183 1
619 401 1
619 402 1
619 563 1
619 564 1
619 615 1
619 616 1
619 620 1
619 667 1
619 668 1
619 825 1
619 826 1
619 829 1
619 830 1
620 117 1
620 118 1
620 119 1
620 120 1
620 127 1
620 151 1
620 152 1
620 153 1
620 183 1
620 184 1
620 210 1
620 212 1
620 401 1
620 402 1
620 563 1
620 564 1
620 615 1
620 616 1
620 619 1
620 667 1
620 668 1
620 825 1
620 826 1
620 829 1
620 830 1
621 233 1
621 234 1
621 349 1
621 350 1
621 561 1
621 562 1
621 577 1
621 578 1
621 579 1
621 580 1
621 591 1
621 592 1
621 622 1
621 625 1
621 626 1
621 801 1
621 802 1
622 233 1
622 234 1
622 349 1
622 350 1
622 561 1
622 562 1
622 577 1
622 578 1
622 579 1
622 580 1
622 591 1
622 592 1
622 621 1
622 625 1
622 626 1
622 801 1
622 802 1
623 581 1
623 582 1
623 624 1
623 625 1
623 626 1
623 639 1
623 640 1
624 581 1
624 582 1
624 623 1
624 625 1
624 626 1
624 639 1
624 640 1
625 579 1
625 580 1
625 621 1
625 622 1
625 623 1
625 624 1
625 626 1
626 579 1
626 580 1
626 621 1
626 622 1
626 623 1
626 624 1
626 625 1
627 523 1
627 524 1
627 610 1
627 611 1
627 612 1
627 628 1
627 703 1
627 704 1
627 803 1
627 804 1
627 819 1
627 820 1
628 523 1
628 524 1
628 609 1
628 611 1
628 612 1
628 627 1
628 703 1
628 704 1
628 803 1
628 804 1
628 819 1
628 820 1
629 269 1
629 270 1
629 271 1
629 272 1
629 291 1
629 292 1
629 630 1
629 631 1
629 632 1
629 768 1
630 269 1
630 270 1
630 271 1
630 272 1
630 291 1
630 292 1
630 629 1
630 631 1
630 632 1
630 768 1
631 321 1
631 323 1
631 593 1
631 594 1
631 629 1
631 630 1
631 632 1
631 767 1
631 768 1
632 593 1
632 594 1
632 629 1
632 630 1
632 631 1
632 767 1
633 329 1
633 330 1
633 351 1
633 352 1
633 591 1
633 592 1
633 634 1
633 635 1
633 636 1
633 767 1
634 329 1
634 330 1
634 351 1
634 352 1
634 591 1
634 592 1
634 633 1
634 635 1
634 636 1
634 767 1
635 330 1
635 559 1
635 560 1
635 565 1
635 566 1
635 601 1
635 602 1
635 633 1
635 634 1
635 636 1
636 559 1
636 560 1
636 565 1
636 566 1
636 601 1
636 602 1
636 633 1
636 634 1
636 635 1
636 767 1
637 525 1
637 526 1
637 638 1
637 639 1
637 640 1
637 833 1
637 834 1
638 525 1
638 526 1
638 637 1
638 639 1
638 640 1
638 833 1
638 834 1
639 525 1
639 526 1
639 581 1
639 582 1
639 623 1
639 624 1
639 637 1
639 638 1
639 640 1
640 525 1
640 526 1
640 581 1
640 582 1
640 623 1
640 624 1
640 637 1
640 638 1
640 639 1
641 151 1
641 152 1
641 153 1
641 154 1
641 295 1
641 296 1
641 311 1
641 312 1
641 313 1
641 314 1
641 575 1
641 576 1
641 642 1
641 643 1
641 644 1
641 667 1
641 668 1
641 715 1
641 716 1
642 151 1
642 152 1
642 153 1
642 154 1
642 183 1
642 295 1
642 296 1
642 311 1
642 312 1
642 313 1
642 314 1
642 575 1
642 576 1
642 641 1
642 643 1
642 644 1
642 667 1
642 668 1
642 715 1
642 716 1
643 151 1
643 152 1
643 153 1
643 154 1
643 295 1
643 296 1
643 311 1
643 312 1
643 313 1
643 314 1
643 575 1
643 576 1
643 641 1
643 642 1
643 644 1
643 667 1
643 668 1
643 715 1
643 716 1
644 151 1
644 152 1
644 153 1
644 154 1
644 183 1
644 295 1
644 296 1
644 311 1
644 312 1
644 313 1
644 314 1
644 575 1
644 576 1
644 641 1
644 642 1
644 643 1
644 667 1
644 668 1
644 715 1
644 716 1
645 265 1
645 266 1
645 267 1
645 268 1
645 566 1
645 646 1
645 661 1
645 662 1
646 265 1
646 266 1
646 267 1
646 268 1
646 645 1
646 661 1
646 662 1
647 39 1
647 40 1
647 41 1
647 42 1
647 43 1
647 44 1
647 45 1
647 46 1
647 648 1
648 39 1
648 40 1
648 41 1
648 42 1
648 43 1
648 44 1
648 45 1
648 46 1
648 647 1
649 650 1
650 649 1
651 67 1
651 68 1
651 69 1
651 70 1
651 80 1
651 103 1
651 104 1
651 495 1
651 496 1
651 652 1
651 835 1
651 836 1
652 67 1
652 68 1
652 69 1
652 70 1
652 103 1
652 104 1
652 495 1
652 496 1
652 651 1
652 835 1
652 836 1
653 181 1
653 183 1
653 191 1
653 192 1
653 193 1
653 194 1
653 217 1
653 218 1
653 285 1
653 309 1
653 377 1
653 378 1
653 654 1
654 180 1
654 191 1
654 192 1
654 193 1
654 194 1
654 205 1
654 217 1
654 218 1
654 377 1
654 378 1
654 653 1
654 773 1
655 3 1
655 4 1
655 17 1
655 18 1
655 47 1
655 48 1
655 55 1
655 64 1
655 66 1
655 89 1
655 90 1
655 99 1
655 100 1
655 101 1
655 102 1
655 113 1
655 126 1
655 189 1
655 201 1
655 207 1
655 208 1
655 656 1
655 657 1
655 658 1
655 659 1
655 777 1
655 778 1
655 907 1
655 908 1
656 3 1
656 4 1
656 17 1
656 18 1
656 47 1
656 48 1
656 56 1
656 65 1
656 89 1
656 90 1
656 99 1
656 100 1
656 101 1
656 102 1
656 114 1
656 125 1
656 141 1
656 190 1
656 207 1
656 208 1
656 252 1
656 655 1
656 657 1
656 658 1
656 777 1
656 778 1
656 907 1
656 908 1
657 3 1
657 4 1
657 18 1
657 47 1
657 48 1
657 64 1
657 66 1
657 89 1
657 90 1
657 101 1
657 113 1
657 114 1
657 116 1
657 125 1
657 142 1
657 189 1
657 190 1
657 251 1
657 655 1
657 656 1
657 658 1
657 777 1
657 778 1
657 857 1
657 858 1
658 3 1
658 4 1
658 17 1
658 47 1
658 48 1
658 63 1
658 65 1
658 89 1
658 90 1
658 102 1
658 113 1
658 126 1
658 142 1
658 190 1
658 207 1
658 251 1
658 655 1
658 656 1
658 657 1
658 777 1
658 778 1
658 857 1
658 858 1
659 3 1
659 4 1
659 19 1
659 20 1
659 55 1
659 56 1
659 99 1
659 100 1
659 125 1
659 126 1
659 201 1
659 202 1
659 497 1
659 498 1
659 501 1
659 502 1
659 505 1
659 506 1
659 655 1
659 660 1
659 908 1
660 3 1
660 4 1
660 19 1
660 20 1
660 55 1
660 56 1
660 99 1
660 100 1
660 125 1
660 126 1
660 201 1
660 202 1
660 497 1
660 498 1
660 501 1
660 502 1
660 505 1
660 506 1
660 659 1
661 645 1
661 646 1
661 662 1
662 645 1
662 646 1
662 661 1
663 664 1
663 743 1
663 744 1
663 747 1
663 748 1
664 663 1
664 743 1
664 744 1
664 747 1
664 748 1
665 13 1
665 14 1
665 15 1
665 16 1
665 321 1
665 322 1
665 323 1
665 324 1
665 557 1
665 558 1
665 593 1
665 594 1
665 597 1
665 598 1
665 599 1
665 600 1
665 613 1
665 614 1
665 666 1
665 767 1
665 768 1
665 785 1
665 786 1
666 13 1
666 14 1
666 15 1
666 16 1
666 321 1
666 322 1
666 323 1
666 324 1
666 557 1
666 558 1
666 593 1
666 594 1
666 597 1
666 598 1
666 599 1
666 600 1
666 613 1
666 614 1
666 665 1
666 767 1
666 768 1
666 785 1
666 786 1
667 117 1
667 118 1
667 119 1
667 120 1
667 130 1
667 151 1
667 153 1
667 154 1
667 183 1
667 184 1
667 205 1
667 206 1
667 209 1
667 210 1
667 211 1
667 212 1
667 213 1
667 214 1
667 217 1
667 218 1
667 300 1
667 302 1
667 311 1
667 312 1
667 313 1
667 314 1
667 401 1
667 402 1
667 563 1
667 564 1
667 575 1
667 576 1
667 615 1
667 616 1
667 618 1
667 619 1
667 620 1
667 641 1
667 642 1
667 643 1
667 644 1
667 668 1
667 773 1
667 825 1
667 826 1
667 829 1
667 830 1
668 117 1
668 118 1
668 119 1
668 120 1
668 152 1
668 153 1
668 154 1
668 183 1
668 184 1
668 213 1
668 217 1
668 299 1
668 301 1
668 311 1
668 312 1
668 313 1
668 314 1
668 401 1
668 402 1
668 449 1
668 563 1
668 564 1
668 575 1
668 576 1
668 619 1
668 620 1
668 641 1
668 642 1
668 643 1
668 644 1
668 667 1
668 825 1
668 826 1
668 829 1
668 830 1
669 670 1
669 695 1
669 696 1
670 173 1
670 429 1
670 669 1
670 695 1
670 696 1
671 299 1
671 300 1
671 301 1
671 302 1
671 303 1
671 304 1
671 305 1
671 306 1
671 672 1
672 299 1
672 300 1
672 301 1
672 302 1
672 303 1
672 304 1
672 305 1
672 306 1
672 671 1
673 43 1
673 45 1
673 131 1
673 132 1
673 133 1
673 134 1
673 245 1
673 246 1
673 674 1
673 675 1
673 676 1
673 710 1
674 44 1
674 46 1
674 131 1
674 132 1
674 133 1
674 134 1
674 239 1
674 245 1
674 246 1
674 673 1
674 675 1
674 676 1
674 709 1
675 43 1
675 45 1
675 131 1
675 132 1
675 133 1
675 134 1
675 245 1
675 246 1
675 673 1
675 674 1
675 676 1
675 710 1
676 44 1
676 46 1
676 131 1
676 132 1
676 133 1
676 134 1
676 239 1
676 245 1
676 246 1
676 673 1
676 674 1
676 675 1
676 709 1
677 87 1
677 88 1
677 485 1
677 486 1
677 678 1
677 679 1
677 680 1
677 865 1
677 866 1
678 87 1
678 88 1
678 485 1
678 486 1
678 677 1
678 679 1
678 680 1
678 865 1
678 866 1
679 677 1
679 678 1
679 680 1
679 681 1
679 682 1
680 677 1
680 678 1
680 679 1
680 681 1
680 682 1
681 679 1
681 680 1
681 682 1
681 683 1
681 684 1
682 679 1
682 680 1
682 681 1
682 683 1
682 684 1
683 681 1
683 682 1
683 684 1
683 685 1
683 686 1
684 681 1
684 682 1
684 683 1
684 685 1
684 686 1
685 683 1
685 684 1
685 686 1
685 687 1
685 688 1
686 683 1
686 684 1
686 685 1
686 687 1
686 688 1
687 685 1
687 686 1
687 688 1
687 689 1
687 690 1
688 685 1
688 686 1
688 687 1
688 689 1
688 690 1
689 687 1
689 688 1
689 690 1
689 691 1
689 692 1
690 687 1
690 688 1
690 689 1
690 691 1
690 692 1
691 689 1
691 690 1
691 692 1
691 693 1
691 694 1
692 689 1
692 690 1
692 691 1
692 693 1
692 694 1
693 229 1
693 230 1
693 691 1
693 692 1
693 694 1
694 186 1
694 188 1
694 229 1
694 230 1
694 691 1
694 692 1
694 693 1
695 669 1
695 670 1
695 696 1
695 697 1
695 698 1
696 669 1
696 670 1
696 695 1
696 697 1
696 698 1
697 695 1
697 696 1
697 698 1
698 695 1
698 696 1
698 697 1
699 700 1
700 699 1
701 702 1
702 701 1
703 611 1
703 612 1
703 627 1
703 628 1
703 704 1
703 705 1
703 706 1
703 819 1
703 820 1
704 611 1
704 612 1
704 627 1
704 628 1
704 703 1
704 705 1
704 706 1
704 819 1
704 820 1
705 703 1
705 704 1
705 706 1
706 703 1
706 704 1
706 705 1
707 421 1
707 423 1
707 708 1
708 422 1
708 424 1
708 707 1
709 19 1
709 20 1
709 43 1
709 44 1
709 45 1
709 46 1
709 47 1
709 48 1
709 111 1
709 131 1
709 134 1
709 169 1
709 170 1
709 239 1
709 240 1
709 513 1
709 532 1
709 674 1
709 676 1
709 710 1
709 779 1
709 780 1
709 781 1
709 782 1
710 19 1
710 20 1
710 43 1
710 44 1
710 45 1
710 46 1
710 47 1
710 48 1
710 111 1
710 112 1
710 132 1
710 133 1
710 142 1
710 147 1
710 149 1
710 169 1
710 170 1
710 239 1
710 240 1
710 251 1
710 673 1
710 675 1
710 709 1
710 779 1
710 780 1
710 781 1
710 782 1
711 335 1
711 336 1
711 712 1
711 915 1
711 916 1
712 335 1
712 336 1
712 711 1
712 915 1
712 916 1
713 143 1
713 144 1
713 145 1
713 146 1
713 269 1
713 270 1
713 271 1
713 272 1
713 273 1
713 274 1
713 275 1
713 276 1
713 277 1
713 278 1
713 281 1
713 282 1
713 283 1
713 284 1
713 341 1
713 342 1
713 343 1
713 344 1
713 555 1
713 556 1
713 583 1
713 584 1
713 714 1
713 717 1
713 718 1
713 719 1
713 720 1
713 721 1
713 722 1
713 723 1
713 724 1
714 143 1
714 144 1
714 145 1
714 146 1
714 269 1
714 270 1
714 271 1
714 272 1
714 273 1
714 274 1
714 275 1
714 276 1
714 277 1
714 278 1
714 281 1
714 282 1
714 283 1
714 284 1
714 341 1
714 342 1
714 343 1
714 344 1
714 555 1
714 556 1
714 583 1
714 584 1
714 607 1
714 713 1
714 717 1
714 718 1
714 719 1
714 720 1
714 721 1
714 722 1
714 723 1
714 724 1
715 151 1
715 152 1
715 217 1
715 295 1
715 296 1
715 641 1
715 642 1
715 643 1
715 644 1
715 716 1
716 151 1
716 152 1
716 183 1
716 295 1
716 296 1
716 641 1
716 642 1
716 643 1
716 644 1
716 715 1
717 143 1
717 144 1
717 145 1
717 146 1
717 269 1
717 270 1
717 271 1
717 272 1
717 273 1
717 274 1
717 275 1
717 276 1
717 277 1
717 278 1
717 555 1
717 556 1
717 583 1
717 584 1
717 607 1
717 713 1
717 714 1
717 718 1
717 719 1
717 720 1
717 721 1
717 722 1
717 723 1
717 724 1
718 143 1
718 144 1
718 145 1
718 146 1
718 269 1
718 270 1
718 271 1
718 272 1
718 273 1
718 274 1
718 275 1
718 276 1
718 277 1
718 278 1
718 555 1
718 556 1
718 583 1
718 584 1
718 607 1
718 608 1
718 713 1
718 714 1
718 717 1
718 719 1
718 720 1
718 721 1
718 722 1
718 723 1
718 724 1
718 787 1
719 143 1
719 144 1
719 145 1
719 146 1
719 269 1
719 270 1
719 271 1
719 272 1
719 273 1
719 274 1
719 275 1
719 276 1
719 277 1
719 278 1
719 555 1
719 556 1
719 583 1
719 584 1
719 607 1
719 713 1
719 714 1
719 717 1
719 718 1
719 720 1
719 721 1
719 722 1
719 723 1
719 724 1
720 143 1
720 144 1
720 145 1
720 146 1
720 269 1
720 270 1
720 271 1
720 272 1
720 273 1
720 274 1
720 275 1
720 276 1
720 277 1
720 278 1
720 555 1
720 556 1
720 583 1
720 584 1
720 607 1
720 608 1
720 713 1
720 714 1
720 717 1
720 718 1
720 719 1
720 721 1
720 722 1
720 723 1
720 724 1
720 787 1
721 143 1
721 144 1
721 145 1
721 146 1
721 273 1
721 274 1
721 275 1
721 276 1
721 277 1
721 278 1
721 281 1
721 282 1
721 283 1
721 284 1
721 341 1
721 342 1
721 343 1
721 344 1
721 713 1
721 714 1
721 717 1
721 718 1
721 719 1
721 720 1
721 722 1
721 723 1
721 724 1
721 788 1
722 143 1
722 144 1
722 145 1
722 146 1
722 273 1
722 274 1
722 275 1
722 276 1
722 277 1
722 278 1
722 281 1
722 282 1
722 283 1
722 284 1
722 341 1
722 342 1
722 343 1
722 344 1
722 713 1
722 714 1
722 717 1
722 718 1
722 719 1
722 720 1
722 721 1
722 723 1
722 724 1
723 143 1
723 144 1
723 145 1
723 146 1
723 273 1
723 274 1
723 275 1
723 276 1
723 277 1
723 278 1
723 281 1
723 282 1
723 283 1
723 284 1
723 341 1
723 342 1
723 343 1
723 344 1
723 713 1
723 714 1
723 717 1
723 718 1
723 719 1
723 720 1
723 721 1
723 722 1
723 724 1
723 788 1
724 143 1
724 144 1
724 145 1
724 146 1
724 273 1
724 274 1
724 275 1
724 276 1
724 277 1
724 278 1
724 281 1
724 282 1
724 283 1
724 284 1
724 341 1
724 342 1
724 343 1
724 344 1
724 713 1
724 714 1
724 717 1
724 718 1
724 719 1
724 720 1
724 721 1
724 722 1
724 723 1
725 155 1
725 156 1
725 157 1
725 158 1
725 339 1
725 340 1
725 345 1
725 346 1
725 347 1
725 348 1
725 726 1
725 727 1
725 728 1
726 155 1
726 156 1
726 157 1
726 158 1
726 339 1
726 340 1
726 345 1
726 346 1
726 347 1
726 348 1
726 725 1
726 727 1
726 728 1
727 155 1
727 156 1
727 157 1
727 158 1
727 339 1
727 340 1
727 345 1
727 346 1
727 347 1
727 348 1
727 725 1
727 726 1
727 728 1
728 155 1
728 156 1
728 157 1
728 158 1
728 339 1
728 340 1
728 345 1
728 346 1
728 347 1
728 348 1
728 725 1
728 726 1
728 727 1
729 331 1
729 333 1
729 353 1
729 354 1
729 379 1
729 380 1
729 385 1
729 386 1
729 395 1
729 396 1
729 455 1
729 456 1
729 479 1
729 480 1
729 730 1
729 731 1
729 732 1
730 353 1
730 354 1
730 379 1
730 380 1
730 385 1
730 386 1
730 395 1
730 396 1
730 455 1
730 456 1
730 479 1
730 480 1
730 729 1
730 731 1
730 732 1
731 331 1
731 333 1
731 353 1
731 354 1
731 379 1
731 380 1
731 385 1
731 386 1
731 395 1
731 396 1
731 455 1
731 456 1
731 479 1
731 480 1
731 729 1
731 730 1
731 732 1
732 353 1
732 354 1
732 379 1
732 380 1
732 385 1
732 386 1
732 395 1
732 396 1
732 455 1
732 456 1
732 479 1
732 480 1
732 729 1
732 730 1
732 731 1
733 383 1
733 384 1
733 387 1
733 388 1
733 547 1
733 548 1
733 734 1
734 293 1
734 383 1
734 384 1
734 387 1
734 388 1
734 547 1
734 548 1
734 733 1
735 294 1
735 736 1
735 737 1
735 738 1
736 293 1
736 294 1
736 735 1
736 737 1
736 738 1
737 294 1
737 735 1
737 736 1
737 738 1
738 293 1
738 294 1
738 735 1
738 736 1
738 737 1
739 71 1
739 72 1
739 260 1
739 335 1
739 393 1
739 394 1
739 740 1
740 71 1
740 72 1
740 259 1
740 260 1
740 335 1
740 393 1
740 394 1
740 739 1
741 117 1
741 181 1
741 182 1
741 183 1
741 184 1
741 299 1
741 301 1
741 369 1
741 370 1
741 377 1
741 378 1
741 405 1
741 406 1
741 477 1
741 478 1
741 742 1
741 773 1
741 774 1
742 181 1
742 182 1
742 183 1
742 184 1
742 369 1
742 370 1
742 377 1
742 378 1
742 405 1
742 406 1
742 477 1
742 478 1
742 741 1
742 773 1
742 774 1
743 263 1
743 264 1
743 325 1
743 326 1
743 327 1
743 328 1
743 663 1
743 664 1
743 744 1
743 747 1
743 748 1
743 763 1
743 764 1
744 263 1
744 264 1
744 325 1
744 326 1
744 327 1
744 328 1
744 663 1
744 664 1
744 743 1
744 747 1
744 748 1
744 763 1
744 764 1
745 565 1
745 566 1
745 585 1
745 586 1
745 587 1
745 588 1
745 599 1
745 600 1
745 746 1
745 767 1
746 565 1
746 566 1
746 585 1
746 586 1
746 587 1
746 588 1
746 599 1
746 600 1
746 745 1
746 767 1
746 768 1
747 83 1
747 84 1
747 85 1
747 86 1
747 613 1
747 614 1
747 663 1
747 664 1
747 743 1
747 744 1
747 748 1
747 765 1
747 766 1
747 767 1
747 768 1
748 83 1
748 84 1
748 85 1
748 86 1
748 613 1
748 614 1
748 663 1
748 664 1
748 743 1
748 744 1
748 747 1
748 765 1
748 766 1
749 441 1
749 442 1
749 451 1
749 452 1
749 750 1
750 441 1
750 442 1
750 451 1
750 452 1
750 749 1
751 373 1
751 374 1
751 381 1
751 382 1
751 752 1
751 753 1
751 754 1
751 755 1
751 756 1
752 164 1
752 166 1
752 294 1
752 373 1
752 374 1
752 381 1
752 382 1
752 751 1
752 753 1
752 754 1
752 755 1
752 756 1
753 751 1
753 752 1
753 754 1
754 294 1
754 751 1
754 752 1
754 753 1
755 373 1
755 374 1
755 381 1
755 382 1
755 546 1
755 567 1
755 568 1
755 751 1
755 752 1
755 756 1
756 373 1
756 374 1
756 381 1
756 382 1
756 567 1
756 568 1
756 751 1
756 752 1
756 755 1
757 179 1
757 573 1
757 574 1
757 758 1
757 759 1
757 760 1
758 573 1
758 574 1
758 757 1
758 759 1
758 760 1
759 575 1
759 576 1
759 757 1
759 758 1
759 760 1
760 179 1
760 575 1
760 576 1
760 757 1
760 758 1
760 759 1
761 415 1
761 416 1
761 419 1
761 420 1
761 762 1
762 415 1
762 416 1
762 419 1
762 420 1
762 761 1
763 215 1
763 263 1
763 264 1
763 325 1
763 326 1
763 327 1
763 328 1
763 367 1
763 368 1
763 533 1
763 534 1
763 743 1
763 744 1
763 764 1
764 216 1
764 263 1
764 264 1
764 325 1
764 326 1
764 327 1
764 328 1
764 367 1
764 368 1
764 533 1
764 534 1
764 743 1
764 744 1
764 763 1
765 83 1
765 84 1
765 85 1
765 86 1
765 613 1
765 614 1
765 747 1
765 748 1
765 766 1
765 767 1
766 83 1
766 84 1
766 85 1
766 86 1
766 613 1
766 614 1
766 747 1
766 748 1
766 765 1
767 13 1
767 14 1
767 15 1
767 16 1
767 290 1
767 321 1
767 322 1
767 323 1
767 324 1
767 557 1
767 558 1
767 565 1
767 586 1
767 587 1
767 591 1
767 593 1
767 594 1
767 597 1
767 599 1
767 600 1
767 614 1
767 631 1
767 632 1
767 633 1
767 634 1
767 636 1
767 665 1
767 666 1
767 745 1
767 746 1
767 747 1
767 765 1
767 768 1
767 785 1
767 786 1
767 790 1
767 791 1
767 792 1
767 793 1
767 794 1
767 795 1
767 799 1
767 800 1
767 802 1
768 13 1
768 14 1
768 15 1
768 16 1
768 290 1
768 321 1
768 322 1
768 323 1
768 324 1
768 557 1
768 558 1
768 565 1
768 586 1
768 593 1
768 594 1
768 597 1
768 598 1
768 599 1
768 600 1
768 613 1
768 614 1
768 629 1
768 630 1
768 631 1
768 665 1
768 666 1
768 746 1
768 747 1
768 767 1
768 785 1
768 788 1
768 789 1
768 790 1
768 792 1
768 793 1
768 798 1
768 799 1
768 800 1
768 802 1
769 120 1
769 154 1
769 179 1
769 180 1
769 184 1
769 217 1
769 439 1
769 563 1
769 564 1
769 770 1
769 827 1
769 912 1
770 120 1
770 152 1
770 153 1
770 218 1
770 563 1
770 564 1
770 769 1
771 387 1
771 388 1
771 397 1
771 398 1
771 481 1
771 482 1
771 772 1
771 783 1
771 784 1
772 387 1
772 388 1
772 397 1
772 398 1
772 481 1
772 482 1
772 771 1
772 783 1
772 784 1
773 181 1
773 217 1
773 654 1
773 667 1
773 741 1
773 742 1
773 774 1
774 181 1
774 217 1
774 741 1
774 742 1
774 773 1
775 279 1
775 417 1
775 418 1
775 419 1
775 420 1
775 776 1
775 913 1
775 914 1
776 417 1
776 418 1
776 419 1
776 420 1
776 775 1
776 913 1
776 914 1
777 3 1
777 4 1
777 47 1
777 48 1
777 89 1
777 90 1
777 141 1
777 190 1
777 207 1
777 252 1
777 655 1
777 656 1
777 657 1
777 658 1
777 778 1
778 3 1
778 4 1
778 47 1
778 48 1
778 65 1
778 89 1
778 90 1
778 99 1
778 113 1
778 114 1
778 116 1
778 125 1
778 126 1
778 141 1
778 142 1
778 189 1
778 190 1
778 201 1
778 207 1
778 208 1
778 251 1
778 252 1
778 655 1
778 656 1
778 657 1
778 658 1
778 777 1
779 19 1
779 20 1
779 43 1
779 44 1
779 45 1
779 46 1
779 47 1
779 48 1
779 111 1
779 112 1
779 147 1
779 149 1
779 159 1
779 160 1
779 161 1
779 162 1
779 169 1
779 170 1
779 239 1
779 240 1
779 242 1
779 244 1
779 246 1
779 709 1
779 710 1
779 780 1
779 781 1
779 782 1
780 19 1
780 20 1
780 43 1
780 44 1
780 45 1
780 46 1
780 47 1
780 48 1
780 111 1
780 112 1
780 132 1
780 133 1
780 142 1
780 148 1
780 150 1
780 159 1
780 160 1
780 161 1
780 162 1
780 169 1
780 170 1
780 239 1
780 240 1
780 241 1
780 243 1
780 245 1
780 248 1
780 250 1
780 251 1
780 709 1
780 710 1
780 779 1
780 781 1
780 782 1
781 19 1
781 20 1
781 43 1
781 44 1
781 45 1
781 46 1
781 47 1
781 48 1
781 111 1
781 112 1
781 147 1
781 149 1
781 159 1
781 160 1
781 161 1
781 162 1
781 169 1
781 170 1
781 239 1
781 240 1
781 242 1
781 244 1
781 246 1
781 709 1
781 710 1
781 779 1
781 780 1
781 782 1
782 19 1
782 20 1
782 43 1
782 44 1
782 45 1
782 46 1
782 47 1
782 48 1
782 111 1
782 112 1
782 132 1
782 133 1
782 142 1
782 148 1
782 150 1
782 159 1
782 160 1
782 161 1
782 162 1
782 169 1
782 170 1
782 239 1
782 240 1
782 241 1
782 243 1
782 245 1
782 248 1
782 250 1
782 251 1
782 709 1
782 710 1
782 779 1
782 780 1
782 781 1
783 387 1
783 388 1
783 397 1
783 398 1
783 435 1
783 436 1
783 475 1
783 476 1
783 481 1
783 482 1
783 771 1
783 772 1
783 784 1
784 387 1
784 388 1
784 397 1
784 398 1
784 435 1
784 436 1
784 475 1
784 476 1
784 481 1
784 482 1
784 771 1
784 772 1
784 783 1
785 84 1
785 86 1
785 557 1
785 558 1
785 593 1
785 594 1
785 597 1
785 598 1
785 613 1
785 614 1
785 665 1
785 666 1
785 767 1
785 768 1
785 786 1
786 557 1
786 558 1
786 593 1
786 594 1
786 597 1
786 598 1
786 613 1
786 614 1
786 665 1
786 666 1
786 767 1
786 785 1
787 269 1
787 271 1
787 274 1
787 276 1
787 555 1
787 556 1
787 607 1
787 608 1
787 718 1
787 720 1
787 788 1
787 789 1
787 790 1
788 143 1
788 145 1
788 555 1
788 556 1
788 607 1
788 608 1
788 721 1
788 723 1
788 768 1
788 787 1
788 789 1
788 790 1
789 768 1
789 787 1
789 788 1
789 790 1
789 791 1
789 792 1
790 80 1
790 289 1
790 767 1
790 768 1
790 787 1
790 788 1
790 789 1
790 791 1
790 792 1
791 767 1
791 789 1
791 790 1
791 792 1
791 793 1
791 794 1
792 767 1
792 768 1
792 789 1
792 790 1
792 791 1
792 793 1
792 794 1
793 767 1
793 768 1
793 791 1
793 792 1
793 794 1
793 795 1
793 796 1
794 767 1
794 791 1
794 792 1
794 793 1
794 795 1
794 796 1
795 767 1
795 793 1
795 794 1
795 796 1
795 797 1
795 798 1
796 793 1
796 794 1
796 795 1
796 797 1
796 798 1
797 795 1
797 796 1
797 798 1
797 799 1
797 800 1
798 768 1
798 795 1
798 796 1
798 797 1
798 799 1
798 800 1
799 767 1
799 768 1
799 797 1
799 798 1
799 800 1
799 801 1
799 802 1
800 579 1
800 767 1
800 768 1
800 797 1
800 798 1
800 799 1
800 801 1
800 802 1
801 233 1
801 234 1
801 349 1
801 350 1
801 561 1
801 562 1
801 577 1
801 578 1
801 591 1
801 592 1
801 621 1
801 622 1
801 799 1
801 800 1
801 802 1
802 233 1
802 234 1
802 349 1
802 350 1
802 561 1
802 562 1
802 577 1
802 578 1
802 591 1
802 592 1
802 621 1
802 622 1
802 767 1
802 768 1
802 799 1
802 800 1
802 801 1
803 523 1
803 524 1
803 627 1
803 628 1
803 804 1
803 805 1
803 806 1
804 523 1
804 524 1
804 609 1
804 627 1
804 628 1
804 803 1
804 805 1
804 806 1
805 803 1
805 804 1
805 806 1
805 807 1
805 808 1
806 803 1
806 804 1
806 805 1
806 807 1
806 808 1
807 805 1
807 806 1
807 808 1
807 809 1
807 810 1
807 811 1
807 812 1
808 805 1
808 806 1
808 807 1
808 809 1
808 810 1
808 811 1
808 812 1
809 807 1
809 808 1
809 810 1
809 811 1
809 812 1
810 807 1
810 808 1
810 809 1
810 811 1
810 812 1
811 219 1
811 220 1
811 807 1
811 808 1
811 809 1
811 810 1
811 812 1
811 813 1
811 814 1
812 219 1
812 220 1
812 807 1
812 808 1
812 809 1
812 810 1
812 811 1
812 813 1
812 814 1
813 219 1
813 220 1
813 811 1
813 812 1
813 814 1
813 815 1
813 816 1
814 219 1
814 220 1
814 811 1
814 812 1
814 813 1
814 815 1
814 816 1
815 813 1
815 814 1
815 816 1
815 817 1
815 818 1
816 813 1
816 814 1
816 815 1
816 817 1
816 818 1
817 182 1
817 184 1
817 369 1
817 370 1
817 371 1
817 372 1
817 375 1
817 376 1
817 815 1
817 816 1
817 818 1
818 182 1
818 369 1
818 370 1
818 371 1
818 372 1
818 375 1
818 376 1
818 815 1
818 816 1
818 817 1
819 611 1
819 612 1
819 627 1
819 628 1
819 703 1
819 704 1
819 820 1
819 821 1
819 822 1
820 611 1
820 612 1
820 627 1
820 628 1
820 703 1
820 704 1
820 819 1
820 821 1
820 822 1
821 819 1
821 820 1
821 822 1
821 823 1
821 824 1
822 819 1
822 820 1
822 821 1
822 823 1
822 824 1
823 469 1
823 470 1
823 821 1
823 822 1
823 824 1
823 859 1
823 860 1
823 865 1
823 866 1
824 469 1
824 470 1
824 821 1
824 822 1
824 823 1
824 859 1
824 860 1
824 865 1
824 866 1
825 117 1
825 118 1
825 119 1
825 120 1
825 151 1
825 152 1
825 153 1
825 180 1
825 183 1
825 184 1
825 401 1
825 402 1
825 563 1
825 564 1
825 619 1
825 620 1
825 667 1
825 668 1
825 826 1
825 829 1
825 830 1
826 117 1
826 118 1
826 119 1
826 120 1
826 152 1
826 154 1
826 180 1
826 181 1
826 183 1
826 184 1
826 401 1
826 402 1
826 563 1
826 564 1
826 615 1
826 619 1
826 620 1
826 667 1
826 668 1
826 825 1
826 829 1
826 830 1
827 117 1
827 118 1
827 120 1
827 130 1
827 151 1
827 152 1
827 179 1
827 180 1
827 184 1
827 209 1
827 211 1
827 217 1
827 439 1
827 440 1
827 449 1
827 450 1
827 615 1
827 616 1
827 769 1
827 828 1
827 911 1
827 912 1
828 117 1
828 118 1
828 119 1
828 128 1
828 151 1
828 152 1
828 179 1
828 180 1
828 183 1
828 184 1
828 439 1
828 440 1
828 449 1
828 450 1
828 563 1
828 827 1
828 911 1
828 912 1
829 117 1
829 118 1
829 119 1
829 120 1
829 127 1
829 153 1
829 183 1
829 184 1
829 401 1
829 402 1
829 563 1
829 564 1
829 619 1
829 620 1
829 667 1
829 668 1
829 825 1
829 826 1
829 830 1
830 117 1
830 118 1
830 119 1
830 120 1
830 152 1
830 154 1
830 180 1
830 183 1
830 401 1
830 402 1
830 563 1
830 564 1
830 619 1
830 620 1
830 667 1
830 668 1
830 825 1
830 826 1
830 829 1
831 75 1
831 76 1
831 77 1
831 78 1
831 257 1
831 258 1
831 521 1
831 522 1
831 832 1
832 75 1
832 76 1
832 77 1
832 78 1
832 257 1
832 258 1
832 521 1
832 522 1
832 831 1
833 637 1
833 638 1
833 834 1
834 637 1
834 638 1
834 833 1
835 67 1
835 68 1
835 69 1
835 70 1
835 651 1
835 652 1
835 836 1
835 837 1
835 838 1
835 879 1
835 880 1
836 67 1
836 68 1
836 69 1
836 70 1
836 651 1
836 652 1
836 835 1
836 837 1
836 838 1
836 879 1
836 880 1
837 27 1
837 28 1
837 835 1
837 836 1
837 838 1
837 895 1
837 896 1
838 27 1
838 28 1
838 835 1
838 836 1
838 837 1
838 895 1
838 896 1
839 441 1
839 840 1
839 841 1
839 842 1
839 845 1
839 846 1
839 869 1
839 870 1
840 441 1
840 839 1
840 841 1
840 842 1
840 844 1
840 845 1
840 846 1
840 869 1
840 870 1
841 839 1
841 840 1
841 842 1
841 843 1
841 844 1
841 869 1
841 870 1
842 839 1
842 840 1
842 841 1
842 843 1
842 844 1
842 869 1
842 870 1
843 841 1
843 842 1
843 844 1
843 845 1
843 846 1
843 847 1
843 848 1
843 849 1
843 850 1
843 869 1
843 870 1
844 840 1
844 841 1
844 842 1
844 843 1
844 845 1
844 846 1
844 847 1
844 848 1
844 849 1
844 850 1
844 869 1
844 870 1
845 839 1
845 840 1
845 843 1
845 844 1
845 846 1
845 847 1
845 848 1
845 849 1
845 850 1
845 869 1
845 870 1
846 441 1
846 839 1
846 840 1
846 843 1
846 844 1
846 845 1
846 847 1
846 848 1
846 849 1
846 850 1
846 869 1
846 870 1
847 843 1
847 844 1
847 845 1
847 846 1
847 848 1
847 849 1
847 850 1
847 869 1
847 870 1
848 843 1
848 844 1
848 845 1
848 846 1
848 847 1
848 849 1
848 850 1
848 869 1
848 870 1
849 843 1
849 844 1
849 845 1
849 846 1
849 847 1
849 848 1
849 850 1
849 869 1
849 870 1
850 843 1
850 844 1
850 845 1
850 846 1
850 847 1
850 848 1
850 849 1
850 869 1
850 870 1
851 63 1
851 64 1
851 65 1
851 66 1
851 121 1
851 122 1
851 189 1
851 852 1
851 853 1
851 854 1
852 63 1
852 64 1
852 65 1
852 66 1
852 115 1
852 121 1
852 122 1
852 142 1
852 251 1
852 851 1
852 853 1
852 854 1
852 856 1
853 18 1
853 48 1
853 56 1
853 101 1
853 125 1
853 142 1
853 189 1
853 202 1
853 251 1
853 498 1
853 501 1
853 506 1
853 510 1
853 514 1
853 851 1
853 852 1
853 854 1
853 855 1
853 856 1
853 857 1
853 858 1
854 126 1
854 190 1
854 502 1
854 851 1
854 852 1
854 853 1
854 855 1
854 856 1
854 857 1
854 858 1
855 125 1
855 142 1
855 189 1
855 202 1
855 251 1
855 498 1
855 501 1
855 506 1
855 853 1
855 854 1
855 856 1
855 857 1
855 858 1
856 65 1
856 142 1
856 207 1
856 251 1
856 497 1
856 498 1
856 852 1
856 853 1
856 854 1
856 855 1
856 857 1
856 858 1
857 657 1
857 658 1
857 853 1
857 854 1
857 855 1
857 856 1
857 858 1
858 18 1
858 101 1
858 657 1
858 658 1
858 853 1
858 854 1
858 855 1
858 856 1
858 857 1
859 93 1
859 108 1
859 468 1
859 469 1
859 470 1
859 823 1
859 824 1
859 860 1
859 865 1
859 866 1
859 905 1
860 467 1
860 469 1
860 470 1
860 823 1
860 824 1
860 859 1
860 865 1
860 866 1
861 7 1
861 9 1
861 197 1
861 198 1
861 199 1
861 200 1
861 862 1
861 899 1
861 900 1
861 901 1
861 902 1
862 10 1
862 197 1
862 198 1
862 199 1
862 200 1
862 861 1
862 899 1
862 900 1
862 901 1
862 902 1
863 195 1
863 196 1
863 489 1
863 490 1
863 864 1
863 883 1
863 884 1
864 195 1
864 196 1
864 489 1
864 490 1
864 863 1
864 883 1
864 884 1
865 87 1
865 88 1
865 469 1
865 470 1
865 485 1
865 486 1
865 677 1
865 678 1
865 823 1
865 824 1
865 859 1
865 860 1
865 866 1
866 87 1
866 88 1
866 469 1
866 470 1
866 485 1
866 486 1
866 677 1
866 678 1
866 823 1
866 824 1
866 859 1
866 860 1
866 865 1
867 23 1
867 24 1
867 49 1
867 50 1
867 51 1
867 52 1
867 105 1
867 106 1
867 868 1
867 877 1
867 878 1
867 881 1
867 882 1
867 893 1
867 894 1
868 23 1
868 24 1
868 49 1
868 50 1
868 51 1
868 52 1
868 105 1
868 106 1
868 867 1
868 877 1
868 878 1
868 881 1
868 882 1
868 893 1
868 894 1
869 839 1
869 840 1
869 841 1
869 842 1
869 843 1
869 844 1
869 845 1
869 846 1
869 847 1
869 848 1
869 849 1
869 850 1
869 870 1
870 839 1
870 840 1
870 841 1
870 842 1
870 843 1
870 844 1
870 845 1
870 846 1
870 847 1
870 848 1
870 849 1
870 850 1
870 869 1
871 1 1
871 2 1
871 171 1
871 172 1
871 199 1
871 200 1
871 872 1
871 897 1
871 898 1
871 899 1
871 900 1
872 1 1
872 2 1
872 171 1
872 172 1
872 199 1
872 200 1
872 871 1
872 897 1
872 898 1
872 899 1
872 900 1
873 223 1
873 224 1
873 227 1
873 228 1
873 874 1
874 223 1
874 224 1
874 227 1
874 228 1
874 873 1
875 876 1
875 877 1
875 878 1
875 879 1
875 880 1
875 903 1
875 904 1
876 875 1
876 877 1
876 878 1
876 879 1
876 880 1
876 903 1
876 904 1
877 867 1
877 868 1
877 875 1
877 876 1
877 878 1
877 881 1
877 882 1
878 867 1
878 868 1
878 875 1
878 876 1
878 877 1
878 881 1
878 882 1
879 67 1
879 68 1
879 69 1
879 70 1
879 835 1
879 836 1
879 875 1
879 876 1
879 880 1
879 903 1
879 904 1
880 67 1
880 68 1
880 69 1
880 70 1
880 80 1
880 835 1
880 836 1
880 875 1
880 876 1
880 879 1
880 903 1
880 904 1
881 51 1
881 52 1
881 53 1
881 54 1
881 867 1
881 868 1
881 877 1
881 878 1
881 882 1
882 51 1
882 52 1
882 53 1
882 54 1
882 867 1
882 868 1
882 877 1
882 878 1
882 881 1
883 489 1
883 490 1
883 863 1
883 864 1
883 884 1
883 901 1
883 902 1
884 489 1
884 490 1
884 863 1
884 864 1
884 883 1
884 901 1
884 902 1
885 463 1
885 464 1
885 886 1
885 887 1
885 888 1
885 897 1
885 898 1
886 463 1
886 464 1
886 885 1
886 887 1
886 888 1
886 897 1
886 898 1
887 463 1
887 464 1
887 885 1
887 886 1
887 888 1
887 897 1
887 898 1
888 463 1
888 464 1
888 885 1
888 886 1
888 887 1
888 897 1
888 898 1
889 21 1
889 22 1
889 890 1
889 891 1
889 892 1
889 893 1
889 894 1
890 21 1
890 22 1
890 889 1
890 891 1
890 892 1
890 893 1
890 894 1
891 21 1
891 22 1
891 889 1
891 890 1
891 892 1
891 893 1
891 894 1
892 21 1
892 22 1
892 889 1
892 890 1
892 891 1
892 893 1
892 894 1
893 51 1
893 52 1
893 867 1
893 868 1
893 889 1
893 890 1
893 891 1
893 892 1
893 894 1
894 51 1
894 52 1
894 867 1
894 868 1
894 889 1
894 890 1
894 891 1
894 892 1
894 893 1
895 441 1
895 837 1
895 838 1
895 896 1
896 837 1
896 838 1
896 895 1
897 1 1
897 2 1
897 463 1
897 464 1
897 871 1
897 872 1
897 885 1
897 886 1
897 887 1
897 888 1
897 898 1
897 899 1
897 900 1
898 1 1
898 2 1
898 463 1
898 464 1
898 871 1
898 872 1
898 885 1
898 886 1
898 887 1
898 888 1
898 897 1
898 899 1
898 900 1
899 1 1
899 2 1
899 200 1
899 861 1
899 862 1
899 871 1
899 872 1
899 897 1
899 898 1
899 900 1
899 901 1
899 902 1
900 1 1
900 2 1
900 861 1
900 862 1
900 871 1
900 872 1
900 897 1
900 898 1
900 899 1
900 901 1
900 902 1
901 861 1
901 862 1
901 883 1
901 884 1
901 899 1
901 900 1
901 902 1
902 861 1
902 862 1
902 883 1
902 884 1
902 899 1
902 900 1
902 901 1
903 875 1
903 876 1
903 879 1
903 880 1
903 904 1
904 875 1
904 876 1
904 879 1
904 880 1
904 903 1
905 25 1
905 91 1
905 92 1
905 95 1
905 96 1
905 97 1
905 98 1
905 107 1
905 108 1
905 859 1
905 906 1
906 26 1
906 91 1
906 92 1
906 95 1
906 96 1
906 97 1
906 98 1
906 107 1
906 108 1
906 905 1
907 17 1
907 18 1
907 55 1
907 56 1
907 99 1
907 100 1
907 101 1
907 102 1
907 207 1
907 208 1
907 655 1
907 656 1
907 908 1
908 3 1
908 4 1
908 17 1
908 18 1
908 55 1
908 56 1
908 99 1
908 100 1
908 101 1
908 102 1
908 126 1
908 201 1
908 202 1
908 207 1
908 208 1
908 655 1
908 656 1
908 659 1
908 907 1
909 33 1
909 34 1
909 35 1
909 36 1
909 39 1
909 40 1
909 41 1
909 42 1
909 499 1
909 500 1
909 503 1
909 504 1
909 511 1
909 512 1
909 910 1
910 33 1
910 34 1
910 35 1
910 36 1
910 39 1
910 40 1
910 41 1
910 42 1
910 254 1
910 257 1
910 258 1
910 499 1
910 500 1
910 503 1
910 504 1
910 511 1
910 512 1
910 909 1
911 117 1
911 118 1
911 120 1
911 128 1
911 151 1
911 152 1
911 179 1
911 180 1
911 183 1
911 184 1
911 217 1
911 439 1
911 440 1
911 449 1
911 450 1
911 827 1
911 828 1
911 912 1
912 117 1
912 118 1
912 130 1
912 151 1
912 152 1
912 179 1
912 180 1
912 183 1
912 184 1
912 209 1
912 211 1
912 217 1
912 299 1
912 301 1
912 439 1
912 440 1
912 449 1
912 450 1
912 615 1
912 616 1
912 769 1
912 827 1
912 828 1
912 911 1
913 413 1
913 414 1
913 775 1
913 776 1
913 914 1
914 413 1
914 414 1
914 775 1
914 776 1
914 913 1
915 335 1
915 336 1
915 711 1
915 712 1
915 916 1
916 335 1
916 336 1
916 711 1
916 712 1
916 915 1
