%%MatrixMarket matrix coordinate integer general
%
400 400 5196
1 2 1
1 4 1
1 119 1
1 120 1
1 122 1
1 209 1
1 210 1
1 251 1
1 252 1
1 299 1
1 343 1
1 344 1
2 1 1
2 3 1
2 119 1
2 120 1
2 121 1
2 209 1
2 210 1
2 251 1
2 252 1
2 300 1
2 343 1
2 344 1
3 2 1
3 4 1
3 119 1
3 120 1
3 122 1
3 209 1
3 210 1
3 251 1
3 252 1
3 299 1
3 343 1
3 344 1
4 1 1
4 3 1
4 119 1
4 120 1
4 121 1
4 209 1
4 210 1
4 251 1
4 252 1
4 300 1
4 343 1
4 344 1
5 6 1
5 9 1
5 10 1
6 5 1
7 8 1
7 161 1
7 162 1
7 319 1
7 320 1
8 7 1
8 161 1
8 162 1
8 319 1
8 320 1
9 5 1
9 10 1
9 11 1
9 12 1
10 5 1
10 9 1
10 11 1
10 12 1
10 291 1
10 358 1
10 394 1
11 9 1
11 10 1
11 12 1
11 95 1
12 9 1
12 10 1
12 11 1
12 96 1
13 14 1
13 15 1
13 16 1
13 261 1
13 262 1
13 327 1
13 328 1
13 341 1
13 342 1
14 13 1
14 16 1
14 261 1
14 262 1
14 327 1
14 328 1
14 341 1
14 342 1
14 353 1
15 13 1
15 16 1
15 261 1
15 262 1
15 327 1
15 328 1
15 341 1
15 342 1
16 13 1
16 14 1
16 15 1
16 261 1
16 262 1
16 327 1
16 328 1
16 341 1
16 342 1
16 353 1
17 18 1
17 19 1
17 29 1
17 37 1
17 38 1
17 41 1
17 42 1
17 55 1
17 56 1
17 163 1
17 164 1
17 167 1
17 173 1
17 178 1
17 215 1
17 216 1
17 267 1
17 268 1
17 301 1
17 302 1
17 321 1
17 387 1
17 388 1
17 389 1
17 390 1
17 391 1
17 392 1
17 395 1
17 396 1
18 17 1
18 20 1
18 22 1
18 30 1
18 37 1
18 38 1
18 39 1
18 40 1
18 41 1
18 42 1
18 56 1
18 163 1
18 164 1
18 174 1
18 177 1
18 215 1
18 216 1
18 267 1
18 268 1
18 301 1
18 302 1
18 387 1
18 388 1
18 389 1
18 390 1
18 391 1
18 392 1
18 395 1
18 396 1
19 17 1
19 20 1
19 29 1
19 30 1
19 31 1
19 32 1
19 37 1
19 38 1
19 41 1
19 42 1
19 49 1
19 51 1
19 55 1
19 56 1
19 163 1
19 164 1
19 178 1
19 215 1
19 216 1
19 268 1
19 301 1
19 387 1
19 388 1
19 390 1
19 391 1
20 18 1
20 19 1
20 29 1
20 30 1
20 31 1
20 32 1
20 41 1
20 42 1
20 55 1
20 56 1
20 163 1
20 164 1
20 174 1
20 177 1
20 215 1
20 216 1
20 267 1
20 302 1
20 345 1
20 346 1
20 387 1
20 388 1
20 389 1
20 392 1
20 395 1
21 22 1
21 23 1
21 24 1
21 31 1
21 38 1
21 42 1
21 47 1
21 48 1
21 53 1
21 103 1
21 105 1
21 263 1
21 264 1
21 266 1
21 268 1
21 391 1
22 18 1
22 21 1
22 23 1
22 24 1
22 31 1
22 41 1
22 47 1
22 48 1
22 53 1
22 54 1
22 177 1
22 263 1
22 264 1
22 390 1
22 395 1
23 21 1
23 22 1
23 24 1
23 31 1
23 48 1
23 54 1
23 263 1
24 21 1
24 22 1
24 23 1
24 32 1
24 37 1
24 38 1
24 42 1
24 47 1
24 53 1
24 264 1
24 266 1
24 301 1
24 389 1
24 396 1
25 26 1
25 27 1
25 81 1
25 82 1
25 83 1
25 84 1
25 85 1
25 86 1
25 87 1
25 88 1
25 89 1
25 90 1
25 133 1
25 134 1
25 135 1
25 136 1
25 307 1
25 308 1
25 311 1
25 312 1
25 313 1
25 314 1
25 315 1
25 316 1
25 317 1
25 356 1
26 25 1
26 28 1
26 81 1
26 82 1
26 83 1
26 84 1
26 85 1
26 86 1
26 88 1
26 89 1
26 90 1
26 133 1
26 134 1
26 135 1
26 136 1
26 307 1
26 308 1
26 311 1
26 312 1
26 313 1
26 314 1
26 315 1
26 316 1
26 318 1
27 25 1
27 28 1
27 81 1
27 82 1
27 83 1
27 84 1
27 85 1
27 86 1
27 87 1
27 88 1
27 89 1
27 90 1
27 134 1
27 136 1
27 307 1
27 308 1
27 311 1
27 312 1
27 313 1
27 314 1
27 315 1
27 316 1
27 318 1
27 356 1
28 26 1
28 27 1
28 81 1
28 82 1
28 83 1
28 84 1
28 85 1
28 86 1
28 87 1
28 88 1
28 89 1
28 90 1
28 133 1
28 134 1
28 135 1
28 136 1
28 307 1
28 308 1
28 311 1
28 312 1
28 313 1
28 314 1
28 315 1
28 316 1
28 317 1
29 17 1
29 19 1
29 20 1
29 30 1
29 31 1
29 32 1
29 37 1
29 38 1
29 39 1
29 41 1
29 42 1
29 49 1
29 50 1
29 51 1
29 52 1
29 55 1
29 56 1
29 101 1
29 102 1
29 104 1
29 106 1
29 163 1
29 173 1
29 178 1
29 215 1
29 267 1
29 268 1
29 285 1
29 286 1
29 287 1
29 288 1
29 301 1
29 309 1
29 310 1
29 387 1
29 389 1
29 390 1
29 395 1
29 396 1
30 18 1
30 19 1
30 20 1
30 29 1
30 31 1
30 32 1
30 37 1
30 38 1
30 39 1
30 41 1
30 42 1
30 49 1
30 50 1
30 51 1
30 52 1
30 55 1
30 56 1
30 101 1
30 102 1
30 103 1
30 105 1
30 163 1
30 164 1
30 174 1
30 177 1
30 267 1
30 268 1
30 285 1
30 286 1
30 287 1
30 288 1
30 302 1
30 309 1
30 310 1
30 346 1
30 387 1
30 388 1
30 389 1
30 390 1
30 392 1
30 395 1
30 396 1
31 19 1
31 20 1
31 21 1
31 22 1
31 23 1
31 29 1
31 30 1
31 32 1
31 37 1
31 38 1
31 41 1
31 42 1
31 48 1
31 49 1
31 50 1
31 51 1
31 52 1
31 55 1
31 56 1
31 115 1
31 116 1
31 117 1
31 118 1
31 163 1
31 215 1
31 227 1
31 228 1
31 267 1
31 268 1
31 285 1
31 286 1
31 287 1
31 288 1
31 301 1
31 302 1
31 346 1
31 387 1
31 391 1
32 19 1
32 20 1
32 24 1
32 29 1
32 30 1
32 31 1
32 38 1
32 39 1
32 41 1
32 42 1
32 47 1
32 49 1
32 50 1
32 51 1
32 52 1
32 53 1
32 54 1
32 55 1
32 56 1
32 115 1
32 116 1
32 117 1
32 118 1
32 164 1
32 216 1
32 227 1
32 228 1
32 263 1
32 267 1
32 285 1
32 286 1
32 287 1
32 288 1
32 301 1
32 302 1
32 345 1
32 388 1
32 392 1
33 34 1
33 35 1
33 36 1
33 141 1
33 142 1
33 187 1
33 205 1
33 206 1
34 33 1
34 35 1
34 36 1
34 141 1
34 142 1
34 205 1
34 206 1
34 330 1
35 33 1
35 34 1
35 36 1
35 141 1
35 142 1
35 187 1
35 205 1
35 206 1
36 33 1
36 34 1
36 35 1
36 141 1
36 142 1
36 205 1
36 206 1
36 330 1
37 17 1
37 18 1
37 19 1
37 24 1
37 29 1
37 30 1
37 31 1
37 38 1
37 41 1
37 42 1
37 49 1
37 51 1
37 55 1
37 173 1
37 174 1
37 177 1
37 178 1
37 215 1
37 263 1
37 264 1
37 335 1
37 338 1
37 345 1
37 389 1
37 390 1
37 395 1
37 396 1
38 17 1
38 18 1
38 19 1
38 21 1
38 24 1
38 29 1
38 30 1
38 31 1
38 32 1
38 37 1
38 41 1
38 42 1
38 48 1
38 49 1
38 50 1
38 51 1
38 52 1
38 54 1
38 55 1
38 56 1
38 103 1
38 104 1
38 105 1
38 106 1
38 163 1
38 164 1
38 167 1
38 173 1
38 174 1
38 177 1
38 178 1
38 263 1
38 264 1
38 267 1
38 294 1
38 345 1
38 387 1
38 388 1
38 389 1
38 390 1
38 392 1
38 395 1
38 396 1
39 18 1
39 29 1
39 30 1
39 32 1
39 40 1
39 41 1
39 42 1
39 48 1
39 49 1
39 51 1
39 54 1
39 55 1
39 104 1
39 106 1
39 115 1
39 116 1
39 117 1
39 118 1
39 143 1
39 144 1
39 151 1
39 152 1
39 164 1
39 167 1
39 168 1
39 174 1
39 177 1
39 185 1
39 186 1
39 267 1
39 293 1
39 321 1
39 322 1
39 347 1
39 348 1
39 388 1
40 18 1
40 39 1
40 41 1
40 42 1
40 115 1
40 116 1
40 117 1
40 118 1
40 143 1
40 144 1
40 150 1
40 151 1
40 152 1
40 167 1
40 168 1
40 174 1
40 177 1
40 185 1
40 186 1
40 321 1
40 322 1
40 385 1
40 386 1
41 17 1
41 18 1
41 19 1
41 20 1
41 22 1
41 29 1
41 30 1
41 31 1
41 32 1
41 37 1
41 38 1
41 39 1
41 40 1
41 42 1
41 49 1
41 50 1
41 51 1
41 52 1
41 54 1
41 55 1
41 56 1
41 102 1
41 104 1
41 106 1
41 115 1
41 116 1
41 117 1
41 118 1
41 143 1
41 144 1
41 151 1
41 152 1
41 163 1
41 164 1
41 168 1
41 173 1
41 174 1
41 177 1
41 178 1
41 185 1
41 215 1
41 216 1
41 263 1
41 267 1
41 268 1
41 286 1
41 288 1
41 293 1
41 301 1
41 302 1
41 310 1
41 322 1
41 387 1
41 388 1
41 390 1
41 391 1
41 392 1
41 395 1
41 396 1
42 17 1
42 18 1
42 19 1
42 20 1
42 21 1
42 24 1
42 29 1
42 30 1
42 31 1
42 32 1
42 37 1
42 38 1
42 39 1
42 40 1
42 41 1
42 49 1
42 50 1
42 51 1
42 52 1
42 54 1
42 55 1
42 56 1
42 115 1
42 117 1
42 143 1
42 144 1
42 151 1
42 152 1
42 163 1
42 164 1
42 167 1
42 173 1
42 174 1
42 177 1
42 178 1
42 186 1
42 215 1
42 263 1
42 264 1
42 268 1
42 301 1
42 302 1
42 321 1
42 345 1
42 385 1
42 387 1
42 388 1
42 389 1
42 390 1
42 391 1
42 395 1
42 396 1
43 44 1
43 45 1
43 46 1
43 149 1
43 150 1
43 185 1
43 186 1
43 293 1
43 294 1
44 43 1
44 45 1
44 46 1
44 107 1
44 109 1
44 149 1
44 150 1
44 185 1
44 186 1
44 293 1
44 294 1
45 43 1
45 44 1
45 46 1
45 149 1
45 150 1
45 185 1
45 186 1
45 293 1
45 294 1
46 43 1
46 44 1
46 45 1
46 107 1
46 109 1
46 149 1
46 150 1
46 185 1
46 186 1
46 293 1
46 294 1
47 21 1
47 22 1
47 24 1
47 32 1
47 48 1
47 49 1
47 50 1
47 51 1
47 52 1
47 54 1
47 103 1
47 104 1
47 105 1
47 106 1
47 264 1
47 266 1
47 294 1
47 301 1
48 21 1
48 22 1
48 23 1
48 31 1
48 38 1
48 39 1
48 47 1
48 49 1
48 50 1
48 51 1
48 52 1
48 53 1
48 103 1
48 104 1
48 105 1
48 106 1
48 263 1
48 264 1
48 301 1
49 19 1
49 29 1
49 30 1
49 31 1
49 32 1
49 37 1
49 38 1
49 39 1
49 41 1
49 42 1
49 47 1
49 48 1
49 50 1
49 52 1
49 53 1
49 54 1
49 55 1
49 103 1
49 104 1
49 105 1
49 106 1
49 301 1
49 389 1
49 396 1
50 29 1
50 30 1
50 31 1
50 32 1
50 38 1
50 41 1
50 42 1
50 47 1
50 48 1
50 49 1
50 51 1
50 53 1
50 54 1
50 56 1
50 103 1
50 104 1
50 105 1
50 106 1
50 268 1
50 301 1
51 19 1
51 29 1
51 30 1
51 31 1
51 32 1
51 37 1
51 38 1
51 39 1
51 41 1
51 42 1
51 47 1
51 48 1
51 50 1
51 52 1
51 53 1
51 54 1
51 55 1
51 103 1
51 104 1
51 105 1
51 106 1
51 301 1
51 389 1
51 396 1
52 29 1
52 30 1
52 31 1
52 32 1
52 38 1
52 41 1
52 42 1
52 47 1
52 48 1
52 49 1
52 51 1
52 53 1
52 54 1
52 56 1
52 103 1
52 104 1
52 105 1
52 106 1
52 268 1
52 301 1
53 21 1
53 22 1
53 24 1
53 32 1
53 48 1
53 49 1
53 50 1
53 51 1
53 52 1
53 54 1
53 103 1
53 104 1
53 105 1
53 106 1
53 264 1
53 301 1
53 302 1
54 22 1
54 23 1
54 32 1
54 38 1
54 39 1
54 41 1
54 42 1
54 47 1
54 49 1
54 50 1
54 51 1
54 52 1
54 53 1
54 103 1
54 104 1
54 105 1
54 106 1
54 263 1
54 301 1
55 17 1
55 19 1
55 20 1
55 29 1
55 30 1
55 31 1
55 32 1
55 37 1
55 38 1
55 39 1
55 41 1
55 42 1
55 49 1
55 51 1
55 56 1
55 101 1
55 151 1
55 152 1
55 173 1
55 215 1
55 293 1
55 294 1
55 301 1
55 302 1
55 309 1
55 345 1
55 347 1
55 348 1
55 389 1
55 395 1
55 396 1
56 17 1
56 18 1
56 19 1
56 20 1
56 29 1
56 30 1
56 31 1
56 32 1
56 38 1
56 41 1
56 42 1
56 50 1
56 52 1
56 55 1
56 151 1
56 152 1
56 216 1
56 293 1
56 294 1
56 301 1
56 346 1
57 58 1
57 379 1
57 380 1
57 381 1
57 382 1
58 57 1
58 379 1
58 380 1
58 381 1
58 382 1
59 60 1
59 61 1
59 62 1
59 137 1
59 138 1
59 213 1
59 214 1
59 229 1
59 230 1
59 243 1
59 244 1
59 269 1
59 270 1
59 369 1
59 370 1
60 59 1
60 61 1
60 62 1
60 137 1
60 138 1
60 213 1
60 214 1
60 229 1
60 230 1
60 243 1
60 244 1
60 269 1
60 270 1
60 369 1
60 370 1
61 59 1
61 60 1
61 62 1
61 139 1
61 140 1
62 59 1
62 60 1
62 61 1
62 139 1
62 140 1
63 64 1
63 91 1
63 92 1
63 107 1
63 108 1
63 109 1
63 110 1
63 113 1
63 114 1
63 137 1
63 138 1
63 191 1
63 192 1
64 63 1
64 91 1
64 92 1
64 107 1
64 108 1
64 109 1
64 110 1
64 113 1
64 114 1
64 137 1
64 138 1
64 191 1
64 192 1
65 66 1
65 131 1
65 132 1
66 65 1
66 131 1
66 132 1
66 159 1
66 160 1
67 68 1
67 129 1
67 130 1
67 320 1
68 67 1
68 129 1
68 130 1
68 319 1
68 320 1
69 70 1
69 171 1
69 172 1
70 69 1
70 171 1
70 172 1
70 256 1
71 72 1
71 123 1
71 124 1
71 125 1
71 126 1
71 323 1
71 324 1
71 339 1
71 340 1
72 71 1
72 123 1
72 124 1
72 125 1
72 126 1
72 323 1
72 324 1
72 339 1
72 340 1
73 74 1
73 75 1
73 76 1
73 211 1
73 212 1
73 255 1
73 256 1
73 289 1
73 290 1
74 73 1
74 75 1
74 76 1
74 211 1
74 212 1
74 238 1
74 255 1
74 256 1
74 289 1
74 290 1
75 73 1
75 74 1
75 76 1
75 211 1
75 212 1
75 255 1
75 256 1
75 289 1
75 290 1
76 73 1
76 74 1
76 75 1
76 211 1
76 212 1
76 238 1
76 255 1
76 256 1
76 289 1
76 290 1
77 78 1
77 80 1
77 81 1
77 83 1
77 86 1
77 97 1
77 98 1
77 207 1
77 208 1
77 235 1
77 236 1
77 260 1
77 275 1
77 276 1
77 308 1
77 311 1
77 312 1
77 313 1
77 314 1
77 355 1
78 77 1
78 79 1
78 82 1
78 84 1
78 85 1
78 97 1
78 98 1
78 207 1
78 208 1
78 235 1
78 236 1
78 260 1
78 275 1
78 276 1
78 307 1
78 311 1
78 312 1
78 313 1
78 314 1
79 78 1
79 80 1
79 81 1
79 83 1
79 86 1
79 97 1
79 98 1
79 207 1
79 208 1
79 235 1
79 236 1
79 260 1
79 275 1
79 276 1
79 308 1
79 311 1
79 312 1
79 313 1
79 314 1
79 355 1
80 77 1
80 79 1
80 82 1
80 84 1
80 85 1
80 97 1
80 98 1
80 207 1
80 208 1
80 235 1
80 236 1
80 260 1
80 275 1
80 276 1
80 307 1
80 311 1
80 312 1
80 313 1
80 314 1
81 25 1
81 26 1
81 27 1
81 28 1
81 77 1
81 79 1
81 82 1
81 84 1
81 85 1
81 207 1
81 208 1
81 235 1
81 236 1
81 259 1
81 307 1
81 311 1
81 312 1
81 313 1
81 315 1
81 316 1
81 317 1
81 318 1
82 25 1
82 26 1
82 27 1
82 28 1
82 78 1
82 80 1
82 81 1
82 83 1
82 86 1
82 207 1
82 208 1
82 235 1
82 236 1
82 259 1
82 260 1
82 308 1
82 311 1
82 312 1
82 314 1
82 315 1
82 316 1
82 317 1
82 318 1
82 355 1
83 25 1
83 26 1
83 27 1
83 28 1
83 77 1
83 79 1
83 82 1
83 84 1
83 85 1
83 207 1
83 208 1
83 235 1
83 236 1
83 259 1
83 307 1
83 311 1
83 312 1
83 313 1
83 315 1
83 316 1
83 317 1
83 318 1
84 25 1
84 26 1
84 27 1
84 28 1
84 78 1
84 80 1
84 81 1
84 83 1
84 86 1
84 207 1
84 208 1
84 235 1
84 236 1
84 259 1
84 260 1
84 308 1
84 311 1
84 312 1
84 314 1
84 315 1
84 316 1
84 317 1
84 318 1
84 355 1
85 25 1
85 26 1
85 27 1
85 28 1
85 78 1
85 80 1
85 81 1
85 83 1
85 86 1
85 87 1
85 88 1
85 89 1
85 90 1
85 133 1
85 134 1
85 135 1
85 136 1
85 207 1
85 208 1
85 235 1
85 236 1
85 308 1
85 311 1
85 312 1
85 313 1
85 314 1
85 315 1
85 316 1
85 317 1
85 318 1
86 25 1
86 26 1
86 27 1
86 28 1
86 77 1
86 79 1
86 82 1
86 84 1
86 85 1
86 87 1
86 88 1
86 89 1
86 90 1
86 133 1
86 134 1
86 135 1
86 136 1
86 207 1
86 208 1
86 235 1
86 236 1
86 259 1
86 307 1
86 311 1
86 312 1
86 313 1
86 314 1
86 315 1
86 316 1
86 317 1
86 318 1
87 25 1
87 27 1
87 28 1
87 85 1
87 86 1
87 88 1
87 89 1
87 134 1
87 136 1
87 307 1
87 308 1
87 315 1
87 316 1
87 317 1
87 318 1
88 25 1
88 26 1
88 27 1
88 28 1
88 85 1
88 86 1
88 87 1
88 90 1
88 133 1
88 135 1
88 307 1
88 308 1
88 315 1
88 316 1
88 317 1
88 318 1
89 25 1
89 26 1
89 27 1
89 28 1
89 85 1
89 86 1
89 87 1
89 90 1
89 133 1
89 134 1
89 135 1
89 136 1
89 307 1
89 308 1
89 315 1
89 316 1
89 317 1
89 318 1
90 25 1
90 26 1
90 27 1
90 28 1
90 85 1
90 86 1
90 88 1
90 89 1
90 133 1
90 134 1
90 135 1
90 136 1
90 236 1
90 307 1
90 308 1
90 315 1
90 316 1
90 317 1
90 318 1
91 63 1
91 64 1
91 92 1
91 107 1
91 108 1
91 109 1
91 110 1
91 113 1
91 114 1
91 191 1
91 192 1
91 293 1
92 63 1
92 64 1
92 91 1
92 107 1
92 108 1
92 109 1
92 110 1
92 113 1
92 114 1
92 191 1
92 192 1
93 94 1
93 180 1
93 258 1
94 93 1
94 179 1
94 257 1
95 11 1
95 96 1
95 97 1
95 98 1
95 358 1
96 12 1
96 95 1
96 97 1
96 98 1
96 343 1
96 344 1
97 77 1
97 78 1
97 79 1
97 80 1
97 95 1
97 96 1
97 98 1
97 275 1
97 276 1
98 77 1
98 78 1
98 79 1
98 80 1
98 95 1
98 96 1
98 97 1
98 275 1
98 276 1
99 100 1
100 99 1
100 153 1
100 187 1
100 330 1
100 332 1
101 29 1
101 30 1
101 55 1
101 102 1
101 285 1
101 286 1
101 287 1
101 288 1
101 309 1
101 310 1
102 29 1
102 30 1
102 41 1
102 101 1
102 285 1
102 286 1
102 287 1
102 288 1
102 309 1
102 310 1
103 21 1
103 30 1
103 38 1
103 47 1
103 48 1
103 49 1
103 50 1
103 51 1
103 52 1
103 53 1
103 54 1
103 104 1
103 105 1
103 106 1
103 107 1
103 108 1
103 109 1
103 110 1
103 264 1
103 302 1
103 303 1
103 304 1
103 321 1
103 396 1
104 29 1
104 38 1
104 39 1
104 41 1
104 47 1
104 48 1
104 49 1
104 50 1
104 51 1
104 52 1
104 53 1
104 54 1
104 103 1
104 105 1
104 106 1
104 107 1
104 108 1
104 109 1
104 110 1
104 301 1
104 303 1
104 304 1
105 21 1
105 30 1
105 38 1
105 47 1
105 48 1
105 49 1
105 50 1
105 51 1
105 52 1
105 53 1
105 54 1
105 103 1
105 104 1
105 106 1
105 107 1
105 108 1
105 109 1
105 110 1
105 264 1
105 302 1
105 303 1
105 304 1
105 321 1
105 396 1
106 29 1
106 38 1
106 39 1
106 41 1
106 47 1
106 48 1
106 49 1
106 50 1
106 51 1
106 52 1
106 53 1
106 54 1
106 103 1
106 104 1
106 105 1
106 107 1
106 108 1
106 109 1
106 110 1
106 301 1
106 303 1
106 304 1
107 44 1
107 46 1
107 63 1
107 64 1
107 91 1
107 92 1
107 103 1
107 104 1
107 105 1
107 106 1
107 108 1
107 109 1
107 110 1
107 113 1
107 114 1
107 191 1
107 192 1
107 266 1
107 303 1
107 304 1
108 63 1
108 64 1
108 91 1
108 92 1
108 103 1
108 104 1
108 105 1
108 106 1
108 107 1
108 109 1
108 110 1
108 113 1
108 114 1
108 191 1
108 192 1
108 303 1
108 304 1
109 44 1
109 46 1
109 63 1
109 64 1
109 91 1
109 92 1
109 103 1
109 104 1
109 105 1
109 106 1
109 107 1
109 108 1
109 110 1
109 113 1
109 114 1
109 191 1
109 192 1
109 266 1
109 303 1
109 304 1
110 63 1
110 64 1
110 91 1
110 92 1
110 103 1
110 104 1
110 105 1
110 106 1
110 107 1
110 108 1
110 109 1
110 113 1
110 114 1
110 191 1
110 192 1
110 303 1
110 304 1
111 112 1
111 113 1
111 114 1
111 115 1
111 116 1
111 117 1
111 118 1
112 111 1
112 113 1
112 114 1
112 115 1
112 116 1
112 117 1
112 118 1
113 63 1
113 64 1
113 91 1
113 92 1
113 107 1
113 108 1
113 109 1
113 110 1
113 111 1
113 112 1
113 114 1
113 115 1
113 116 1
113 117 1
113 118 1
113 191 1
113 192 1
113 293 1
114 63 1
114 64 1
114 91 1
114 92 1
114 107 1
114 108 1
114 109 1
114 110 1
114 111 1
114 112 1
114 113 1
114 115 1
114 116 1
114 117 1
114 118 1
114 191 1
114 192 1
115 31 1
115 32 1
115 39 1
115 40 1
115 41 1
115 42 1
115 111 1
115 112 1
115 113 1
115 114 1
115 116 1
115 117 1
115 168 1
115 227 1
115 228 1
115 285 1
115 286 1
115 287 1
115 288 1
115 301 1
115 302 1
116 31 1
116 32 1
116 39 1
116 40 1
116 41 1
116 111 1
116 112 1
116 113 1
116 114 1
116 115 1
116 118 1
116 186 1
116 227 1
116 228 1
116 285 1
116 286 1
116 287 1
116 288 1
116 301 1
116 302 1
117 31 1
117 32 1
117 39 1
117 40 1
117 41 1
117 42 1
117 111 1
117 112 1
117 113 1
117 114 1
117 115 1
117 118 1
117 227 1
117 285 1
117 286 1
117 287 1
117 288 1
117 301 1
117 302 1
118 31 1
118 32 1
118 39 1
118 40 1
118 41 1
118 111 1
118 112 1
118 113 1
118 114 1
118 116 1
118 117 1
118 186 1
118 228 1
118 285 1
118 286 1
118 287 1
118 288 1
118 301 1
118 302 1
119 1 1
119 2 1
119 3 1
119 4 1
119 120 1
119 121 1
119 122 1
119 209 1
119 210 1
119 246 1
119 251 1
119 252 1
119 277 1
119 299 1
119 300 1
119 343 1
119 344 1
120 1 1
120 2 1
120 3 1
120 4 1
120 119 1
120 121 1
120 122 1
120 209 1
120 210 1
120 251 1
120 252 1
120 299 1
120 300 1
120 343 1
120 344 1
121 2 1
121 4 1
121 119 1
121 120 1
121 122 1
121 209 1
121 210 1
121 246 1
121 251 1
121 252 1
121 277 1
121 299 1
121 343 1
121 344 1
122 1 1
122 3 1
122 119 1
122 120 1
122 121 1
122 209 1
122 210 1
122 251 1
122 252 1
122 300 1
122 343 1
122 344 1
123 71 1
123 72 1
123 124 1
123 125 1
123 126 1
123 323 1
123 324 1
123 339 1
123 340 1
124 71 1
124 72 1
124 123 1
124 125 1
124 126 1
124 323 1
124 324 1
124 339 1
124 340 1
125 71 1
125 72 1
125 123 1
125 124 1
125 126 1
125 323 1
125 324 1
125 339 1
125 340 1
126 71 1
126 72 1
126 123 1
126 124 1
126 125 1
126 323 1
126 324 1
126 339 1
126 340 1
127 128 1
127 139 1
127 140 1
127 243 1
127 244 1
127 279 1
127 280 1
128 127 1
128 139 1
128 140 1
128 218 1
128 243 1
128 244 1
128 253 1
128 279 1
128 280 1
128 281 1
129 67 1
129 68 1
129 130 1
129 305 1
129 306 1
129 319 1
129 320 1
129 399 1
129 400 1
130 67 1
130 68 1
130 129 1
130 305 1
130 306 1
130 399 1
130 400 1
131 65 1
131 66 1
131 132 1
131 159 1
131 160 1
131 166 1
132 65 1
132 66 1
132 131 1
132 160 1
132 165 1
132 166 1
133 25 1
133 26 1
133 28 1
133 85 1
133 86 1
133 88 1
133 89 1
133 90 1
133 134 1
133 136 1
133 307 1
133 308 1
133 315 1
133 316 1
133 318 1
134 25 1
134 26 1
134 27 1
134 28 1
134 85 1
134 86 1
134 87 1
134 89 1
134 90 1
134 133 1
134 135 1
134 307 1
134 308 1
134 315 1
134 316 1
134 317 1
134 318 1
135 25 1
135 26 1
135 28 1
135 85 1
135 86 1
135 88 1
135 89 1
135 90 1
135 134 1
135 136 1
135 307 1
135 308 1
135 315 1
135 316 1
135 318 1
136 25 1
136 26 1
136 27 1
136 28 1
136 85 1
136 86 1
136 87 1
136 89 1
136 90 1
136 133 1
136 135 1
136 307 1
136 308 1
136 315 1
136 316 1
136 317 1
136 318 1
137 59 1
137 60 1
137 63 1
137 64 1
137 138 1
137 191 1
137 192 1
137 213 1
137 214 1
137 229 1
137 230 1
137 243 1
137 244 1
137 269 1
137 270 1
137 369 1
137 370 1
138 59 1
138 60 1
138 63 1
138 64 1
138 137 1
138 191 1
138 192 1
138 213 1
138 214 1
138 229 1
138 230 1
138 243 1
138 244 1
138 269 1
138 270 1
138 369 1
138 370 1
139 61 1
139 62 1
139 127 1
139 128 1
139 140 1
139 243 1
139 244 1
139 279 1
139 280 1
140 61 1
140 62 1
140 127 1
140 128 1
140 139 1
140 243 1
140 244 1
140 279 1
140 280 1
141 33 1
141 34 1
141 35 1
141 36 1
141 142 1
141 153 1
141 154 1
141 157 1
141 158 1
141 187 1
141 188 1
141 205 1
141 206 1
142 33 1
142 34 1
142 35 1
142 36 1
142 141 1
142 153 1
142 154 1
142 157 1
142 158 1
142 187 1
142 188 1
142 205 1
142 206 1
143 39 1
143 40 1
143 41 1
143 42 1
143 144 1
143 145 1
143 146 1
143 149 1
143 150 1
143 151 1
143 152 1
143 167 1
143 168 1
143 185 1
143 186 1
143 321 1
143 322 1
143 385 1
143 386 1
144 39 1
144 40 1
144 41 1
144 42 1
144 143 1
144 145 1
144 146 1
144 149 1
144 150 1
144 151 1
144 152 1
144 167 1
144 168 1
144 185 1
144 186 1
144 321 1
144 322 1
144 385 1
144 386 1
145 143 1
145 144 1
145 146 1
145 149 1
145 150 1
145 175 1
145 176 1
145 385 1
145 386 1
146 143 1
146 144 1
146 145 1
146 149 1
146 150 1
146 175 1
146 176 1
146 385 1
146 386 1
147 148 1
147 155 1
147 156 1
147 157 1
147 158 1
147 187 1
147 205 1
147 206 1
147 329 1
147 330 1
147 333 1
147 334 1
148 147 1
148 155 1
148 156 1
148 157 1
148 158 1
148 205 1
148 206 1
148 329 1
148 330 1
148 333 1
148 334 1
149 43 1
149 44 1
149 45 1
149 46 1
149 143 1
149 144 1
149 145 1
149 146 1
149 150 1
149 185 1
149 186 1
149 385 1
149 386 1
150 40 1
150 43 1
150 44 1
150 45 1
150 46 1
150 143 1
150 144 1
150 145 1
150 146 1
150 149 1
150 185 1
150 186 1
150 385 1
150 386 1
151 39 1
151 40 1
151 41 1
151 42 1
151 55 1
151 56 1
151 143 1
151 144 1
151 152 1
151 167 1
151 168 1
151 185 1
151 186 1
151 293 1
151 294 1
151 321 1
151 322 1
152 39 1
152 40 1
152 41 1
152 42 1
152 55 1
152 56 1
152 143 1
152 144 1
152 151 1
152 167 1
152 168 1
152 185 1
152 186 1
152 293 1
152 294 1
152 321 1
152 322 1
153 100 1
153 141 1
153 142 1
153 154 1
153 157 1
153 158 1
153 187 1
153 188 1
154 141 1
154 142 1
154 153 1
154 157 1
154 158 1
154 187 1
154 188 1
155 147 1
155 148 1
155 156 1
155 159 1
155 160 1
155 201 1
155 202 1
155 329 1
155 330 1
155 333 1
155 334 1
156 147 1
156 148 1
156 155 1
156 159 1
156 160 1
156 201 1
156 202 1
156 329 1
156 330 1
156 333 1
156 334 1
157 141 1
157 142 1
157 147 1
157 148 1
157 153 1
157 154 1
157 158 1
157 187 1
157 188 1
157 205 1
157 206 1
158 141 1
158 142 1
158 147 1
158 148 1
158 153 1
158 154 1
158 157 1
158 187 1
158 188 1
158 205 1
158 206 1
159 66 1
159 131 1
159 155 1
159 156 1
159 160 1
159 165 1
159 166 1
159 181 1
159 182 1
159 199 1
159 200 1
159 201 1
159 202 1
159 203 1
159 204 1
160 66 1
160 131 1
160 132 1
160 155 1
160 156 1
160 159 1
160 165 1
160 166 1
160 181 1
160 182 1
160 199 1
160 200 1
160 201 1
160 202 1
160 203 1
160 204 1
161 7 1
161 8 1
161 162 1
161 181 1
161 182 1
161 223 1
161 224 1
161 319 1
161 320 1
162 7 1
162 8 1
162 161 1
162 181 1
162 182 1
162 223 1
162 224 1
162 319 1
162 320 1
163 17 1
163 18 1
163 19 1
163 20 1
163 29 1
163 30 1
163 31 1
163 38 1
163 41 1
163 42 1
163 164 1
163 215 1
163 216 1
163 267 1
163 268 1
163 301 1
163 302 1
163 387 1
163 388 1
163 391 1
163 392 1
164 17 1
164 18 1
164 19 1
164 20 1
164 30 1
164 32 1
164 38 1
164 39 1
164 41 1
164 42 1
164 163 1
164 215 1
164 216 1
164 263 1
164 267 1
164 268 1
164 301 1
164 302 1
164 387 1
164 388 1
164 391 1
164 392 1
165 132 1
165 159 1
165 160 1
165 166 1
165 169 1
165 170 1
165 181 1
165 182 1
165 195 1
165 196 1
165 197 1
165 198 1
165 199 1
165 200 1
165 203 1
165 204 1
166 131 1
166 132 1
166 159 1
166 160 1
166 165 1
166 169 1
166 170 1
166 181 1
166 182 1
166 195 1
166 196 1
166 197 1
166 198 1
166 199 1
166 200 1
166 203 1
166 204 1
167 17 1
167 38 1
167 39 1
167 40 1
167 42 1
167 143 1
167 144 1
167 151 1
167 152 1
167 168 1
167 177 1
167 178 1
167 185 1
167 186 1
167 321 1
167 322 1
168 39 1
168 40 1
168 41 1
168 115 1
168 143 1
168 144 1
168 151 1
168 152 1
168 167 1
168 177 1
168 178 1
168 185 1
168 186 1
168 321 1
168 322 1
169 165 1
169 166 1
169 170 1
169 195 1
169 196 1
169 197 1
169 198 1
169 397 1
169 398 1
170 165 1
170 166 1
170 169 1
170 195 1
170 196 1
170 197 1
170 198 1
170 397 1
170 398 1
171 69 1
171 70 1
171 172 1
171 183 1
171 184 1
171 189 1
171 190 1
171 351 1
171 352 1
172 69 1
172 70 1
172 171 1
172 183 1
172 184 1
172 189 1
172 190 1
172 351 1
172 352 1
173 17 1
173 29 1
173 37 1
173 38 1
173 41 1
173 42 1
173 55 1
173 174 1
173 177 1
173 178 1
173 345 1
173 389 1
173 390 1
173 395 1
173 396 1
174 18 1
174 20 1
174 30 1
174 37 1
174 38 1
174 39 1
174 40 1
174 41 1
174 42 1
174 173 1
174 177 1
174 178 1
174 389 1
174 390 1
174 395 1
174 396 1
175 145 1
175 146 1
175 176 1
176 145 1
176 146 1
176 175 1
177 18 1
177 20 1
177 22 1
177 30 1
177 37 1
177 38 1
177 39 1
177 40 1
177 41 1
177 42 1
177 167 1
177 168 1
177 173 1
177 174 1
177 178 1
177 302 1
177 389 1
177 390 1
177 395 1
177 396 1
178 17 1
178 19 1
178 29 1
178 37 1
178 38 1
178 41 1
178 42 1
178 167 1
178 168 1
178 173 1
178 174 1
178 177 1
178 389 1
178 390 1
178 395 1
178 396 1
179 94 1
179 180 1
179 257 1
179 258 1
180 93 1
180 179 1
180 257 1
180 258 1
181 159 1
181 160 1
181 161 1
181 162 1
181 165 1
181 166 1
181 182 1
181 199 1
181 200 1
181 203 1
181 204 1
181 223 1
181 224 1
182 159 1
182 160 1
182 161 1
182 162 1
182 165 1
182 166 1
182 181 1
182 199 1
182 200 1
182 203 1
182 204 1
182 223 1
182 224 1
183 171 1
183 172 1
183 184 1
183 189 1
183 190 1
183 351 1
183 352 1
184 171 1
184 172 1
184 183 1
184 189 1
184 190 1
184 351 1
184 352 1
185 39 1
185 40 1
185 41 1
185 43 1
185 44 1
185 45 1
185 46 1
185 143 1
185 144 1
185 149 1
185 150 1
185 151 1
185 152 1
185 167 1
185 168 1
185 186 1
185 321 1
186 39 1
186 40 1
186 42 1
186 43 1
186 44 1
186 45 1
186 46 1
186 116 1
186 118 1
186 143 1
186 144 1
186 149 1
186 150 1
186 151 1
186 152 1
186 167 1
186 168 1
186 185 1
186 322 1
187 33 1
187 35 1
187 100 1
187 141 1
187 142 1
187 147 1
187 153 1
187 154 1
187 157 1
187 158 1
187 188 1
188 141 1
188 142 1
188 153 1
188 154 1
188 157 1
188 158 1
188 187 1
189 171 1
189 172 1
189 183 1
189 184 1
189 190 1
189 351 1
189 352 1
190 171 1
190 172 1
190 183 1
190 184 1
190 189 1
190 351 1
190 352 1
191 63 1
191 64 1
191 91 1
191 92 1
191 107 1
191 108 1
191 109 1
191 110 1
191 113 1
191 114 1
191 137 1
191 138 1
191 192 1
192 63 1
192 64 1
192 91 1
192 92 1
192 107 1
192 108 1
192 109 1
192 110 1
192 113 1
192 114 1
192 137 1
192 138 1
192 191 1
193 194 1
193 249 1
193 250 1
194 193 1
194 249 1
194 250 1
195 165 1
195 166 1
195 169 1
195 170 1
195 196 1
195 197 1
195 198 1
196 165 1
196 166 1
196 169 1
196 170 1
196 195 1
196 197 1
196 198 1
197 165 1
197 166 1
197 169 1
197 170 1
197 195 1
197 196 1
197 198 1
198 165 1
198 166 1
198 169 1
198 170 1
198 195 1
198 196 1
198 197 1
199 159 1
199 160 1
199 165 1
199 166 1
199 181 1
199 182 1
199 200 1
199 203 1
199 204 1
199 226 1
200 159 1
200 160 1
200 165 1
200 166 1
200 181 1
200 182 1
200 199 1
200 203 1
200 204 1
201 155 1
201 156 1
201 159 1
201 160 1
201 202 1
202 155 1
202 156 1
202 159 1
202 160 1
202 201 1
202 333 1
203 159 1
203 160 1
203 165 1
203 166 1
203 181 1
203 182 1
203 199 1
203 200 1
203 204 1
204 159 1
204 160 1
204 165 1
204 166 1
204 181 1
204 182 1
204 199 1
204 200 1
204 203 1
205 33 1
205 34 1
205 35 1
205 36 1
205 141 1
205 142 1
205 147 1
205 148 1
205 157 1
205 158 1
205 206 1
206 33 1
206 34 1
206 35 1
206 36 1
206 141 1
206 142 1
206 147 1
206 148 1
206 157 1
206 158 1
206 205 1
207 77 1
207 78 1
207 79 1
207 80 1
207 81 1
207 82 1
207 83 1
207 84 1
207 85 1
207 86 1
207 208 1
207 235 1
207 236 1
207 259 1
207 260 1
207 307 1
207 308 1
207 311 1
207 312 1
207 313 1
207 314 1
207 355 1
207 356 1
208 77 1
208 78 1
208 79 1
208 80 1
208 81 1
208 82 1
208 83 1
208 84 1
208 85 1
208 86 1
208 207 1
208 235 1
208 236 1
208 259 1
208 260 1
208 307 1
208 308 1
208 311 1
208 312 1
208 313 1
208 314 1
208 355 1
208 356 1
209 1 1
209 2 1
209 3 1
209 4 1
209 119 1
209 120 1
209 121 1
209 122 1
209 210 1
209 245 1
209 246 1
209 249 1
209 250 1
209 251 1
209 252 1
209 261 1
209 262 1
209 299 1
209 300 1
209 343 1
209 344 1
209 353 1
209 354 1
210 1 1
210 2 1
210 3 1
210 4 1
210 119 1
210 120 1
210 121 1
210 122 1
210 209 1
210 245 1
210 246 1
210 249 1
210 250 1
210 251 1
210 252 1
210 261 1
210 262 1
210 299 1
210 300 1
210 343 1
210 344 1
210 354 1
211 73 1
211 74 1
211 75 1
211 76 1
211 212 1
211 217 1
211 218 1
211 253 1
211 254 1
211 256 1
211 281 1
211 282 1
212 73 1
212 74 1
212 75 1
212 76 1
212 211 1
212 217 1
212 218 1
212 253 1
212 254 1
212 255 1
212 256 1
212 281 1
212 282 1
213 59 1
213 60 1
213 137 1
213 138 1
213 214 1
213 229 1
213 230 1
213 243 1
213 244 1
213 257 1
213 258 1
213 269 1
213 270 1
213 369 1
213 370 1
214 59 1
214 60 1
214 137 1
214 138 1
214 213 1
214 229 1
214 230 1
214 243 1
214 244 1
214 257 1
214 258 1
214 269 1
214 270 1
214 369 1
214 370 1
215 17 1
215 18 1
215 19 1
215 20 1
215 29 1
215 31 1
215 37 1
215 41 1
215 42 1
215 55 1
215 163 1
215 164 1
215 216 1
215 267 1
215 268 1
215 301 1
215 302 1
215 345 1
215 346 1
215 387 1
215 388 1
215 390 1
215 391 1
215 392 1
216 17 1
216 18 1
216 19 1
216 20 1
216 32 1
216 41 1
216 56 1
216 163 1
216 164 1
216 215 1
216 267 1
216 268 1
216 301 1
216 302 1
216 345 1
216 346 1
216 387 1
216 388 1
216 391 1
216 392 1
217 211 1
217 212 1
217 218 1
217 237 1
217 238 1
217 239 1
217 240 1
217 253 1
217 254 1
217 281 1
217 282 1
217 325 1
217 326 1
217 343 1
217 344 1
218 128 1
218 211 1
218 212 1
218 217 1
218 237 1
218 238 1
218 239 1
218 240 1
218 253 1
218 254 1
218 281 1
218 282 1
218 289 1
218 325 1
218 326 1
219 220 1
219 221 1
219 222 1
219 333 1
219 334 1
220 219 1
220 221 1
220 222 1
220 333 1
220 334 1
221 219 1
221 220 1
221 222 1
221 223 1
221 224 1
221 225 1
221 226 1
222 219 1
222 220 1
222 221 1
222 223 1
222 224 1
222 225 1
222 226 1
223 161 1
223 162 1
223 181 1
223 182 1
223 221 1
223 222 1
223 224 1
223 225 1
223 226 1
224 161 1
224 162 1
224 181 1
224 182 1
224 221 1
224 222 1
224 223 1
224 225 1
224 226 1
225 221 1
225 222 1
225 223 1
225 224 1
225 226 1
225 335 1
225 336 1
226 199 1
226 221 1
226 222 1
226 223 1
226 224 1
226 225 1
226 335 1
226 336 1
227 31 1
227 32 1
227 115 1
227 116 1
227 117 1
227 228 1
227 285 1
227 286 1
227 287 1
227 288 1
227 301 1
227 302 1
227 337 1
227 338 1
228 31 1
228 32 1
228 115 1
228 116 1
228 118 1
228 227 1
228 285 1
228 286 1
228 287 1
228 288 1
228 301 1
228 302 1
228 337 1
228 338 1
229 59 1
229 60 1
229 137 1
229 138 1
229 213 1
229 214 1
229 230 1
229 243 1
229 244 1
229 269 1
229 270 1
229 369 1
229 370 1
230 59 1
230 60 1
230 137 1
230 138 1
230 213 1
230 214 1
230 229 1
230 243 1
230 244 1
230 269 1
230 270 1
230 369 1
230 370 1
231 232 1
231 269 1
231 270 1
231 273 1
231 274 1
231 368 1
232 231 1
232 269 1
232 270 1
232 273 1
232 274 1
233 234 1
233 271 1
233 272 1
233 283 1
233 284 1
234 233 1
234 271 1
234 272 1
234 283 1
234 284 1
235 77 1
235 78 1
235 79 1
235 80 1
235 81 1
235 82 1
235 83 1
235 84 1
235 85 1
235 86 1
235 207 1
235 208 1
235 236 1
235 259 1
235 260 1
235 307 1
235 308 1
235 311 1
235 312 1
235 313 1
235 314 1
236 77 1
236 78 1
236 79 1
236 80 1
236 81 1
236 82 1
236 83 1
236 84 1
236 85 1
236 86 1
236 90 1
236 207 1
236 208 1
236 235 1
236 259 1
236 260 1
236 307 1
236 308 1
236 311 1
236 312 1
236 313 1
236 314 1
237 217 1
237 218 1
237 238 1
237 239 1
237 240 1
237 325 1
237 326 1
238 74 1
238 76 1
238 217 1
238 218 1
238 237 1
238 239 1
238 240 1
238 325 1
238 326 1
238 343 1
238 344 1
239 217 1
239 218 1
239 237 1
239 238 1
239 240 1
239 325 1
239 326 1
239 343 1
240 217 1
240 218 1
240 237 1
240 238 1
240 239 1
240 325 1
240 326 1
241 242 1
241 247 1
241 248 1
241 265 1
241 266 1
242 241 1
242 247 1
242 248 1
242 265 1
242 266 1
243 59 1
243 60 1
243 127 1
243 128 1
243 137 1
243 138 1
243 139 1
243 140 1
243 213 1
243 214 1
243 229 1
243 230 1
243 244 1
243 269 1
243 270 1
243 279 1
243 280 1
243 343 1
243 369 1
244 59 1
244 60 1
244 127 1
244 128 1
244 137 1
244 138 1
244 139 1
244 140 1
244 213 1
244 214 1
244 229 1
244 230 1
244 243 1
244 269 1
244 270 1
244 279 1
244 280 1
244 370 1
245 209 1
245 210 1
245 246 1
245 249 1
245 250 1
245 261 1
245 262 1
245 277 1
245 278 1
245 299 1
245 300 1
245 343 1
245 344 1
245 353 1
245 354 1
246 119 1
246 121 1
246 209 1
246 210 1
246 245 1
246 249 1
246 250 1
246 261 1
246 262 1
246 277 1
246 278 1
246 299 1
246 300 1
246 343 1
246 344 1
246 353 1
246 354 1
247 241 1
247 242 1
247 248 1
247 253 1
247 254 1
247 265 1
247 266 1
248 241 1
248 242 1
248 247 1
248 253 1
248 254 1
248 265 1
248 266 1
249 193 1
249 194 1
249 209 1
249 210 1
249 245 1
249 246 1
249 250 1
249 262 1
249 299 1
249 300 1
249 343 1
249 344 1
249 353 1
249 354 1
250 193 1
250 194 1
250 209 1
250 210 1
250 245 1
250 246 1
250 249 1
250 261 1
250 299 1
250 300 1
250 344 1
250 353 1
250 354 1
251 1 1
251 2 1
251 3 1
251 4 1
251 119 1
251 120 1
251 121 1
251 122 1
251 209 1
251 210 1
251 252 1
251 299 1
251 300 1
251 325 1
251 326 1
251 343 1
251 344 1
252 1 1
252 2 1
252 3 1
252 4 1
252 119 1
252 120 1
252 121 1
252 122 1
252 209 1
252 210 1
252 251 1
252 299 1
252 300 1
252 325 1
252 326 1
252 343 1
252 344 1
253 128 1
253 211 1
253 212 1
253 217 1
253 218 1
253 247 1
253 248 1
253 254 1
253 281 1
253 282 1
254 211 1
254 212 1
254 217 1
254 218 1
254 247 1
254 248 1
254 253 1
254 281 1
254 282 1
255 73 1
255 74 1
255 75 1
255 76 1
255 212 1
255 256 1
256 70 1
256 73 1
256 74 1
256 75 1
256 76 1
256 211 1
256 212 1
256 255 1
257 94 1
257 179 1
257 180 1
257 213 1
257 214 1
257 258 1
258 93 1
258 179 1
258 180 1
258 213 1
258 214 1
258 257 1
259 81 1
259 82 1
259 83 1
259 84 1
259 86 1
259 207 1
259 208 1
259 235 1
259 236 1
259 260 1
259 308 1
259 311 1
259 312 1
259 313 1
259 314 1
259 355 1
259 356 1
260 77 1
260 78 1
260 79 1
260 80 1
260 82 1
260 84 1
260 207 1
260 208 1
260 235 1
260 236 1
260 259 1
260 312 1
260 314 1
260 355 1
260 356 1
261 13 1
261 14 1
261 15 1
261 16 1
261 209 1
261 210 1
261 245 1
261 246 1
261 250 1
261 262 1
261 299 1
261 300 1
261 327 1
261 328 1
261 341 1
261 344 1
261 353 1
261 354 1
262 13 1
262 14 1
262 15 1
262 16 1
262 209 1
262 210 1
262 245 1
262 246 1
262 249 1
262 261 1
262 299 1
262 300 1
262 327 1
262 328 1
262 341 1
262 342 1
262 343 1
262 344 1
262 353 1
262 354 1
263 21 1
263 22 1
263 23 1
263 32 1
263 37 1
263 38 1
263 41 1
263 42 1
263 48 1
263 54 1
263 164 1
263 264 1
263 265 1
263 266 1
263 267 1
263 268 1
263 301 1
263 388 1
263 389 1
263 396 1
264 21 1
264 22 1
264 24 1
264 37 1
264 38 1
264 42 1
264 47 1
264 48 1
264 53 1
264 103 1
264 105 1
264 263 1
264 265 1
264 266 1
264 267 1
264 268 1
264 301 1
264 389 1
264 396 1
265 241 1
265 242 1
265 247 1
265 248 1
265 263 1
265 264 1
265 266 1
266 21 1
266 24 1
266 47 1
266 107 1
266 109 1
266 241 1
266 242 1
266 247 1
266 248 1
266 263 1
266 264 1
266 265 1
266 301 1
267 17 1
267 18 1
267 20 1
267 29 1
267 30 1
267 31 1
267 32 1
267 38 1
267 39 1
267 41 1
267 163 1
267 164 1
267 215 1
267 216 1
267 263 1
267 264 1
267 268 1
267 301 1
267 387 1
267 388 1
267 391 1
268 17 1
268 18 1
268 19 1
268 21 1
268 29 1
268 30 1
268 31 1
268 41 1
268 42 1
268 50 1
268 52 1
268 163 1
268 164 1
268 215 1
268 216 1
268 263 1
268 264 1
268 267 1
268 302 1
268 387 1
268 388 1
268 392 1
269 59 1
269 60 1
269 137 1
269 138 1
269 213 1
269 214 1
269 229 1
269 230 1
269 231 1
269 232 1
269 243 1
269 244 1
269 270 1
269 273 1
269 274 1
269 369 1
269 370 1
270 59 1
270 60 1
270 137 1
270 138 1
270 213 1
270 214 1
270 229 1
270 230 1
270 231 1
270 232 1
270 243 1
270 244 1
270 269 1
270 273 1
270 274 1
270 370 1
271 233 1
271 234 1
271 272 1
271 273 1
271 274 1
271 283 1
271 284 1
272 233 1
272 234 1
272 271 1
272 273 1
272 274 1
272 283 1
272 284 1
273 231 1
273 232 1
273 269 1
273 270 1
273 271 1
273 272 1
273 274 1
274 231 1
274 232 1
274 269 1
274 270 1
274 271 1
274 272 1
274 273 1
275 77 1
275 78 1
275 79 1
275 80 1
275 97 1
275 98 1
275 276 1
275 277 1
275 278 1
275 344 1
276 77 1
276 78 1
276 79 1
276 80 1
276 97 1
276 98 1
276 275 1
276 277 1
276 278 1
276 344 1
277 119 1
277 121 1
277 245 1
277 246 1
277 275 1
277 276 1
277 278 1
277 343 1
277 344 1
278 245 1
278 246 1
278 275 1
278 276 1
278 277 1
278 343 1
279 127 1
279 128 1
279 139 1
279 140 1
279 243 1
279 244 1
279 280 1
279 281 1
279 282 1
279 343 1
280 127 1
280 128 1
280 139 1
280 140 1
280 243 1
280 244 1
280 279 1
280 281 1
280 282 1
280 343 1
281 128 1
281 211 1
281 212 1
281 217 1
281 218 1
281 253 1
281 254 1
281 279 1
281 280 1
281 282 1
282 211 1
282 212 1
282 217 1
282 218 1
282 253 1
282 254 1
282 279 1
282 280 1
282 281 1
282 343 1
283 233 1
283 234 1
283 271 1
283 272 1
283 284 1
284 233 1
284 234 1
284 271 1
284 272 1
284 283 1
285 29 1
285 30 1
285 31 1
285 32 1
285 101 1
285 102 1
285 115 1
285 116 1
285 117 1
285 118 1
285 227 1
285 228 1
285 286 1
285 288 1
285 301 1
285 302 1
285 309 1
285 310 1
286 29 1
286 30 1
286 31 1
286 32 1
286 41 1
286 101 1
286 102 1
286 115 1
286 116 1
286 117 1
286 118 1
286 227 1
286 228 1
286 285 1
286 287 1
286 301 1
286 302 1
286 309 1
286 310 1
287 29 1
287 30 1
287 31 1
287 32 1
287 101 1
287 102 1
287 115 1
287 116 1
287 117 1
287 118 1
287 227 1
287 228 1
287 286 1
287 288 1
287 301 1
287 302 1
287 309 1
287 310 1
288 29 1
288 30 1
288 31 1
288 32 1
288 41 1
288 101 1
288 102 1
288 115 1
288 116 1
288 117 1
288 118 1
288 227 1
288 228 1
288 285 1
288 287 1
288 301 1
288 302 1
288 309 1
288 310 1
289 73 1
289 74 1
289 75 1
289 76 1
289 218 1
289 290 1
289 295 1
289 296 1
290 73 1
290 74 1
290 75 1
290 76 1
290 289 1
290 295 1
290 296 1
291 10 1
291 292 1
292 291 1
293 39 1
293 41 1
293 43 1
293 44 1
293 45 1
293 46 1
293 55 1
293 56 1
293 91 1
293 113 1
293 151 1
293 152 1
293 294 1
294 38 1
294 43 1
294 44 1
294 45 1
294 46 1
294 47 1
294 55 1
294 56 1
294 151 1
294 152 1
294 293 1
294 347 1
295 289 1
295 290 1
295 296 1
296 289 1
296 290 1
296 295 1
297 298 1
297 323 1
297 324 1
297 328 1
298 297 1
298 323 1
298 324 1
298 327 1
298 328 1
299 1 1
299 3 1
299 119 1
299 120 1
299 121 1
299 209 1
299 210 1
299 245 1
299 246 1
299 249 1
299 250 1
299 251 1
299 252 1
299 261 1
299 262 1
299 300 1
299 343 1
299 344 1
299 353 1
299 354 1
300 2 1
300 4 1
300 119 1
300 120 1
300 122 1
300 209 1
300 210 1
300 245 1
300 246 1
300 249 1
300 250 1
300 251 1
300 252 1
300 261 1
300 262 1
300 299 1
300 343 1
300 344 1
300 353 1
300 354 1
301 17 1
301 18 1
301 19 1
301 24 1
301 29 1
301 31 1
301 32 1
301 41 1
301 42 1
301 47 1
301 48 1
301 49 1
301 50 1
301 51 1
301 52 1
301 53 1
301 54 1
301 55 1
301 56 1
301 104 1
301 106 1
301 115 1
301 116 1
301 117 1
301 118 1
301 163 1
301 164 1
301 215 1
301 216 1
301 227 1
301 228 1
301 263 1
301 264 1
301 266 1
301 267 1
301 285 1
301 286 1
301 287 1
301 288 1
301 302 1
301 347 1
301 387 1
301 388 1
301 392 1
302 17 1
302 18 1
302 20 1
302 30 1
302 31 1
302 32 1
302 41 1
302 42 1
302 53 1
302 55 1
302 103 1
302 105 1
302 115 1
302 116 1
302 117 1
302 118 1
302 163 1
302 164 1
302 177 1
302 215 1
302 216 1
302 227 1
302 228 1
302 268 1
302 285 1
302 286 1
302 287 1
302 288 1
302 301 1
302 387 1
302 388 1
302 391 1
303 103 1
303 104 1
303 105 1
303 106 1
303 107 1
303 108 1
303 109 1
303 110 1
303 304 1
304 103 1
304 104 1
304 105 1
304 106 1
304 107 1
304 108 1
304 109 1
304 110 1
304 303 1
305 129 1
305 130 1
305 306 1
305 399 1
305 400 1
306 129 1
306 130 1
306 305 1
306 399 1
306 400 1
307 25 1
307 26 1
307 27 1
307 28 1
307 78 1
307 80 1
307 81 1
307 83 1
307 86 1
307 87 1
307 88 1
307 89 1
307 90 1
307 133 1
307 134 1
307 135 1
307 136 1
307 207 1
307 208 1
307 235 1
307 236 1
307 308 1
307 311 1
307 312 1
307 313 1
307 314 1
307 315 1
307 316 1
307 317 1
307 318 1
308 25 1
308 26 1
308 27 1
308 28 1
308 77 1
308 79 1
308 82 1
308 84 1
308 85 1
308 87 1
308 88 1
308 89 1
308 90 1
308 133 1
308 134 1
308 135 1
308 136 1
308 207 1
308 208 1
308 235 1
308 236 1
308 259 1
308 307 1
308 311 1
308 312 1
308 313 1
308 314 1
308 315 1
308 316 1
308 317 1
308 318 1
309 29 1
309 30 1
309 55 1
309 101 1
309 102 1
309 285 1
309 286 1
309 287 1
309 288 1
309 310 1
310 29 1
310 30 1
310 41 1
310 101 1
310 102 1
310 285 1
310 286 1
310 287 1
310 288 1
310 309 1
311 25 1
311 26 1
311 27 1
311 28 1
311 77 1
311 78 1
311 79 1
311 80 1
311 81 1
311 82 1
311 83 1
311 84 1
311 85 1
311 86 1
311 207 1
311 208 1
311 235 1
311 236 1
311 259 1
311 307 1
311 308 1
311 312 1
311 313 1
311 314 1
311 315 1
311 316 1
311 317 1
311 318 1
312 25 1
312 26 1
312 27 1
312 28 1
312 77 1
312 78 1
312 79 1
312 80 1
312 81 1
312 82 1
312 83 1
312 84 1
312 85 1
312 86 1
312 207 1
312 208 1
312 235 1
312 236 1
312 259 1
312 260 1
312 307 1
312 308 1
312 311 1
312 313 1
312 314 1
312 315 1
312 316 1
312 317 1
312 318 1
312 355 1
313 25 1
313 26 1
313 27 1
313 28 1
313 77 1
313 78 1
313 79 1
313 80 1
313 81 1
313 83 1
313 85 1
313 86 1
313 207 1
313 208 1
313 235 1
313 236 1
313 259 1
313 307 1
313 308 1
313 311 1
313 312 1
313 314 1
313 315 1
313 316 1
313 317 1
313 318 1
314 25 1
314 26 1
314 27 1
314 28 1
314 77 1
314 78 1
314 79 1
314 80 1
314 82 1
314 84 1
314 85 1
314 86 1
314 207 1
314 208 1
314 235 1
314 236 1
314 259 1
314 260 1
314 307 1
314 308 1
314 311 1
314 312 1
314 313 1
314 315 1
314 316 1
314 317 1
314 318 1
314 355 1
315 25 1
315 26 1
315 27 1
315 28 1
315 81 1
315 82 1
315 83 1
315 84 1
315 85 1
315 86 1
315 87 1
315 88 1
315 89 1
315 90 1
315 133 1
315 134 1
315 135 1
315 136 1
315 307 1
315 308 1
315 311 1
315 312 1
315 313 1
315 314 1
315 316 1
315 317 1
315 318 1
315 356 1
316 25 1
316 26 1
316 27 1
316 28 1
316 81 1
316 82 1
316 83 1
316 84 1
316 85 1
316 86 1
316 87 1
316 88 1
316 89 1
316 90 1
316 133 1
316 134 1
316 135 1
316 136 1
316 307 1
316 308 1
316 311 1
316 312 1
316 313 1
316 314 1
316 315 1
316 317 1
316 318 1
317 25 1
317 28 1
317 81 1
317 82 1
317 83 1
317 84 1
317 85 1
317 86 1
317 87 1
317 88 1
317 89 1
317 90 1
317 134 1
317 136 1
317 307 1
317 308 1
317 311 1
317 312 1
317 313 1
317 314 1
317 315 1
317 316 1
317 318 1
317 356 1
318 26 1
318 27 1
318 81 1
318 82 1
318 83 1
318 84 1
318 85 1
318 86 1
318 87 1
318 88 1
318 89 1
318 90 1
318 133 1
318 134 1
318 135 1
318 136 1
318 307 1
318 308 1
318 311 1
318 312 1
318 313 1
318 314 1
318 315 1
318 316 1
318 317 1
319 7 1
319 8 1
319 68 1
319 129 1
319 161 1
319 162 1
319 320 1
320 7 1
320 8 1
320 67 1
320 68 1
320 129 1
320 161 1
320 162 1
320 319 1
321 17 1
321 39 1
321 40 1
321 42 1
321 103 1
321 105 1
321 143 1
321 144 1
321 151 1
321 152 1
321 167 1
321 168 1
321 185 1
321 322 1
321 347 1
321 348 1
322 39 1
322 40 1
322 41 1
322 143 1
322 144 1
322 151 1
322 152 1
322 167 1
322 168 1
322 186 1
322 321 1
322 347 1
322 348 1
323 71 1
323 72 1
323 123 1
323 124 1
323 125 1
323 126 1
323 297 1
323 298 1
323 324 1
323 327 1
323 328 1
323 339 1
323 340 1
324 71 1
324 72 1
324 123 1
324 124 1
324 125 1
324 126 1
324 297 1
324 298 1
324 323 1
324 327 1
324 328 1
324 339 1
324 340 1
325 217 1
325 218 1
325 237 1
325 238 1
325 239 1
325 240 1
325 251 1
325 252 1
325 326 1
325 343 1
326 217 1
326 218 1
326 237 1
326 238 1
326 239 1
326 240 1
326 251 1
326 252 1
326 325 1
326 343 1
326 344 1
327 13 1
327 14 1
327 15 1
327 16 1
327 261 1
327 262 1
327 298 1
327 323 1
327 324 1
327 328 1
327 341 1
327 342 1
327 343 1
327 344 1
328 13 1
328 14 1
328 15 1
328 16 1
328 261 1
328 262 1
328 297 1
328 298 1
328 323 1
328 324 1
328 327 1
328 341 1
328 342 1
329 147 1
329 148 1
329 155 1
329 156 1
329 330 1
329 331 1
329 332 1
329 333 1
329 334 1
330 34 1
330 36 1
330 100 1
330 147 1
330 148 1
330 155 1
330 156 1
330 329 1
330 331 1
330 332 1
330 333 1
330 334 1
331 329 1
331 330 1
331 332 1
332 100 1
332 329 1
332 330 1
332 331 1
333 147 1
333 148 1
333 155 1
333 156 1
333 202 1
333 219 1
333 220 1
333 329 1
333 330 1
333 334 1
334 147 1
334 148 1
334 155 1
334 156 1
334 219 1
334 220 1
334 329 1
334 330 1
334 333 1
335 37 1
335 225 1
335 226 1
335 336 1
335 337 1
335 338 1
336 225 1
336 226 1
336 335 1
336 337 1
336 338 1
337 227 1
337 228 1
337 335 1
337 336 1
337 338 1
338 37 1
338 227 1
338 228 1
338 335 1
338 336 1
338 337 1
339 71 1
339 72 1
339 123 1
339 124 1
339 125 1
339 126 1
339 323 1
339 324 1
339 340 1
340 71 1
340 72 1
340 123 1
340 124 1
340 125 1
340 126 1
340 323 1
340 324 1
340 339 1
341 13 1
341 14 1
341 15 1
341 16 1
341 261 1
341 262 1
341 327 1
341 328 1
341 342 1
341 343 1
342 13 1
342 14 1
342 15 1
342 16 1
342 262 1
342 327 1
342 328 1
342 341 1
343 1 1
343 2 1
343 3 1
343 4 1
343 96 1
343 119 1
343 120 1
343 121 1
343 122 1
343 209 1
343 210 1
343 217 1
343 238 1
343 239 1
343 243 1
343 245 1
343 246 1
343 249 1
343 251 1
343 252 1
343 262 1
343 277 1
343 278 1
343 279 1
343 280 1
343 282 1
343 299 1
343 300 1
343 325 1
343 326 1
343 327 1
343 341 1
343 344 1
343 353 1
343 354 1
343 358 1
343 359 1
343 360 1
343 361 1
343 362 1
343 363 1
343 367 1
343 368 1
343 370 1
344 1 1
344 2 1
344 3 1
344 4 1
344 96 1
344 119 1
344 120 1
344 121 1
344 122 1
344 209 1
344 210 1
344 217 1
344 238 1
344 245 1
344 246 1
344 249 1
344 250 1
344 251 1
344 252 1
344 261 1
344 262 1
344 275 1
344 276 1
344 277 1
344 299 1
344 300 1
344 326 1
344 327 1
344 343 1
344 353 1
344 356 1
344 357 1
344 358 1
344 360 1
344 361 1
344 366 1
344 367 1
344 368 1
344 370 1
345 20 1
345 32 1
345 37 1
345 38 1
345 42 1
345 55 1
345 173 1
345 215 1
345 216 1
345 346 1
345 389 1
345 396 1
346 20 1
346 30 1
346 31 1
346 56 1
346 215 1
346 216 1
346 345 1
347 39 1
347 55 1
347 294 1
347 301 1
347 321 1
347 322 1
347 348 1
348 39 1
348 55 1
348 321 1
348 322 1
348 347 1
349 350 1
349 397 1
349 398 1
350 349 1
350 397 1
350 398 1
351 171 1
351 172 1
351 183 1
351 184 1
351 189 1
351 190 1
351 352 1
352 171 1
352 172 1
352 183 1
352 184 1
352 189 1
352 190 1
352 351 1
353 14 1
353 16 1
353 209 1
353 245 1
353 246 1
353 249 1
353 250 1
353 261 1
353 262 1
353 299 1
353 300 1
353 343 1
353 344 1
353 354 1
354 209 1
354 210 1
354 245 1
354 246 1
354 249 1
354 250 1
354 261 1
354 262 1
354 299 1
354 300 1
354 343 1
354 353 1
355 77 1
355 79 1
355 82 1
355 84 1
355 207 1
355 208 1
355 259 1
355 260 1
355 312 1
355 314 1
355 356 1
355 357 1
355 358 1
356 25 1
356 27 1
356 207 1
356 208 1
356 259 1
356 260 1
356 315 1
356 317 1
356 344 1
356 355 1
356 357 1
356 358 1
357 344 1
357 355 1
357 356 1
357 358 1
357 359 1
357 360 1
358 10 1
358 95 1
358 343 1
358 344 1
358 355 1
358 356 1
358 357 1
358 359 1
358 360 1
359 343 1
359 357 1
359 358 1
359 360 1
359 361 1
359 362 1
360 343 1
360 344 1
360 357 1
360 358 1
360 359 1
360 361 1
360 362 1
361 343 1
361 344 1
361 359 1
361 360 1
361 362 1
361 363 1
361 364 1
362 343 1
362 359 1
362 360 1
362 361 1
362 363 1
362 364 1
363 343 1
363 361 1
363 362 1
363 364 1
363 365 1
363 366 1
364 361 1
364 362 1
364 363 1
364 365 1
364 366 1
365 363 1
365 364 1
365 366 1
365 367 1
365 368 1
366 344 1
366 363 1
366 364 1
366 365 1
366 367 1
366 368 1
367 343 1
367 344 1
367 365 1
367 366 1
367 368 1
367 369 1
367 370 1
368 231 1
368 343 1
368 344 1
368 365 1
368 366 1
368 367 1
368 369 1
368 370 1
369 59 1
369 60 1
369 137 1
369 138 1
369 213 1
369 214 1
369 229 1
369 230 1
369 243 1
369 269 1
369 367 1
369 368 1
369 370 1
370 59 1
370 60 1
370 137 1
370 138 1
370 213 1
370 214 1
370 229 1
370 230 1
370 244 1
370 269 1
370 270 1
370 343 1
370 344 1
370 367 1
370 368 1
370 369 1
371 372 1
371 373 1
371 374 1
372 371 1
372 373 1
372 374 1
373 371 1
373 372 1
373 374 1
373 375 1
373 376 1
374 371 1
374 372 1
374 373 1
374 375 1
374 376 1
375 373 1
375 374 1
375 376 1
375 377 1
375 378 1
375 379 1
375 380 1
376 373 1
376 374 1
376 375 1
376 377 1
376 378 1
376 379 1
376 380 1
377 375 1
377 376 1
377 378 1
377 379 1
377 380 1
378 375 1
378 376 1
378 377 1
378 379 1
379 57 1
379 58 1
379 375 1
379 376 1
379 377 1
379 378 1
379 380 1
379 381 1
379 382 1
380 57 1
380 58 1
380 375 1
380 376 1
380 377 1
380 379 1
380 381 1
380 382 1
381 57 1
381 58 1
381 379 1
381 380 1
381 382 1
381 383 1
381 384 1
382 57 1
382 58 1
382 379 1
382 380 1
382 381 1
382 383 1
382 384 1
383 381 1
383 382 1
383 384 1
383 385 1
383 386 1
384 381 1
384 382 1
384 383 1
384 385 1
384 386 1
385 40 1
385 42 1
385 143 1
385 144 1
385 145 1
385 146 1
385 149 1
385 150 1
385 383 1
385 384 1
385 386 1
386 40 1
386 143 1
386 144 1
386 145 1
386 146 1
386 149 1
386 150 1
386 383 1
386 384 1
386 385 1
387 17 1
387 18 1
387 19 1
387 20 1
387 29 1
387 30 1
387 31 1
387 38 1
387 41 1
387 42 1
387 163 1
387 164 1
387 215 1
387 216 1
387 267 1
387 268 1
387 301 1
387 302 1
387 388 1
387 391 1
387 392 1
388 17 1
388 18 1
388 19 1
388 20 1
388 30 1
388 32 1
388 38 1
388 39 1
388 41 1
388 42 1
388 163 1
388 164 1
388 215 1
388 216 1
388 263 1
388 267 1
388 268 1
388 301 1
388 302 1
388 387 1
388 391 1
388 392 1
389 17 1
389 18 1
389 20 1
389 24 1
389 29 1
389 30 1
389 37 1
389 38 1
389 42 1
389 49 1
389 51 1
389 55 1
389 173 1
389 174 1
389 177 1
389 178 1
389 263 1
389 264 1
389 345 1
389 390 1
389 395 1
389 396 1
390 17 1
390 18 1
390 19 1
390 22 1
390 29 1
390 30 1
390 37 1
390 38 1
390 41 1
390 42 1
390 173 1
390 174 1
390 177 1
390 178 1
390 215 1
390 389 1
390 395 1
390 396 1
391 17 1
391 18 1
391 19 1
391 21 1
391 31 1
391 41 1
391 42 1
391 163 1
391 164 1
391 215 1
391 216 1
391 267 1
391 302 1
391 387 1
391 388 1
391 392 1
392 17 1
392 18 1
392 20 1
392 30 1
392 32 1
392 38 1
392 41 1
392 163 1
392 164 1
392 215 1
392 216 1
392 268 1
392 301 1
392 387 1
392 388 1
392 391 1
393 394 1
394 10 1
394 393 1
395 17 1
395 18 1
395 20 1
395 22 1
395 29 1
395 30 1
395 37 1
395 38 1
395 41 1
395 42 1
395 55 1
395 173 1
395 174 1
395 177 1
395 178 1
395 389 1
395 390 1
395 396 1
396 17 1
396 18 1
396 24 1
396 29 1
396 30 1
396 37 1
396 38 1
396 41 1
396 42 1
396 49 1
396 51 1
396 55 1
396 103 1
396 105 1
396 173 1
396 174 1
396 177 1
396 178 1
396 263 1
396 264 1
396 345 1
396 389 1
396 390 1
396 395 1
397 169 1
397 170 1
397 349 1
397 350 1
397 398 1
398 169 1
398 170 1
398 349 1
398 350 1
398 397 1
399 129 1
399 130 1
399 305 1
399 306 1
399 400 1
400 129 1
400 130 1
400 305 1
400 306 1
400 399 1
