%%MatrixMarket matrix coordinate integer symmetric
%
44 44 499
2 1 1
3 1 1
3 2 1
4 1 1
4 2 1
4 3 1
6 5 1
7 5 1
7 6 1
8 5 1
8 6 1
8 7 1
9 1 1
9 2 1
9 3 1
9 4 1
9 5 1
9 6 1
9 7 1
9 8 1
10 1 1
10 2 1
10 3 1
10 4 1
10 5 1
10 6 1
10 7 1
10 8 1
10 9 1
11 1 1
11 2 1
11 3 1
11 4 1
11 5 1
11 6 1
11 7 1
11 8 1
11 9 1
11 10 1
12 1 1
12 2 1
12 3 1
12 4 1
12 5 1
12 6 1
12 7 1
12 8 1
12 9 1
12 10 1
12 11 1
13 1 1
13 2 1
13 3 1
13 4 1
13 5 1
13 6 1
13 7 1
13 8 1
13 9 1
13 10 1
13 11 1
13 12 1
14 1 1
14 2 1
14 3 1
14 4 1
14 5 1
14 6 1
14 7 1
14 8 1
14 9 1
14 10 1
14 11 1
14 12 1
14 13 1
15 1 1
15 2 1
15 3 1
15 4 1
15 13 1
15 14 1
16 1 1
16 2 1
16 3 1
16 4 1
16 13 1
16 14 1
16 15 1
17 1 1
17 2 1
17 3 1
17 4 1
17 13 1
17 14 1
17 15 1
17 16 1
18 1 1
18 2 1
18 3 1
18 4 1
18 13 1
18 14 1
18 15 1
18 16 1
18 17 1
19 5 1
19 6 1
19 7 1
19 8 1
20 5 1
20 6 1
20 7 1
20 8 1
20 19 1
21 1 1
21 2 1
21 3 1
21 4 1
21 13 1
21 14 1
21 15 1
21 16 1
21 17 1
21 18 1
22 1 1
22 2 1
22 3 1
22 4 1
22 13 1
22 14 1
22 15 1
22 16 1
22 17 1
22 18 1
22 21 1
23 1 1
23 2 1
23 3 1
23 4 1
23 13 1
23 14 1
23 15 1
23 16 1
23 17 1
23 18 1
23 21 1
23 22 1
24 1 1
24 2 1
24 3 1
24 4 1
24 13 1
24 14 1
24 15 1
24 16 1
24 17 1
24 18 1
24 21 1
24 22 1
24 23 1
25 5 1
25 6 1
25 7 1
25 8 1
25 9 1
25 10 1
25 11 1
25 12 1
25 13 1
25 14 1
26 5 1
26 6 1
26 7 1
26 8 1
26 9 1
26 10 1
26 11 1
26 12 1
26 13 1
26 14 1
26 25 1
27 5 1
27 6 1
27 7 1
27 8 1
27 9 1
27 10 1
27 11 1
27 12 1
27 13 1
27 14 1
27 25 1
27 26 1
28 5 1
28 6 1
28 7 1
28 8 1
28 9 1
28 10 1
28 11 1
28 12 1
28 13 1
28 14 1
28 18 1
28 25 1
28 26 1
28 27 1
29 9 1
29 10 1
29 11 1
29 12 1
29 14 1
29 25 1
29 26 1
29 27 1
29 28 1
30 5 1
30 6 1
30 7 1
30 8 1
30 10 1
30 12 1
30 25 1
30 26 1
30 27 1
30 28 1
30 29 1
31 1 1
31 2 1
31 3 1
31 4 1
31 5 1
31 6 1
31 7 1
31 8 1
31 9 1
31 10 1
31 11 1
31 12 1
31 13 1
31 14 1
31 15 1
31 16 1
31 17 1
31 18 1
31 21 1
31 22 1
31 23 1
31 24 1
31 25 1
31 26 1
31 27 1
31 28 1
32 1 1
32 2 1
32 3 1
32 4 1
32 5 1
32 6 1
32 7 1
32 8 1
32 9 1
32 10 1
32 11 1
32 12 1
32 13 1
32 14 1
32 15 1
32 16 1
32 17 1
32 18 1
32 21 1
32 22 1
32 23 1
32 24 1
32 25 1
32 26 1
32 27 1
32 28 1
32 29 1
32 31 1
33 1 1
33 2 1
33 3 1
33 4 1
33 5 1
33 6 1
33 7 1
33 8 1
33 9 1
33 10 1
33 11 1
33 12 1
33 13 1
33 14 1
33 25 1
33 26 1
33 27 1
33 28 1
33 29 1
33 31 1
33 32 1
34 1 1
34 2 1
34 3 1
34 4 1
34 5 1
34 6 1
34 7 1
34 8 1
34 9 1
34 10 1
34 11 1
34 12 1
34 13 1
34 14 1
34 25 1
34 26 1
34 27 1
34 28 1
34 29 1
34 30 1
34 31 1
34 32 1
34 33 1
35 1 1
35 2 1
35 3 1
35 4 1
35 5 1
35 6 1
35 7 1
35 8 1
35 9 1
35 10 1
35 11 1
35 12 1
35 13 1
35 14 1
35 25 1
35 26 1
35 27 1
35 28 1
35 29 1
35 31 1
35 32 1
35 33 1
35 34 1
36 1 1
36 2 1
36 3 1
36 4 1
36 5 1
36 6 1
36 7 1
36 8 1
36 9 1
36 10 1
36 11 1
36 12 1
36 13 1
36 14 1
36 25 1
36 26 1
36 27 1
36 28 1
36 29 1
36 30 1
36 31 1
36 32 1
36 33 1
36 34 1
36 35 1
37 1 1
37 2 1
37 3 1
37 4 1
37 9 1
37 10 1
37 11 1
37 12 1
37 13 1
37 14 1
37 15 1
37 16 1
37 17 1
37 18 1
37 21 1
37 22 1
37 23 1
37 24 1
37 31 1
37 32 1
37 33 1
37 34 1
37 35 1
37 36 1
38 1 1
38 2 1
38 3 1
38 4 1
38 9 1
38 10 1
38 11 1
38 12 1
38 13 1
38 14 1
38 15 1
38 16 1
38 17 1
38 18 1
38 21 1
38 22 1
38 23 1
38 24 1
38 31 1
38 32 1
38 33 1
38 34 1
38 35 1
38 36 1
38 37 1
39 1 1
39 2 1
39 3 1
39 4 1
39 9 1
39 10 1
39 11 1
39 12 1
39 13 1
39 14 1
39 15 1
39 16 1
39 17 1
39 18 1
39 21 1
39 22 1
39 23 1
39 24 1
39 31 1
39 32 1
39 33 1
39 34 1
39 35 1
39 36 1
39 37 1
39 38 1
40 1 1
40 2 1
40 3 1
40 4 1
40 9 1
40 10 1
40 11 1
40 12 1
40 13 1
40 14 1
40 15 1
40 16 1
40 17 1
40 18 1
40 21 1
40 22 1
40 23 1
40 24 1
40 31 1
40 32 1
40 33 1
40 34 1
40 35 1
40 36 1
40 37 1
40 38 1
40 39 1
41 5 1
41 7 1
41 10 1
41 12 1
41 25 1
41 26 1
41 29 1
41 30 1
41 34 1
41 36 1
42 1 1
42 3 1
42 25 1
42 26 1
42 29 1
42 30 1
42 37 1
42 39 1
42 41 1
43 41 1
43 42 1
44 41 1
44 42 1
44 43 1
